
                        S T E P       1


                                INCREMENT     1


 displacements (vx,vy,vz) for set SET1 and time  0.1000000E+01

         1  0.000000E+00  0.000000E+00  0.000000E+00
         2 -1.723861E-04  0.000000E+00  0.000000E+00
         3  2.463875E-04 -1.723861E-04  1.138229E-03
         4  4.187735E-04 -1.723861E-04  0.000000E+00
         5 -4.651418E-04 -4.651418E-04  3.591649E-04
         6 -6.375279E-04 -6.730874E-04  9.266397E-04
         7 -4.267000E-04 -8.454735E-04  1.497394E-03
         8 -2.543139E-04 -6.375279E-04  9.266397E-04
         9  8.177554E-06 -5.930963E-05  1.494931E-04
        10  1.415017E-05 -1.161229E-04  2.477903E-04
        11 -6.343107E-05 -4.431111E-05  2.795780E-04
        12 -2.338157E-05 -1.089550E-04  5.641353E-04
        13  1.531236E-04 -1.865362E-04  8.169049E-04
        14  2.010037E-04 -1.805636E-04  1.003165E-03
        15  2.382099E-04 -1.130764E-04  1.003165E-03
        16  2.322373E-04 -5.626315E-05  8.169049E-04
        17  3.098185E-04 -1.280749E-04  5.641353E-04
        18  2.697690E-04 -6.343107E-05  2.795780E-04
        19  9.326385E-05  1.415017E-05  2.477903E-04
        20  4.538375E-05  8.177554E-06  1.494931E-04
        21 -5.135223E-04 -5.685224E-04  2.891897E-04
        22 -5.478978E-04 -6.852375E-04  3.951120E-04
        23 -5.851309E-04 -6.733276E-04  5.675439E-04
        24 -5.325943E-04 -7.254843E-04  8.521012E-04
        25 -4.159910E-04 -7.627175E-04  9.642267E-04
        26 -4.280127E-04 -7.970930E-04  1.142862E-03
        27 -3.783194E-04 -7.420929E-04  1.142862E-03
        28 -3.439439E-04 -6.253778E-04  9.642267E-04
        29 -3.067108E-04 -6.372877E-04  8.521012E-04
        30 -3.592474E-04 -5.851309E-04  5.675439E-04
        31 -4.758508E-04 -5.478978E-04  3.951120E-04
        32 -4.638290E-04 -5.135223E-04  2.891897E-04
        33 -8.812985E-05 -3.688135E-04  3.229290E-04
        34 -3.066585E-04 -4.348422E-04  5.899592E-04
        35 -3.906659E-04 -6.353921E-04  7.448477E-04
        36 -4.242175E-04 -4.242175E-04  1.909571E-04
        37 -2.404016E-04 -2.404016E-04  5.294315E-05
        38 -1.216815E-04 -1.216815E-04  2.707088E-05
        39  8.351164E-05 -3.352619E-04  1.165300E-03
        40 -8.232552E-05 -5.010990E-04  1.191172E-03
        41 -1.830670E-04 -6.018405E-04  1.329186E-03
        42  4.996001E-05 -8.812985E-05  3.229290E-04
        43 -1.606870E-05 -3.066585E-04  5.899592E-04
        44 -2.166186E-04 -3.906659E-04  7.448477E-04
        45  5.123257E-05 -8.795818E-05  3.803334E-04
        46  1.214286E-04 -5.346081E-05  3.803334E-04
        47  1.231937E-04 -8.619303E-05  5.629633E-04
        48  1.249589E-04 -1.189252E-04  6.648907E-04
        49  1.951549E-04 -8.442787E-05  6.648907E-04
        50 -4.961989E-04 -6.570728E-04  5.471262E-04
        51 -4.476860E-04 -6.008923E-04  5.471262E-04
        52 -4.459209E-04 -6.553076E-04  6.490536E-04
        53 -4.441557E-04 -7.097230E-04  8.316835E-04
        54 -3.956429E-04 -6.535425E-04  8.316835E-04
        55 -1.390251E-04 -2.226377E-04  2.435022E-04
        56 -2.319169E-04 -3.110753E-04  1.460662E-04
        57 -2.197600E-04 -3.996265E-04  2.385701E-04
        58 -2.489388E-04 -4.299064E-04  3.202589E-04
        59 -4.094148E-04 -5.071950E-04  3.994002E-04
        60 -2.491890E-05 -3.179182E-04  8.126168E-04
        61 -2.069009E-04 -4.925618E-04  6.048162E-04
        62 -1.324874E-04 -5.217407E-04  8.076847E-04
        63 -1.163452E-04 -5.095838E-04  9.997382E-04
        64 -3.094762E-04 -6.166432E-04  9.685148E-04
        65  1.008553E-04 -2.343057E-04  8.126168E-04
        66 -9.081024E-05 -4.304253E-04  9.997382E-04
        67 -1.029672E-04 -3.418742E-04  8.076847E-04
        68 -7.378832E-05 -3.115943E-04  6.048162E-04
        69 -1.978697E-04 -5.188630E-04  9.685148E-04
        70 -1.325095E-05 -1.390251E-04  2.435022E-04
        71 -1.158263E-04 -2.489388E-04  3.202589E-04
        72 -1.902397E-04 -2.197600E-04  2.385701E-04
        73 -2.063820E-04 -2.319169E-04  1.460662E-04
        74 -2.978083E-04 -4.094148E-04  3.994002E-04
        75 -1.908492E-05 -2.284717E-04  5.830321E-04
        76 -1.778981E-04 -3.869557E-04  4.192490E-04
        77 -1.775690E-04 -2.825915E-04  4.192490E-04
        78 -1.613636E-04 -3.707503E-04  6.060085E-04
        79 -1.451582E-04 -4.589091E-04  7.038064E-04
        80 -1.448290E-04 -3.545449E-04  7.038064E-04
        81 -3.036422E-04 -5.130290E-04  6.289848E-04
        82  0.000000E+00  0.000000E+00  0.000000E+00
        83  0.000000E+00  0.000000E+00  0.000000E+00
        84  0.000000E+00  0.000000E+00  0.000000E+00
        85  0.000000E+00  0.000000E+00  0.000000E+00
        86  0.000000E+00  0.000000E+00  0.000000E+00
        87  0.000000E+00  0.000000E+00  0.000000E+00
        88  0.000000E+00  0.000000E+00  0.000000E+00
        89  0.000000E+00  0.000000E+00  0.000000E+00
        90  0.000000E+00  0.000000E+00  0.000000E+00
        91  0.000000E+00  0.000000E+00  0.000000E+00
        92  0.000000E+00  0.000000E+00  0.000000E+00
        93  0.000000E+00  0.000000E+00  0.000000E+00
        94  0.000000E+00  0.000000E+00  0.000000E+00
        95  0.000000E+00  0.000000E+00  0.000000E+00
        96  0.000000E+00  0.000000E+00  0.000000E+00
        97  0.000000E+00  0.000000E+00  0.000000E+00
        98  0.000000E+00  0.000000E+00  0.000000E+00
        99  0.000000E+00  0.000000E+00  0.000000E+00
       100  0.000000E+00  0.000000E+00  0.000000E+00
       101  0.000000E+00  0.000000E+00  0.000000E+00
       102  0.000000E+00  0.000000E+00  0.000000E+00
       103  0.000000E+00  0.000000E+00  0.000000E+00
       104  0.000000E+00  0.000000E+00  0.000000E+00
       105  0.000000E+00  0.000000E+00  0.000000E+00
       106  0.000000E+00  0.000000E+00  0.000000E+00
       107  0.000000E+00  0.000000E+00  0.000000E+00
       108  0.000000E+00  0.000000E+00  0.000000E+00
       109  0.000000E+00  0.000000E+00  0.000000E+00
       110  0.000000E+00  0.000000E+00  0.000000E+00
       111  0.000000E+00  0.000000E+00  0.000000E+00
       112  0.000000E+00  0.000000E+00  0.000000E+00
       113  0.000000E+00  0.000000E+00  0.000000E+00
       114  0.000000E+00  0.000000E+00  0.000000E+00
       115  0.000000E+00  0.000000E+00  0.000000E+00
       116  0.000000E+00  0.000000E+00  0.000000E+00
       117  0.000000E+00  0.000000E+00  0.000000E+00
       118  0.000000E+00  0.000000E+00  0.000000E+00
       119  0.000000E+00  0.000000E+00  0.000000E+00
       120  0.000000E+00  0.000000E+00  0.000000E+00
       121  0.000000E+00  0.000000E+00  0.000000E+00
       122  0.000000E+00  0.000000E+00  0.000000E+00
       123  0.000000E+00  0.000000E+00  0.000000E+00
       124  0.000000E+00  0.000000E+00  0.000000E+00
       125  0.000000E+00  0.000000E+00  0.000000E+00
       126  0.000000E+00  0.000000E+00  0.000000E+00
       127  0.000000E+00  0.000000E+00  0.000000E+00
       128  0.000000E+00  0.000000E+00  0.000000E+00
       129  0.000000E+00  0.000000E+00  0.000000E+00
       130  0.000000E+00  0.000000E+00  0.000000E+00
       131  0.000000E+00  0.000000E+00  0.000000E+00
       132  0.000000E+00  0.000000E+00  0.000000E+00
       133  0.000000E+00  0.000000E+00  0.000000E+00
       134  0.000000E+00  0.000000E+00  0.000000E+00
       135  0.000000E+00  0.000000E+00  0.000000E+00
       136  0.000000E+00  0.000000E+00  0.000000E+00
       137  0.000000E+00  0.000000E+00  0.000000E+00
       138  0.000000E+00  0.000000E+00  0.000000E+00
       139  0.000000E+00  0.000000E+00  0.000000E+00
       140  0.000000E+00  0.000000E+00  0.000000E+00
       141  0.000000E+00  0.000000E+00  0.000000E+00
       142  0.000000E+00  0.000000E+00  0.000000E+00
       143  0.000000E+00  0.000000E+00  0.000000E+00
       144  0.000000E+00  0.000000E+00  0.000000E+00
       145  0.000000E+00  0.000000E+00  0.000000E+00
       146  0.000000E+00  0.000000E+00  0.000000E+00
       147  0.000000E+00  0.000000E+00  0.000000E+00
       148  0.000000E+00  0.000000E+00  0.000000E+00
       149  0.000000E+00  0.000000E+00  0.000000E+00
       150  0.000000E+00  0.000000E+00  0.000000E+00
       151  0.000000E+00  0.000000E+00  0.000000E+00
       152  0.000000E+00  0.000000E+00  0.000000E+00
       153  0.000000E+00  0.000000E+00  0.000000E+00
       154  0.000000E+00  0.000000E+00  0.000000E+00
       155  0.000000E+00  0.000000E+00  0.000000E+00
       156 -2.606966E-04 -3.220023E-04  2.717656E-04
       157 -2.660417E-04 -3.996265E-04  4.043322E-04
       158 -2.777185E-04 -4.189794E-04  5.477139E-04
       159  0.000000E+00  0.000000E+00  0.000000E+00
       160  0.000000E+00  0.000000E+00  0.000000E+00
       161 -2.178279E-04 -4.637822E-04  8.322712E-04
       162 -1.324874E-04 -4.754590E-04  9.734468E-04
       163 -1.054182E-04 -4.808041E-04  1.125438E-03
       164  0.000000E+00  0.000000E+00  0.000000E+00
       165  0.000000E+00  0.000000E+00  0.000000E+00
       166 -6.203058E-05 -4.194984E-04  1.125438E-03
       167 -5.668546E-05 -3.418742E-04  9.734468E-04
       168 -4.500866E-05 -3.225212E-04  8.322712E-04
       169  0.000000E+00  0.000000E+00  0.000000E+00
       170  0.000000E+00  0.000000E+00  0.000000E+00
       171 -1.048993E-04 -2.777185E-04  5.477139E-04
       172 -1.902397E-04 -2.660417E-04  4.043322E-04
       173 -2.173089E-04 -2.606966E-04  2.717656E-04
       174  0.000000E+00  0.000000E+00  0.000000E+00
       175  0.000000E+00  0.000000E+00  0.000000E+00
       176 -2.149604E-04 -3.869557E-04  5.082106E-04
       177 -1.775690E-04 -3.196538E-04  5.082106E-04
       178 -1.613636E-04 -3.707503E-04  6.060085E-04
       179 -1.451582E-04 -4.218469E-04  7.927679E-04
       180 -1.077667E-04 -3.545449E-04  7.927679E-04

 stresses (elem, integ.pnt.,sxx,syy,szz,sxy,sxz,syz) for set SET2 and time  0.1000000E+01

         1   1 -2.600167E+00 -2.600167E+00  3.625318E+00  3.062590E+00  1.358358E+00  1.358358E+00
         1   2 -5.200285E+00  5.231693E+00  3.297180E+00  2.988195E+00 -1.315433E+01  4.019350E+00
         1   3  5.231693E+00 -5.200285E+00  3.297180E+00  2.988195E+00  4.019350E+00 -1.315433E+01
         1   4 -8.986443E+00 -8.986443E+00  1.153378E+01  1.323712E+01  6.548194E+00  6.548194E+00
         1   5 -4.917874E-01 -4.917874E-01  4.084941E+00 -5.691371E-01 -1.728330E+00 -1.728330E+00
         1   6  2.701717E+00  4.607920E+00  5.340509E+00 -4.774403E+00  5.357368E+00 -2.796545E+00
         1   7  4.607920E+00  2.701717E+00  5.340509E+00 -4.774403E+00 -2.796545E+00  5.357368E+00
         1   8  1.170018E+01  1.170018E+01  2.543981E+01 -8.562821E+00  9.692790E+00  9.692790E+00
         2   1 -1.101606E+01 -6.312115E+00 -2.273027E+01  7.176869E+00  4.154159E+00 -1.894751E+00
         2   2 -5.519026E+00 -5.519026E+00  5.955857E+01  5.599721E+00 -1.584635E+01  1.584635E+01
         2   3 -9.130642E+00 -9.130642E+00 -3.851486E+00  1.126215E+01  1.910397E+00 -1.910397E+00
         2   4 -6.312115E+00 -1.101606E+01 -2.273027E+01  7.176869E+00  1.894751E+00 -4.154159E+00
         2   5  8.890292E+00 -3.086655E+00 -2.477360E+01 -9.166155E+00 -1.195112E+01  6.719461E-01
         2   6  8.170139E+00  8.170139E+00  3.396513E+01 -4.905838E+00 -9.657442E+00  9.657442E+00
         2   7  1.104124E+01  1.104124E+01  7.376298E+00 -1.274912E+01 -1.080323E+01  1.080323E+01
         2   8 -3.086655E+00  8.890292E+00 -2.477360E+01 -9.166155E+00 -6.719461E-01  1.195112E+01
         3   1 -6.312115E+00 -1.101606E+01 -2.273027E+01  7.176869E+00 -1.894751E+00  4.154159E+00
         3   2 -9.130642E+00 -9.130642E+00 -3.851486E+00  1.126215E+01 -1.910397E+00  1.910397E+00
         3   3 -5.519026E+00 -5.519026E+00  5.955857E+01  5.599721E+00  1.584635E+01 -1.584635E+01
         3   4 -1.101606E+01 -6.312115E+00 -2.273027E+01  7.176869E+00 -4.154159E+00  1.894751E+00
         3   5 -3.086655E+00  8.890292E+00 -2.477360E+01 -9.166155E+00  6.719461E-01 -1.195112E+01
         3   6  1.104124E+01  1.104124E+01  7.376298E+00 -1.274912E+01  1.080323E+01 -1.080323E+01
         3   7  8.170139E+00  8.170139E+00  3.396513E+01 -4.905838E+00  9.657442E+00 -9.657442E+00
         3   8  8.890292E+00 -3.086655E+00 -2.477360E+01 -9.166155E+00  1.195112E+01 -6.719461E-01
         4   1 -8.986443E+00 -8.986443E+00  1.153378E+01  1.323712E+01 -6.548194E+00 -6.548194E+00
         4   2  5.231693E+00 -5.200285E+00  3.297180E+00  2.988195E+00 -4.019350E+00  1.315433E+01
         4   3 -5.200285E+00  5.231693E+00  3.297180E+00  2.988195E+00  1.315433E+01 -4.019350E+00
         4   4 -2.600167E+00 -2.600167E+00  3.625318E+00  3.062590E+00 -1.358358E+00 -1.358358E+00
         4   5  1.170018E+01  1.170018E+01  2.543981E+01 -8.562821E+00 -9.692790E+00 -9.692790E+00
         4   6  4.607920E+00  2.701717E+00  5.340509E+00 -4.774403E+00  2.796545E+00 -5.357368E+00
         4   7  2.701717E+00  4.607920E+00  5.340509E+00 -4.774403E+00 -5.357368E+00  2.796545E+00
         4   8 -4.917874E-01 -4.917874E-01  4.084941E+00 -5.691371E-01  1.728330E+00  1.728330E+00
         5   1  4.270287E+00  4.270287E+00  1.764062E+01  2.683577E+00 -4.147324E+00 -4.147324E+00
         5   2  6.052079E+00  1.090259E+00 -8.944593E+00  2.512686E+00 -8.917411E+00  1.266014E+00
         5   3  1.090259E+00  6.052079E+00 -8.944593E+00  2.512686E+00  1.266014E+00 -8.917411E+00
         5   4  1.125607E+01  1.125607E+01  1.677676E+01  2.929979E+00 -1.000073E+01 -1.000073E+01
         5   5 -4.346279E+00 -4.346279E+00  3.076944E+01 -1.455416E+00 -8.986541E+00 -8.986541E+00
         5   6 -8.264813E+00 -3.113381E-01 -8.832672E+00 -2.445443E+00  8.537560E+00 -1.204392E+00
         5   7 -3.113381E-01 -8.264813E+00 -8.832672E+00 -2.445443E+00 -1.204392E+00  8.537560E+00
         5   8 -9.020918E+00 -9.020918E+00  4.372477E+00  4.790303E-01 -2.324204E+00 -2.324204E+00
         6   1  5.539929E+00  4.310053E-01 -1.048850E+01 -1.879067E+00  8.391081E+00  8.585852E-01
         6   2  3.408064E+00  3.408064E+00  2.040945E+01 -1.653124E+00  3.781789E+00 -3.781789E+00
         6   3  1.148536E+01  1.148536E+01  1.603935E+01 -1.256318E+00  1.049529E+01 -1.049529E+01
         6   4  4.310053E-01  5.539929E+00 -1.048850E+01 -1.879067E+00 -8.585852E-01 -8.391081E+00
         6   5 -7.951535E+00 -7.690844E-01 -1.060042E+01  1.743231E+00 -8.770932E+00 -9.202073E-01
         6   6 -3.772914E+00 -3.772914E+00  3.241446E+01  1.081714E+00  8.218164E+00 -8.218164E+00
         6   7 -9.096167E+00 -9.096167E+00  3.309813E+00 -1.495940E+00  2.313593E+00 -2.313593E+00
         6   8 -7.690844E-01 -7.951535E+00 -1.060042E+01  1.743231E+00  9.202073E-01  8.770932E+00
         7   1  4.310053E-01  5.539929E+00 -1.048850E+01 -1.879067E+00  8.585852E-01  8.391081E+00
         7   2  1.148536E+01  1.148536E+01  1.603935E+01 -1.256318E+00 -1.049529E+01  1.049529E+01
         7   3  3.408064E+00  3.408064E+00  2.040945E+01 -1.653124E+00 -3.781789E+00  3.781789E+00
         7   4  5.539929E+00  4.310053E-01 -1.048850E+01 -1.879067E+00 -8.391081E+00 -8.585852E-01
         7   5 -7.690844E-01 -7.951535E+00 -1.060042E+01  1.743231E+00 -9.202073E-01 -8.770932E+00
         7   6 -9.096167E+00 -9.096167E+00  3.309813E+00 -1.495940E+00 -2.313593E+00  2.313593E+00
         7   7 -3.772914E+00 -3.772914E+00  3.241446E+01  1.081714E+00 -8.218164E+00  8.218164E+00
         7   8 -7.951535E+00 -7.690844E-01 -1.060042E+01  1.743231E+00  8.770932E+00  9.202073E-01
         8   1  1.125607E+01  1.125607E+01  1.677676E+01  2.929979E+00  1.000073E+01  1.000073E+01
         8   2  1.090259E+00  6.052079E+00 -8.944593E+00  2.512686E+00 -1.266014E+00  8.917411E+00
         8   3  6.052079E+00  1.090259E+00 -8.944593E+00  2.512686E+00  8.917411E+00 -1.266014E+00
         8   4  4.270287E+00  4.270287E+00  1.764062E+01  2.683577E+00  4.147324E+00  4.147324E+00
         8   5 -9.020918E+00 -9.020918E+00  4.372477E+00  4.790303E-01  2.324204E+00  2.324204E+00
         8   6 -3.113381E-01 -8.264813E+00 -8.832672E+00 -2.445443E+00  1.204392E+00 -8.537560E+00
         8   7 -8.264813E+00 -3.113381E-01 -8.832672E+00 -2.445443E+00 -8.537560E+00  1.204392E+00
         8   8 -4.346279E+00 -4.346279E+00  3.076944E+01 -1.455416E+00  8.986541E+00  8.986541E+00
