
                        S T E P       1


                                INCREMENT     1


 displacements (vx,vy,vz) for set SET1 and time  0.1000000E+01

         1  0.000000E+00  0.000000E+00  0.000000E+00
         2 -1.557708E-04  0.000000E+00  0.000000E+00
         3  2.630027E-04 -1.557708E-04  1.138229E-03
         4  4.187735E-04 -1.557708E-04  0.000000E+00
         5 -4.581058E-04 -4.581058E-04  3.083848E-04
         6 -6.279486E-04 -6.660514E-04  8.758596E-04
         7 -4.171207E-04 -8.358943E-04  1.446614E-03
         8 -2.472779E-04 -6.279486E-04  8.758596E-04
         9  1.363240E-05 -5.095028E-05  1.418763E-04
        10  2.245780E-05 -1.051334E-04  2.405392E-04
        11 -5.227065E-05 -3.595176E-05  2.719612E-04
        12 -1.512566E-05 -1.035001E-04  5.565185E-04
        13  1.587493E-04 -1.782286E-04  8.096538E-04
        14  2.092596E-04 -1.694032E-04  9.955482E-04
        15  2.493703E-04 -1.048205E-04  9.955482E-04
        16  2.405449E-04 -5.063743E-05  8.096538E-04
        17  3.152734E-04 -1.198190E-04  5.565185E-04
        18  2.781284E-04 -5.227065E-05  2.719612E-04
        19  1.042534E-04  2.245780E-05  2.405392E-04
        20  5.374310E-05  1.363240E-05  1.418763E-04
        21 -5.060736E-04 -5.610584E-04  2.391166E-04
        22 -5.395902E-04 -6.748501E-04  3.458807E-04
        23 -5.759644E-04 -6.658635E-04  5.174708E-04
        24 -5.234431E-04 -7.180356E-04  8.020281E-04
        25 -4.097631E-04 -7.544098E-04  9.149953E-04
        26 -4.188615E-04 -7.879264E-04  1.092789E-03
        27 -3.691529E-04 -7.329417E-04  1.092789E-03
        28 -3.356363E-04 -6.191499E-04  9.149953E-04
        29 -2.992621E-04 -6.281365E-04  8.020281E-04
        30 -3.517834E-04 -5.759644E-04  5.174708E-04
        31 -4.654634E-04 -5.395902E-04  3.458807E-04
        32 -4.563650E-04 -5.060736E-04  2.391166E-04
        33 -8.424545E-05 -3.560827E-04  3.097562E-04
        34 -2.893098E-04 -4.355756E-04  5.423256E-04
        35 -3.820383E-04 -6.274044E-04  6.951310E-04
        36 -4.162298E-04 -4.162298E-04  1.412404E-04
        37 -2.411350E-04 -2.411350E-04  5.309529E-06
        38 -1.089506E-04 -1.089506E-04  1.389804E-05
        39  8.739604E-05 -3.313775E-04  1.152127E-03
        40 -6.497687E-05 -4.837504E-04  1.143539E-03
        41 -1.744394E-04 -5.932129E-04  1.279470E-03
        42  6.269086E-05 -8.424545E-05  3.097562E-04
        43 -1.680210E-05 -2.893098E-04  5.423256E-04
        44 -2.086309E-04 -3.820383E-04  6.951310E-04
        45  5.954020E-05 -7.973011E-05  3.738546E-04
        46  1.296566E-04 -4.515318E-05  3.738546E-04
        47  1.315014E-04 -7.788540E-05  5.480610E-04
        48  1.333461E-04 -1.106176E-04  6.584119E-04
        49  2.034625E-04 -7.604069E-05  6.584119E-04
        50 -4.878913E-04 -6.478320E-04  4.975255E-04
        51 -4.384452E-04 -5.925847E-04  4.975255E-04
        52 -4.376133E-04 -6.470000E-04  5.976130E-04
        53 -4.367813E-04 -7.014154E-04  7.820828E-04
        54 -3.873352E-04 -6.461681E-04  7.820828E-04
        55 -1.307175E-04 -2.172845E-04  2.472247E-04
        56 -2.250734E-04 -2.994817E-04  1.446836E-04
        57 -2.114524E-04 -3.653773E-04  2.760066E-04
        58 -2.391670E-04 -4.183128E-04  3.188763E-04
        59 -4.011071E-04 -4.997031E-04  3.496463E-04
        60 -1.365682E-05 -3.096106E-04  8.163393E-04
        61 -2.018793E-04 -4.857184E-04  6.034336E-04
        62 -1.501214E-04 -5.134330E-04  8.451212E-04
        63 -1.113236E-04 -4.998120E-04  9.983555E-04
        64 -3.003529E-04 -6.083356E-04  9.187609E-04
        65  1.091629E-04 -2.230436E-04  8.163393E-04
        66 -8.103845E-05 -4.254037E-04  9.983555E-04
        67 -9.465952E-05 -3.595081E-04  8.451212E-04
        68 -6.694485E-05 -3.065726E-04  6.034336E-04
        69 -1.895621E-04 -5.097396E-04  9.187609E-04
        70 -7.897771E-06 -1.307175E-04  2.472247E-04
        71 -1.042326E-04 -2.391670E-04  3.188763E-04
        72 -1.559905E-04 -2.114524E-04  2.760066E-04
        73 -1.947883E-04 -2.250734E-04  1.446836E-04
        74 -2.903163E-04 -4.011071E-04  3.496463E-04
        75 -1.077729E-05 -2.201641E-04  5.635164E-04
        76 -1.695905E-04 -3.699339E-04  4.090616E-04
        77 -1.605472E-04 -2.742839E-04  4.090616E-04
        78 -1.530559E-04 -3.624427E-04  5.627529E-04
        79 -1.455647E-04 -4.506015E-04  6.936189E-04
        80 -1.365214E-04 -3.549515E-04  6.936189E-04
        81 -2.953346E-04 -5.047214E-04  5.809286E-04
       156 -2.561227E-04 -3.154491E-04  2.231256E-04
       157 -2.577341E-04 -3.900695E-04  3.537125E-04
       158 -2.656771E-04 -4.124262E-04  4.990738E-04
       159  0.000000E+00  0.000000E+00  0.000000E+00
       160  0.000000E+00  0.000000E+00  0.000000E+00
       161 -2.077658E-04 -4.592083E-04  7.836311E-04
       162 -1.254292E-04 -4.671513E-04  9.228271E-04
       163 -9.535614E-05 -4.687627E-04  1.076798E-03
       164  0.000000E+00  0.000000E+00  0.000000E+00
       165  0.000000E+00  0.000000E+00  0.000000E+00
       166 -4.998919E-05 -4.094363E-04  1.076798E-03
       167 -4.837783E-05 -3.348159E-04  9.228271E-04
       168 -4.043479E-05 -3.124592E-04  7.836311E-04
       169  0.000000E+00  0.000000E+00  0.000000E+00
       170  0.000000E+00  0.000000E+00  0.000000E+00
       171 -9.834611E-05 -2.656771E-04  4.990738E-04
       172 -1.806827E-04 -2.577341E-04  3.537125E-04
       173 -2.107558E-04 -2.561227E-04  2.231256E-04
       174  0.000000E+00  0.000000E+00  0.000000E+00
       175  0.000000E+00  0.000000E+00  0.000000E+00
       176 -2.066528E-04 -3.789417E-04  4.590981E-04
       177 -1.695549E-04 -3.113462E-04  4.590981E-04
       178 -1.530559E-04 -3.624427E-04  5.627529E-04
       179 -1.365570E-04 -4.135392E-04  7.436554E-04
       180 -9.945910E-05 -3.459437E-04  7.436554E-04

 stresses (elem, integ.pnt.,sxx,syy,szz,sxy,sxz,syz) for set SET2 and time  0.1000000E+01

         1   1 -1.969703E+00 -1.969703E+00  2.442366E+00  1.888912E+00  2.608337E+00  2.608337E+00
         1   2 -5.486007E+00  5.466594E+00  5.222494E+00  1.265835E+00 -1.218766E+01  1.923313E+00
         1   3  5.466594E+00 -5.486007E+00  5.222494E+00  1.265835E+00  1.923313E+00 -1.218766E+01
         1   4 -7.061352E+00 -7.061352E+00  8.866100E+00  1.197225E+01  4.735461E+00  4.735461E+00
         1   5 -2.188165E+00 -2.188165E+00 -4.813654E+00 -1.511839E+00  4.925114E-01  4.925114E-01
         1   6  4.471310E+00  3.848711E+00  1.575547E+01 -3.831613E+00  8.635517E+00 -4.945331E+00
         1   7  3.848711E+00  4.471310E+00  1.575547E+01 -3.831613E+00 -4.945331E+00  8.635517E+00
         1   8  6.701001E+00  6.701001E+00  1.350849E+01 -8.721997E+00  6.486697E+00  6.486697E+00
         2   1 -1.130179E+01 -6.077215E+00 -2.080496E+01  8.899229E+00  3.187485E+00 -3.990788E+00
         2   2 -4.888561E+00 -4.888561E+00  5.837562E+01  6.773398E+00 -1.709633E+01  1.709633E+01
         2   3 -7.205551E+00 -7.205551E+00 -6.519162E+00  1.252702E+01  3.723129E+00 -3.723129E+00
         2   4 -6.077215E+00 -1.130179E+01 -2.080496E+01  8.899229E+00  3.990788E+00 -3.187485E+00
         2   5  1.065988E+01 -3.845864E+00 -1.435864E+01 -1.010894E+01 -1.522927E+01 -1.476839E+00
         2   6  6.473761E+00  6.473761E+00  2.506654E+01 -3.963136E+00 -1.187828E+01  1.187828E+01
         2   7  6.042059E+00  6.042059E+00 -4.555026E+00 -1.258994E+01 -7.597138E+00  7.597138E+00
         2   8 -3.845864E+00  1.065988E+01 -1.435864E+01 -1.010894E+01  1.476839E+00  1.522927E+01
         3   1 -6.077215E+00 -1.130179E+01 -2.080496E+01  8.899229E+00 -3.990788E+00  3.187485E+00
         3   2 -7.205551E+00 -7.205551E+00 -6.519162E+00  1.252702E+01 -3.723129E+00  3.723129E+00
         3   3 -4.888561E+00 -4.888561E+00  5.837562E+01  6.773398E+00  1.709633E+01 -1.709633E+01
         3   4 -1.130179E+01 -6.077215E+00 -2.080496E+01  8.899229E+00 -3.187485E+00  3.990788E+00
         3   5 -3.845864E+00  1.065988E+01 -1.435864E+01 -1.010894E+01 -1.476839E+00 -1.522927E+01
         3   6  6.042059E+00  6.042059E+00 -4.555026E+00 -1.258994E+01  7.597138E+00 -7.597138E+00
         3   7  6.473761E+00  6.473761E+00  2.506654E+01 -3.963136E+00  1.187828E+01 -1.187828E+01
         3   8  1.065988E+01 -3.845864E+00 -1.435864E+01 -1.010894E+01  1.522927E+01  1.476839E+00
         4   1 -7.061352E+00 -7.061352E+00  8.866100E+00  1.197225E+01 -4.735461E+00 -4.735461E+00
         4   2  5.466594E+00 -5.486007E+00  5.222494E+00  1.265835E+00 -1.923313E+00  1.218766E+01
         4   3 -5.486007E+00  5.466594E+00  5.222494E+00  1.265835E+00  1.218766E+01 -1.923313E+00
         4   4 -1.969703E+00 -1.969703E+00  2.442366E+00  1.888912E+00 -2.608337E+00 -2.608337E+00
         4   5  6.701001E+00  6.701001E+00  1.350849E+01 -8.721997E+00 -6.486697E+00 -6.486697E+00
         4   6  3.848711E+00  4.471310E+00  1.575547E+01 -3.831613E+00  4.945331E+00 -8.635517E+00
         4   7  4.471310E+00  3.848711E+00  1.575547E+01 -3.831613E+00 -8.635517E+00  4.945331E+00
         4   8 -2.188165E+00 -2.188165E+00 -4.813654E+00 -1.511839E+00 -4.925114E-01 -4.925114E-01
         5   1  6.194154E+00  6.194154E+00  1.783076E+01  4.243394E+00 -2.991586E+00 -2.991586E+00
         5   2  6.882671E+00  1.055370E+00 -8.536485E+00  2.558859E+00 -8.818981E+00  9.563351E-01
         5   3  1.055370E+00  6.882671E+00 -8.536485E+00  2.558859E+00  9.563351E-01 -8.818981E+00
         5   4  1.154045E+01  1.154045E+01  1.577040E+01  2.690362E+00 -9.253100E+00 -9.253100E+00
         5   5 -4.654871E+00 -4.654871E+00  3.018557E+01 -1.841281E+00 -9.368275E+00 -9.368275E+00
         5   6 -8.051362E+00 -3.015021E-01 -8.424564E+00 -2.398492E+00  8.439130E+00 -8.947130E-01
         5   7 -3.015021E-01 -8.051362E+00 -8.424564E+00 -2.398492E+00 -8.947130E-01  8.439130E+00
         5   8 -8.759123E+00 -8.759123E+00  4.140120E+00  5.009089E-01 -2.297830E+00 -2.297830E+00
         6   1  6.370521E+00  3.961158E-01 -1.008039E+01 -1.925240E+00  8.292651E+00  5.489063E-01
         6   2  5.331930E+00  5.331930E+00  2.059960E+01 -3.212940E+00  2.626051E+00 -2.626051E+00
         6   3  1.176974E+01  1.176974E+01  1.503299E+01 -1.016700E+00  9.747663E+00 -9.747663E+00
         6   4  3.961158E-01  6.370521E+00 -1.008039E+01 -1.925240E+00 -5.489063E-01 -8.292651E+00
         6   5 -7.738084E+00 -7.592484E-01 -1.019231E+01  1.696280E+00 -8.672502E+00 -6.105285E-01
         6   6 -4.081507E+00 -4.081507E+00  3.183060E+01  1.467580E+00  8.599899E+00 -8.599899E+00
         6   7 -8.834372E+00 -8.834372E+00  3.077456E+00 -1.517819E+00  2.287219E+00 -2.287219E+00
         6   8 -7.592484E-01 -7.738084E+00 -1.019231E+01  1.696280E+00  6.105285E-01  8.672502E+00
         7   1  3.961158E-01  6.370521E+00 -1.008039E+01 -1.925240E+00  5.489063E-01  8.292651E+00
         7   2  1.176974E+01  1.176974E+01  1.503299E+01 -1.016700E+00 -9.747663E+00  9.747663E+00
         7   3  5.331930E+00  5.331930E+00  2.059960E+01 -3.212940E+00 -2.626051E+00  2.626051E+00
         7   4  6.370521E+00  3.961158E-01 -1.008039E+01 -1.925240E+00 -8.292651E+00 -5.489063E-01
         7   5 -7.592484E-01 -7.738084E+00 -1.019231E+01  1.696280E+00 -6.105285E-01 -8.672502E+00
         7   6 -8.834372E+00 -8.834372E+00  3.077456E+00 -1.517819E+00 -2.287219E+00  2.287219E+00
         7   7 -4.081507E+00 -4.081507E+00  3.183060E+01  1.467580E+00 -8.599899E+00  8.599899E+00
         7   8 -7.738084E+00 -7.592484E-01 -1.019231E+01  1.696280E+00  8.672502E+00  6.105285E-01
         8   1  1.154045E+01  1.154045E+01  1.577040E+01  2.690362E+00  9.253100E+00  9.253100E+00
         8   2  1.055370E+00  6.882671E+00 -8.536485E+00  2.558859E+00 -9.563351E-01  8.818981E+00
         8   3  6.882671E+00  1.055370E+00 -8.536485E+00  2.558859E+00  8.818981E+00 -9.563351E-01
         8   4  6.194154E+00  6.194154E+00  1.783076E+01  4.243394E+00  2.991586E+00  2.991586E+00
         8   5 -8.759123E+00 -8.759123E+00  4.140120E+00  5.009089E-01  2.297830E+00  2.297830E+00
         8   6 -3.015021E-01 -8.051362E+00 -8.424564E+00 -2.398492E+00  8.947130E-01 -8.439130E+00
         8   7 -8.051362E+00 -3.015021E-01 -8.424564E+00 -2.398492E+00 -8.439130E+00  8.947130E-01
         8   8 -4.654871E+00 -4.654871E+00  3.018557E+01 -1.841281E+00  9.368275E+00  9.368275E+00
