
                        S T E P       1


                                INCREMENT     1


 displacements (vx,vy,vz) for set SET1 and time  0.1000000E+01

         1  0.000000E+00  0.000000E+00  0.000000E+00
         2  2.503006E-09  0.000000E+00  0.000000E+00
         3 -2.848023E-09  2.503006E-09 -1.442944E-08
         4 -5.351029E-09  2.503006E-09  0.000000E+00
         5  7.022766E-09  7.022766E-09 -3.798598E-10
         6  6.873879E-09  1.005857E-08 -6.676754E-09
         7  4.558651E-09  9.909680E-09 -1.480930E-08
         8  4.707538E-09  6.873879E-09 -6.676754E-09
         9  3.929398E-12  8.278404E-10 -2.484669E-09
        10 -3.355354E-11  1.738381E-09 -4.146137E-09
        11  9.364753E-10  6.762431E-10 -4.389026E-09
        12  4.890058E-10  1.566531E-09 -7.996386E-09
        13 -1.910889E-09  2.536560E-09 -1.136086E-08
        14 -2.338106E-09  2.499077E-09 -1.330675E-08
        15 -2.851952E-09  1.675166E-09 -1.330675E-08
        16 -2.814469E-09  7.646255E-10 -1.136086E-08
        17 -3.784498E-09  1.826763E-09 -7.996386E-09
        18 -3.337028E-09  9.364753E-10 -4.389026E-09
        19 -9.371337E-10 -3.355354E-11 -4.146137E-09
        20 -5.099167E-10  3.929398E-12 -2.484669E-09
        21  7.031778E-09  7.724858E-09 -2.263088E-09
        22  6.973625E-09  8.494624E-09 -3.813386E-09
        23  6.968245E-09  9.260920E-09 -5.523214E-09
        24  6.333769E-09  9.964200E-09 -9.130574E-09
        25  5.762307E-09  9.958821E-09 -1.102811E-08
        26  5.194316E-09  9.900668E-09 -1.308517E-08
        27  4.549639E-09  9.207588E-09 -1.308517E-08
        28  4.607792E-09  8.437822E-09 -1.102811E-08
        29  4.613172E-09  7.671526E-09 -9.130574E-09
        30  5.247648E-09  6.968245E-09 -5.523214E-09
        31  5.819110E-09  6.973625E-09 -3.813386E-09
        32  6.387101E-09  7.031778E-09 -2.263088E-09
        33  1.454724E-09  4.655642E-09 -4.574114E-09
        34  3.667053E-09  6.050673E-09 -7.700806E-09
        35  5.367205E-09  7.957881E-09 -7.339821E-09
        36  5.265815E-09  5.265815E-09 -5.089216E-10
        37  3.495328E-09  3.495328E-09 -6.936889E-10
        38  1.815096E-09  1.815096E-09 -4.904838E-10
        39 -1.055759E-09  4.295270E-09 -1.491992E-08
        40  8.713694E-10  6.222398E-09 -1.512313E-08
        41  2.708242E-09  8.059271E-09 -1.493836E-08
        42 -6.953870E-10  1.454724E-09 -4.574114E-09
        43  6.996445E-10  3.667053E-09 -7.700806E-09
        44  2.606853E-09  5.367205E-09 -7.339821E-09
        45 -5.358476E-10  1.342676E-09 -5.500450E-09
        46 -1.332838E-09  8.019096E-10 -5.500450E-09
        47 -1.424011E-09  1.251503E-09 -8.026539E-09
        48 -1.515185E-09  1.701096E-09 -9.107810E-09
        49 -2.312175E-09  1.160330E-09 -9.107810E-09
        50  6.338295E-09  8.461261E-09 -5.628734E-09
        51  5.785747E-09  7.676052E-09 -5.628734E-09
        52  5.790708E-09  8.466223E-09 -7.611865E-09
        53  5.795670E-09  9.256393E-09 -9.236094E-09
        54  5.243122E-09  8.471184E-09 -9.236094E-09
        55  1.819526E-09  3.014105E-09 -3.895802E-09
        56  3.451404E-09  4.199461E-09 -2.212295E-09
        57  3.436836E-09  4.880025E-09 -3.988505E-09
        58  3.474056E-09  5.533402E-09 -5.217115E-09
        59  5.254001E-09  6.666849E-09 -3.923711E-09
        60  4.207468E-10  4.290840E-09 -1.111052E-08
        61  2.846567E-09  6.243670E-09 -8.824475E-09
        62  2.162187E-09  6.280890E-09 -1.120322E-08
        63  1.504993E-09  6.266321E-09 -1.303438E-08
        64  3.982722E-09  8.071085E-09 -1.113843E-08
        65 -1.060189E-09  3.096261E-09 -1.111052E-08
        66  9.152927E-10  5.518265E-09 -1.303438E-08
        67  9.298611E-10  4.837701E-09 -1.120322E-08
        68  8.926412E-10  4.184324E-09 -8.824475E-09
        69  2.720056E-09  6.658236E-09 -1.113843E-08
        70  3.385905E-10  1.819526E-09 -3.895802E-09
        71  1.520131E-09  3.474056E-09 -5.217115E-09
        72  2.204510E-09  3.436836E-09 -3.988505E-09
        73  2.861704E-09  3.451404E-09 -2.212295E-09
        74  3.991335E-09  5.254001E-09 -3.923711E-09
        75  3.796687E-10  3.055183E-09 -7.836312E-09
        76  2.774504E-09  4.918214E-09 -5.843146E-09
        77  2.242700E-09  4.112261E-09 -5.843146E-09
        78  2.183349E-09  4.858863E-09 -7.368658E-09
        79  2.123997E-09  5.605465E-09 -9.450506E-09
        80  1.592194E-09  4.799512E-09 -9.450506E-09
        81  3.987029E-09  6.662543E-09 -7.435050E-09

 stresses (elem, integ.pnt.,sxx,syy,szz,sxy,sxz,syz) for set SET2 and time  0.1000000E+01

         1   1  1.454989E-05  1.454989E-05 -2.543457E-05 -6.947479E-06 -2.946757E-05 -2.946757E-05
         1   2  2.949955E-05 -7.733499E-05  3.373082E-05  8.214744E-06  8.999600E-05  3.003711E-05
         1   3 -7.733499E-05  2.949955E-05  3.373082E-05  8.214744E-06  3.003711E-05  8.999600E-05
         1   4  5.755094E-05  5.755094E-05 -8.649109E-05 -1.271883E-04 -1.058353E-04 -1.058353E-04
         1   5  2.234791E-05  2.234791E-05  5.367141E-05 -2.693071E-05  1.113244E-05  1.113244E-05
         1   6 -1.919725E-05 -1.834242E-06 -8.875856E-05 -1.762246E-05 -2.868731E-05  2.510848E-05
         1   7 -1.834242E-06 -1.919725E-05 -8.875856E-05 -1.762246E-05  2.510848E-05 -2.868731E-05
         1   8  1.587009E-05  1.587009E-05 -4.259010E-05 -1.877986E-05 -9.849825E-06 -9.849825E-06
         2   1  2.073461E-04  1.126204E-04  2.326668E-04 -1.274610E-04 -1.366588E-04  7.566265E-05
         2   2  1.881008E-04  1.881008E-04 -1.040488E-03 -1.253484E-04  3.467286E-04 -3.467286E-04
         2   3  9.123613E-05  9.123613E-05  6.155197E-05 -1.354757E-04 -4.864512E-05  4.864512E-05
         2   4  1.126204E-04  2.073461E-04  2.326668E-04 -1.274610E-04 -7.566265E-05  1.366588E-04
         2   5 -2.131156E-04 -1.763726E-05  1.244671E-04  1.082586E-04  1.091687E-04 -1.768909E-05
         2   6 -3.189840E-04 -3.189840E-04 -5.703781E-04  1.461228E-04  2.279178E-04 -2.279178E-04
         2   7 -2.671092E-05 -2.671092E-05  1.099462E-04  4.833795E-05 -1.182780E-06  1.182780E-06
         2   8 -1.763726E-05 -2.131156E-04  1.244671E-04  1.082586E-04  1.768909E-05 -1.091687E-04
         3   1  1.126204E-04  2.073461E-04  2.326668E-04 -1.274610E-04  7.566265E-05 -1.366588E-04
         3   2  9.123613E-05  9.123613E-05  6.155197E-05 -1.354757E-04  4.864512E-05 -4.864512E-05
         3   3  1.881008E-04  1.881008E-04 -1.040488E-03 -1.253484E-04 -3.467286E-04  3.467286E-04
         3   4  2.073461E-04  1.126204E-04  2.326668E-04 -1.274610E-04  1.366588E-04 -7.566265E-05
         3   5 -1.763726E-05 -2.131156E-04  1.244671E-04  1.082586E-04 -1.768909E-05  1.091687E-04
         3   6 -2.671092E-05 -2.671092E-05  1.099462E-04  4.833795E-05  1.182780E-06 -1.182780E-06
         3   7 -3.189840E-04 -3.189840E-04 -5.703781E-04  1.461228E-04 -2.279178E-04  2.279178E-04
         3   8 -2.131156E-04 -1.763726E-05  1.244671E-04  1.082586E-04 -1.091687E-04  1.768909E-05
         4   1  5.755094E-05  5.755094E-05 -8.649109E-05 -1.271883E-04  1.058353E-04  1.058353E-04
         4   2 -7.733499E-05  2.949955E-05  3.373082E-05  8.214744E-06 -3.003711E-05 -8.999600E-05
         4   3  2.949955E-05 -7.733499E-05  3.373082E-05  8.214744E-06 -8.999600E-05 -3.003711E-05
         4   4  1.454989E-05  1.454989E-05 -2.543457E-05 -6.947479E-06  2.946757E-05  2.946757E-05
         4   5  1.587009E-05  1.587009E-05 -4.259010E-05 -1.877986E-05  9.849825E-06  9.849825E-06
         4   6 -1.834242E-06 -1.919725E-05 -8.875856E-05 -1.762246E-05 -2.510848E-05  2.868731E-05
         4   7 -1.919725E-05 -1.834242E-06 -8.875856E-05 -1.762246E-05  2.868731E-05 -2.510848E-05
         4   8  2.234791E-05  2.234791E-05  5.367141E-05 -2.693071E-05 -1.113244E-05 -1.113244E-05
         5   1 -2.662192E-05 -2.662192E-05 -3.201335E-06  2.032904E-05  2.186553E-05  2.186553E-05
         5   2 -5.635039E-06  2.033253E-05  4.398620E-05  1.826682E-05  1.139287E-05 -2.831718E-05
         5   3  2.033253E-05 -5.635039E-06  4.398620E-05  1.826682E-05 -2.831718E-05  1.139287E-05
         5   4 -4.104864E-05 -4.104864E-05  4.418398E-05  5.022072E-05  3.451676E-05  3.451676E-05
         5   5 -4.149869E-07 -4.149869E-07 -1.114723E-05  5.230806E-06 -8.282933E-06 -8.282933E-06
         5   6 -2.303428E-05 -7.327605E-06  3.305439E-05  2.317214E-05  4.280605E-05  7.786436E-06
         5   7 -7.327605E-06 -2.303428E-05  3.305439E-05  2.317214E-05  7.786436E-06  4.280605E-05
         5   8 -1.580081E-05 -1.580081E-05  5.020195E-06  5.655647E-05  2.309859E-06  2.309859E-06
         6   1 -1.964798E-05  7.259621E-06 -1.142607E-04 -4.414372E-06  1.834936E-04 -4.797597E-05
         6   2  1.007573E-04  1.007573E-04 -1.187583E-04 -6.153295E-05 -6.509632E-05  6.509632E-05
         6   3 -4.981555E-05 -4.981555E-05 -2.774197E-05  4.148686E-05  4.645691E-05 -4.645691E-05
         6   4  7.259621E-06 -1.964798E-05 -1.142607E-04 -4.414372E-06  4.797597E-05 -1.834936E-04
         6   5  5.736085E-06 -1.458325E-05 -5.277311E-05  2.063488E-05  4.537345E-06  4.208794E-07
         6   6 -1.230189E-06 -1.230189E-06  1.223800E-05  2.002751E-05  2.286398E-05 -2.286398E-05
         6   7  6.767122E-06  6.767122E-06 -3.260688E-05  5.579246E-05  1.134588E-05 -1.134588E-05
         6   8 -1.458325E-05  5.736085E-06 -5.277311E-05  2.063488E-05 -4.208794E-07 -4.537345E-06
         7   1  7.259621E-06 -1.964798E-05 -1.142607E-04 -4.414372E-06 -4.797597E-05  1.834936E-04
         7   2 -4.981555E-05 -4.981555E-05 -2.774197E-05  4.148686E-05 -4.645691E-05  4.645691E-05
         7   3  1.007573E-04  1.007573E-04 -1.187583E-04 -6.153295E-05  6.509632E-05 -6.509632E-05
         7   4 -1.964798E-05  7.259621E-06 -1.142607E-04 -4.414372E-06 -1.834936E-04  4.797597E-05
         7   5 -1.458325E-05  5.736085E-06 -5.277311E-05  2.063488E-05  4.208794E-07  4.537345E-06
         7   6  6.767122E-06  6.767122E-06 -3.260688E-05  5.579246E-05 -1.134588E-05  1.134588E-05
         7   7 -1.230189E-06 -1.230189E-06  1.223800E-05  2.002751E-05 -2.286398E-05  2.286398E-05
         7   8  5.736085E-06 -1.458325E-05 -5.277311E-05  2.063488E-05 -4.537345E-06 -4.208794E-07
         8   1 -4.104864E-05 -4.104864E-05  4.418398E-05  5.022072E-05 -3.451676E-05 -3.451676E-05
         8   2  2.033253E-05 -5.635039E-06  4.398620E-05  1.826682E-05  2.831718E-05 -1.139287E-05
         8   3 -5.635039E-06  2.033253E-05  4.398620E-05  1.826682E-05 -1.139287E-05  2.831718E-05
         8   4 -2.662192E-05 -2.662192E-05 -3.201335E-06  2.032904E-05 -2.186553E-05 -2.186553E-05
         8   5 -1.580081E-05 -1.580081E-05  5.020195E-06  5.655647E-05 -2.309859E-06 -2.309859E-06
         8   6 -7.327605E-06 -2.303428E-05  3.305439E-05  2.317214E-05 -7.786436E-06 -4.280605E-05
         8   7 -2.303428E-05 -7.327605E-06  3.305439E-05  2.317214E-05 -4.280605E-05 -7.786436E-06
         8   8 -4.149869E-07 -4.149869E-07 -1.114723E-05  5.230806E-06  8.282933E-06  8.282933E-06
