
                        S T E P       1


                                INCREMENT     1


 displacements (vx,vy,vz) for set SET1 and time  0.1000000E+01

         1  0.000000E+00  0.000000E+00  0.000000E+00
         2 -3.800189E-06  0.000000E+00  0.000000E+00
         3  3.354036E-06 -2.932359E-06  1.849928E-05
         4  6.566361E-06 -2.932359E-06  0.000000E+00
         5 -9.297478E-06 -8.436500E-06  7.636232E-07
         6 -9.109939E-06 -1.232855E-05  8.836565E-06
         7 -6.144591E-06 -1.210766E-05  1.901629E-05
         8 -6.326346E-06 -8.215609E-06  8.589951E-06
         9 -1.847017E-07 -7.547600E-07  3.492047E-06
        10 -2.525859E-07 -1.943613E-06  5.600640E-06
        11 -1.612152E-06 -5.604045E-07  5.933531E-06
        12 -9.758930E-07 -1.812103E-06  1.039638E-05
        13  2.172937E-06 -2.912704E-06  1.475908E-05
        14  2.701828E-06 -2.888748E-06  1.717830E-05
        15  3.362972E-06 -1.834439E-06  1.709475E-05
        16  3.312690E-06 -6.694087E-07  1.459550E-05
        17  4.554091E-06 -2.028794E-06  1.028659E-05
        18  3.982779E-06 -8.854134E-07  5.745325E-06
        19  8.871679E-07  3.823127E-07  5.509434E-06
        20  4.114954E-07  1.912322E-07  3.330080E-06
        21 -9.312929E-06 -9.301807E-06  3.214604E-06
        22 -9.236148E-06 -1.029319E-05  5.199836E-06
        23 -9.227025E-06 -1.127112E-05  7.394254E-06
        24 -8.409955E-06 -1.218167E-05  1.194372E-05
        25 -7.681868E-06 -1.216628E-05  1.430201E-05
        26 -6.954604E-06 -1.209269E-05  1.688075E-05
        27 -6.129497E-06 -1.120517E-05  1.680824E-05
        28 -6.203029E-06 -1.021639E-05  1.417288E-05
        29 -6.208903E-06 -9.235864E-06  1.173824E-05
        30 -7.023736E-06 -8.333174E-06  7.185939E-06
        31 -7.757309E-06 -8.339102E-06  5.052372E-06
        32 -8.490058E-06 -8.422152E-06  3.139250E-06
        33 -2.213994E-06 -5.682403E-06  6.060519E-06
        34 -4.978271E-06 -7.279876E-06  1.021212E-05
        35 -7.176775E-06 -9.658759E-06  9.725223E-06
        36 -7.046508E-06 -6.207392E-06  9.676595E-07
        37 -4.795475E-06 -4.003792E-06  1.228640E-06
        38 -2.569290E-06 -2.040677E-06  8.250954E-07
        39  1.063798E-06 -5.127139E-06  1.915401E-05
        40 -1.411435E-06 -7.530494E-06  1.942302E-05
        41 -3.767330E-06 -9.802219E-06  1.918517E-05
        42  5.900540E-07 -1.485413E-06  5.890151E-06
        43 -1.193892E-06 -4.254410E-06  9.907224E-06
        44 -3.638101E-06 -6.350852E-06  9.443455E-06
        45  3.913808E-07 -1.416843E-06  7.266770E-06
        46  1.408569E-06 -7.299635E-07  7.208132E-06
        47  1.530052E-06 -1.274779E-06  1.048852E-05
        48  1.651536E-06 -1.882767E-06  1.183295E-05
        49  2.668724E-06 -1.168862E-06  1.178094E-05
        50 -8.421623E-06 -1.025268E-05  7.450568E-06
        51 -7.711604E-06 -9.244343E-06  7.384247E-06
        52 -7.719589E-06 -1.025471E-05  9.935349E-06
        53 -7.727573E-06 -1.127042E-05  1.200907E-05
        54 -7.017554E-06 -1.026054E-05  1.194357E-05
        55 -2.628329E-06 -3.507564E-06  5.299154E-06
        56 -4.725075E-06 -4.944129E-06  3.134402E-06
        57 -4.701803E-06 -5.774834E-06  5.443179E-06
        58 -4.744927E-06 -6.654309E-06  6.986735E-06
        59 -7.031502E-06 -8.017701E-06  5.349138E-06
        60 -8.386769E-07 -5.135783E-06  1.441064E-05
        61 -3.948702E-06 -7.554802E-06  1.153696E-05
        62 -3.066757E-06 -7.598196E-06  1.453381E-05
        63 -2.225836E-06 -7.581873E-06  1.680775E-05
        64 -5.402411E-06 -9.825247E-06  1.444839E-05
        65  1.063614E-06 -3.593562E-06  1.427231E-05
        66 -1.470679E-06 -6.623254E-06  1.674044E-05
        67 -1.487733E-06 -5.742111E-06  1.439548E-05
        68 -1.438391E-06 -4.913073E-06  1.134313E-05
        69 -3.782854E-06 -8.008493E-06  1.431295E-05
        70 -7.260390E-07 -1.967433E-06  5.160997E-06
        71 -2.243735E-06 -4.002046E-06  6.785622E-06
        72 -3.122780E-06 -3.951974E-06  5.284171E-06
        73 -3.960800E-06 -3.974975E-06  3.059808E-06
        74 -5.411945E-06 -6.213602E-06  5.198748E-06
        75 -7.823580E-07 -3.519817E-06  1.023045E-05
        76 -3.852659E-06 -5.837982E-06  7.746536E-06
        77 -3.177587E-06 -4.815267E-06  7.664552E-06
        78 -3.094768E-06 -5.786062E-06  9.606724E-06
        79 -3.011949E-06 -6.729632E-06  1.228937E-05
        80 -2.336877E-06 -5.701936E-06  1.221824E-05
        81 -5.407178E-06 -8.014228E-06  9.699876E-06

 stresses (elem, integ.pnt.,sxx,syy,szz,sxy,sxz,syz) for set SET2 and time  0.1000000E+01

         1   1 -4.174833E-02  3.711795E-02  8.838007E-02  2.462638E-02  5.349829E-02  8.212001E-02
         1   2 -6.893418E-02  8.168375E-02 -6.070831E-02 -3.126386E-02 -1.361116E-01 -5.070340E-02
         1   3  1.094241E-01 -1.376475E-02 -3.827339E-02 -3.590434E-03 -3.472473E-02 -1.108937E-01
         1   4 -6.740113E-02 -7.974597E-02  1.122406E-01  1.695959E-01  1.380514E-01  1.345884E-01
         1   5 -1.837447E-02 -2.367992E-02 -4.475431E-02  3.831094E-02 -7.331076E-03 -9.786607E-03
         1   6  3.099399E-02  3.706151E-03  1.078303E-01  2.495798E-02  4.331261E-02 -3.328826E-02
         1   7  3.882596E-03  3.083143E-02  1.200126E-01  3.004056E-02 -2.474270E-02  4.839459E-02
         1   8 -1.470403E-02 -1.940379E-02  5.554517E-02  2.891699E-02  1.746823E-02  1.170705E-02
         2   1 -2.969426E-01 -1.618488E-01 -3.157545E-01  1.841436E-01  1.959357E-01 -1.091977E-01
         2   2 -2.642495E-01 -1.853832E-01  1.389731E+00  1.449838E-01 -4.602432E-01  4.888649E-01
         2   3 -1.105873E-01 -1.229321E-01 -7.755822E-02  1.671528E-01  6.000045E-02 -6.346343E-02
         2   4 -1.341084E-01 -2.417732E-01 -2.933195E-01  1.564702E-01  9.321902E-02 -1.707178E-01
         2   5  2.796073E-01  2.396643E-02 -1.655360E-01 -1.411582E-01 -1.464939E-01  2.158042E-02
         2   6  4.192305E-01  4.139251E-01  7.553091E-01 -1.911213E-01 -2.991436E-01  2.966881E-01
         2   7  3.988701E-02  3.518725E-02 -1.400142E-01 -6.681198E-02 -3.323861E-03 -2.437318E-03
         2   8  2.414287E-02  2.794447E-01 -1.533537E-01 -1.462408E-01 -3.012598E-02  1.515759E-01
         3   1 -1.431670E-01 -2.598598E-01 -3.057749E-01  1.606083E-01 -1.014605E-01  1.747935E-01
         3   2 -1.170412E-01 -1.144250E-01 -7.759909E-02  1.825748E-01 -5.456267E-02  6.303787E-02
         3   3 -2.425395E-01 -2.419866E-01  1.335120E+00  1.620647E-01  4.458443E-01 -4.450278E-01
         3   4 -2.647592E-01 -1.423660E-01 -2.983615E-01  1.615277E-01 -1.771756E-01  9.748384E-02
         3   5  2.347979E-02  2.831923E-01 -1.509094E-01 -1.367570E-01  2.072316E-02 -1.322295E-01
         3   6  3.596407E-02  3.605188E-02 -1.398964E-01 -5.944030E-02 -1.322212E-03  2.954198E-03
         3   7  4.097198E-01  4.121373E-01  7.295375E-01 -1.880993E-01  2.928704E-01 -2.917917E-01
         3   8  2.739459E-01  2.386903E-02 -1.590555E-01 -1.392675E-01  1.400802E-01 -2.211355E-02
         4   1 -7.385508E-02 -7.123889E-02  1.121997E-01  1.541739E-01 -1.434891E-01 -1.350139E-01
         4   2  1.003655E-01 -3.185139E-02 -5.072878E-02 -7.728528E-03  4.296626E-02  1.149695E-01
         4   3 -3.675077E-02  1.011666E-01 -4.331537E-02 -8.647935E-03  1.173516E-01  3.898955E-02
         4   4 -2.003838E-02 -1.948548E-02  3.376925E-02  7.545439E-03 -3.909943E-02 -3.828284E-02
         4   5 -1.862697E-02 -1.853917E-02  5.566296E-02  2.154531E-02 -1.282215E-02 -1.119017E-02
         4   6  3.219516E-03  3.457903E-02  1.224569E-01  2.055680E-02  3.414552E-02 -2.904821E-02
         4   7  2.533267E-02  3.608749E-03  1.143108E-01  2.306725E-02 -3.689887E-02  3.275513E-02
         4   8 -2.788521E-02 -2.546773E-02 -7.052598E-02  3.528889E-02  1.360427E-02  1.468298E-02
         5   1  3.534876E-02  2.664652E-02  1.007283E-02 -3.052002E-02 -3.083593E-02 -2.844275E-02
         5   2  7.152594E-03 -2.475366E-02 -5.384819E-02 -1.561613E-02 -5.718259E-03  3.697642E-02
         5   3 -2.519942E-02  1.588826E-02 -4.642540E-02 -2.537416E-02  3.834017E-02 -6.875858E-03
         5   4  5.434576E-02  5.368673E-02 -5.483902E-02 -6.419137E-02 -4.172082E-02 -4.281444E-02
         5   5 -8.526426E-04  1.692867E-03  1.345954E-02 -5.385669E-03  1.198073E-02  1.011524E-02
         5   6  3.060029E-02  9.323630E-03 -4.035827E-02 -3.167996E-02 -5.676334E-02 -9.502175E-03
         5   7  1.016032E-02  2.781465E-02 -3.919399E-02 -2.903977E-02 -1.074495E-02 -5.446894E-02
         5   8  2.097825E-02  2.077518E-02 -5.178991E-03 -7.238802E-02 -3.435711E-03 -2.396592E-03
         6   1  2.511791E-02 -7.993521E-03  1.490324E-01 -2.143415E-03 -2.441363E-01  6.217999E-02
         6   2 -1.279580E-01 -1.366602E-01  1.582228E-01  8.334555E-02  8.626002E-02 -8.386684E-02
         6   3  6.558539E-02  6.492636E-02  3.737373E-02 -5.338246E-02 -6.209157E-02  6.099795E-02
         6   4 -8.439283E-03  3.385358E-02  1.564552E-01  7.614607E-03 -6.354375E-02  2.429787E-01
         6   5 -6.284790E-03  1.862574E-02  6.967698E-02 -2.448288E-02 -3.933320E-03 -5.915403E-05
         6   6  1.924878E-04  2.737997E-03 -1.652152E-02 -2.699679E-02 -3.067438E-02  2.880888E-02
         6   7 -7.954991E-03 -8.158060E-03  4.306084E-02 -7.164906E-02 -1.407165E-02  1.511077E-02
         6   8  1.946244E-02 -9.070433E-03  7.084126E-02 -2.712307E-02  1.301930E-03  6.227723E-03
         7   1 -1.340721E-02  2.396079E-02  1.452591E-01  7.717564E-03  6.356577E-02 -2.357340E-01
         7   2  6.849474E-02  6.681437E-02  3.851490E-02 -5.426144E-02  5.848699E-02 -5.611923E-02
         7   3 -1.280632E-01 -1.294706E-01  1.549050E-01  7.926110E-02 -8.375856E-02  8.656718E-02
         7   4  2.561095E-02 -8.237494E-03  1.471578E-01  6.450450E-03  2.357575E-01 -6.123016E-02
         7   5  1.980932E-02 -4.703268E-03  6.736332E-02 -2.675671E-02 -1.668950E-04 -2.706750E-03
         7   6 -8.254570E-03 -8.006103E-03  4.287340E-02 -7.101959E-02  1.533700E-02 -1.426850E-02
         7   7  1.527126E-03  2.527942E-03 -1.473896E-02 -2.555949E-02  2.942960E-02 -3.026176E-02
         7   8 -6.992232E-03  1.934897E-02  6.831032E-02 -2.644272E-02  5.829360E-03  1.375283E-03
         8   1  5.725511E-02  5.557474E-02 -5.369784E-02 -6.331239E-02  4.532541E-02  4.769317E-02
         8   2 -3.016734E-02  5.995472E-03 -5.762150E-02 -2.547711E-02 -3.836220E-02  1.412046E-02
         8   3  7.645637E-03 -2.499763E-02 -5.572287E-02 -2.421000E-02  1.409705E-02 -3.602658E-02
         8   4  3.524351E-02  3.383615E-02  6.754963E-03 -2.643556E-02  2.833447E-02  3.114309E-02
         8   5  2.067867E-02  2.092714E-02 -5.366435E-03 -7.301749E-02  2.170358E-03  3.238859E-03
         8   6  1.050720E-02  3.218181E-02 -4.267193E-02 -2.940613E-02  9.609916E-03  5.798991E-02
         8   7  2.989285E-02  1.004685E-02 -4.172493E-02 -2.972012E-02  5.486730E-02  1.081830E-02
         8   8  4.819957E-04  1.482811E-03  1.524210E-02 -6.822973E-03 -1.073596E-02 -1.156811E-02

 centrifugal force(element,omega square) for set SET2 and time  0.1000000E+01

         1  1.000000E+00
         2  1.000000E+00
         3  1.000000E+00
         4  1.000000E+00
         5  1.000000E+00
         6  1.000000E+00
         7  1.000000E+00
         8  1.000000E+00
