
                        S T E P       1


                                INCREMENT     1


 displacements (vx,vy,vz) for set SET1 and time  0.1000000E+01

         1  0.000000E+00  0.000000E+00  0.000000E+00
         2 -1.207240E-04  0.000000E+00  0.000000E+00
         3  1.536877E-04 -1.207240E-04  7.399713E-04
         4  2.744117E-04 -1.207240E-04  0.000000E+00
         5 -2.921446E-04 -2.921446E-04  2.004188E-04
         6 -4.128686E-04 -4.478267E-04  5.233365E-04
         7 -2.941390E-04 -5.685507E-04  9.403901E-04
         8 -1.734150E-04 -4.128686E-04  5.233365E-04
         9  1.987085E-06 -4.000321E-05  1.087090E-04
        10  5.538319E-06 -8.678657E-05  1.980030E-04
        11 -4.257772E-05 -3.222899E-05  2.063683E-04
        12 -1.989211E-05 -7.814632E-05  3.913612E-04
        13  1.032684E-04 -1.262624E-04  5.679886E-04
        14  1.250880E-04 -1.227111E-04  6.636874E-04
        15  1.517006E-04 -8.072082E-05  6.636874E-04
        16  1.481494E-04 -3.393746E-05  5.679886E-04
        17  1.962654E-04 -8.849505E-05  3.913612E-04
        18  1.735798E-04 -4.257772E-05  2.063683E-04
        19  5.041929E-05  5.538319E-06  1.980030E-04
        20  2.859972E-05  1.987085E-06  1.087090E-04
        21 -3.328749E-04 -3.667155E-04  1.207460E-04
        22 -3.538041E-04 -4.567722E-04  1.638747E-04
        23 -3.774397E-04 -4.454879E-04  2.879320E-04
        24 -3.466044E-04 -4.832556E-04  4.729248E-04
        25 -2.667172E-04 -5.068911E-04  5.338603E-04
        26 -2.881710E-04 -5.278204E-04  6.757244E-04
        27 -2.534086E-04 -4.939798E-04  6.757244E-04
        28 -2.324794E-04 -4.039231E-04  5.338603E-04
        29 -2.088438E-04 -4.152074E-04  4.729248E-04
        30 -2.396791E-04 -3.774397E-04  2.879320E-04
        31 -3.195663E-04 -3.538041E-04  1.638747E-04
        32 -2.981126E-04 -3.328749E-04  1.207460E-04
        33 -7.338335E-05 -2.323335E-04  2.142590E-04
        34 -1.886396E-04 -3.020701E-04  3.606085E-04
        35 -2.621833E-04 -4.135191E-04  4.274784E-04
        36 -2.754645E-04 -2.754645E-04  7.717587E-05
        37 -1.710268E-04 -1.710268E-04  1.269160E-06
        38 -8.666448E-05 -8.666448E-05  4.842031E-06
        39  5.535936E-05 -2.190524E-04  7.448133E-04
        40 -4.527119E-05 -3.196829E-04  7.412404E-04
        41 -1.258263E-04 -4.002380E-04  8.171471E-04
        42  4.207823E-05 -7.338335E-05  2.142590E-04
        43 -2.765838E-05 -1.886396E-04  3.606085E-04
        44 -1.391074E-04 -2.621833E-04  4.274784E-04
        45  3.129699E-05 -6.478314E-05  2.668565E-04
        46  7.242272E-05 -3.730594E-05  2.668565E-04
        47  7.684385E-05 -6.036202E-05  3.871970E-04
        48  8.126497E-05 -8.341809E-05  4.518494E-04
        49  1.223907E-04 -5.594089E-05  4.518494E-04
        50 -3.212232E-04 -4.347688E-04  2.800139E-04
        51 -2.975629E-04 -3.898261E-04  2.800139E-04
        52 -2.931418E-04 -4.303476E-04  3.446663E-04
        53 -2.887207E-04 -4.708692E-04  4.650067E-04
        54 -2.650604E-04 -4.259265E-04  4.650067E-04
        55 -8.949142E-05 -1.509727E-04  1.795076E-04
        56 -1.725967E-04 -2.119275E-04  1.038922E-04
        57 -1.724304E-04 -2.475253E-04  1.809388E-04
        58 -1.749199E-04 -2.803347E-04  2.579855E-04
        59 -2.656183E-04 -3.359655E-04  1.823701E-04
        60 -1.753828E-05 -2.162254E-04  5.494932E-04
        61 -1.417720E-04 -3.157898E-04  4.429783E-04
        62 -1.059785E-04 -3.182793E-04  5.509245E-04
        63 -7.297336E-05 -3.181130E-04  6.588706E-04
        64 -2.025311E-04 -4.100841E-04  5.523557E-04
        65  5.818630E-05 -1.547441E-04  5.494932E-04
        66 -4.370127E-05 -2.787822E-04  6.588706E-04
        67 -4.386756E-05 -2.431844E-04  5.509245E-04
        68 -4.137804E-05 -2.103749E-04  4.429783E-04
        69 -1.356724E-04 -3.397370E-04  5.523557E-04
        70 -1.376684E-05 -8.949142E-05  1.795076E-04
        71 -7.452594E-05 -1.749199E-04  2.579855E-04
        72 -1.103194E-04 -1.724304E-04  1.809388E-04
        73 -1.433246E-04 -1.725967E-04  1.038922E-04
        74 -1.987597E-04 -2.656183E-04  1.823701E-04
        75 -1.565256E-05 -1.528584E-04  3.865092E-04
        76 -1.384646E-04 -2.514421E-04  2.734352E-04
        77 -1.142363E-04 -2.070675E-04  2.734352E-04
        78 -1.081490E-04 -2.453548E-04  3.659316E-04
        79 -1.020617E-04 -2.836421E-04  4.584280E-04
        80 -7.783333E-05 -2.392675E-04  4.584280E-04
        81 -2.006454E-04 -3.378512E-04  3.453541E-04

 stresses (elem, integ.pnt.,sxx,syy,szz,sxy,sxz,syz) for set SET2 and time  0.1000000E+01

         1   1 -7.039641E-01 -7.039641E-01  1.276368E+00  7.356837E-01  7.125186E-01  7.125186E-01
         1   2 -1.069254E+00  4.527714E+00 -1.224177E+00 -4.863268E-01 -3.633931E+00 -1.329921E+00
         1   3  4.527714E+00 -1.069254E+00 -1.224177E+00 -4.863268E-01 -1.329921E+00 -3.633931E+00
         1   4 -2.719698E+00 -2.719698E+00  5.142791E+00  6.502886E+00  5.195758E+00  5.195758E+00
         1   5 -3.046955E+00 -3.046955E+00  3.747912E-01 -7.179634E-01  1.658896E+00  1.658896E+00
         1   6  1.632757E+00 -6.134273E-01  6.353631E+00  3.221466E-01 -2.941696E+00 -3.243849E+00
         1   7 -6.134273E-01  1.632757E+00  6.353631E+00  3.221466E-01 -3.243849E+00 -2.941696E+00
         1   8  1.516000E+00  1.516000E+00  1.762517E+00  7.391247E-01  1.989617E-01  1.989617E-01
         2   1 -1.018959E+01 -5.213588E+00 -1.142602E+01  6.601518E+00  6.026893E+00 -3.669692E+00
         2   2 -9.604009E+00 -9.604009E+00  5.333040E+01  6.048722E+00 -1.698232E+01  1.698232E+01
         2   3 -4.447143E+00 -4.447143E+00 -2.449160E+00  6.967063E+00  2.726314E+00 -2.726314E+00
         2   4 -5.213588E+00 -1.018959E+01 -1.142602E+01  6.601518E+00  3.669692E+00 -6.026893E+00
         2   5  1.157729E+01  1.969839E-01 -4.581021E+00 -4.970156E+00 -1.185556E+00 -1.049102E+00
         2   6  1.445725E+01  1.445725E+01  3.237733E+01 -5.394451E+00 -1.391788E+01  1.391788E+01
         2   7  3.699642E+00  3.699642E+00 -6.059858E+00 -2.254924E+00  3.668129E-01 -3.668129E-01
         2   8  1.969839E-01  1.157729E+01 -4.581021E+00 -4.970156E+00  1.049102E+00  1.185556E+00
         3   1 -5.213588E+00 -1.018959E+01 -1.142602E+01  6.601518E+00 -3.669692E+00  6.026893E+00
         3   2 -4.447143E+00 -4.447143E+00 -2.449160E+00  6.967063E+00 -2.726314E+00  2.726314E+00
         3   3 -9.604009E+00 -9.604009E+00  5.333040E+01  6.048722E+00  1.698232E+01 -1.698232E+01
         3   4 -1.018959E+01 -5.213588E+00 -1.142602E+01  6.601518E+00 -6.026893E+00  3.669692E+00
         3   5  1.969839E-01  1.157729E+01 -4.581021E+00 -4.970156E+00 -1.049102E+00 -1.185556E+00
         3   6  3.699642E+00  3.699642E+00 -6.059858E+00 -2.254924E+00 -3.668129E-01  3.668129E-01
         3   7  1.445725E+01  1.445725E+01  3.237733E+01 -5.394451E+00  1.391788E+01 -1.391788E+01
         3   8  1.157729E+01  1.969839E-01 -4.581021E+00 -4.970156E+00  1.185556E+00  1.049102E+00
         4   1 -2.719698E+00 -2.719698E+00  5.142791E+00  6.502886E+00 -5.195758E+00 -5.195758E+00
         4   2  4.527714E+00 -1.069254E+00 -1.224177E+00 -4.863268E-01  1.329921E+00  3.633931E+00
         4   3 -1.069254E+00  4.527714E+00 -1.224177E+00 -4.863268E-01  3.633931E+00  1.329921E+00
         4   4 -7.039641E-01 -7.039641E-01  1.276368E+00  7.356837E-01 -7.125186E-01 -7.125186E-01
         4   5  1.516000E+00  1.516000E+00  1.762517E+00  7.391247E-01 -1.989617E-01 -1.989617E-01
         4   6 -6.134273E-01  1.632757E+00  6.353631E+00  3.221466E-01  3.243849E+00  2.941696E+00
         4   7  1.632757E+00 -6.134273E-01  6.353631E+00  3.221466E-01  2.941696E+00  3.243849E+00
         4   8 -3.046955E+00 -3.046955E+00  3.747912E-01 -7.179634E-01 -1.658896E+00 -1.658896E+00
         5   1  8.971280E+00  8.971280E+00  1.341306E+01  3.394754E+00 -6.679908E+00 -6.679908E+00
         5   2  6.245716E+00 -5.434244E-01 -3.171307E+00  2.290960E+00 -4.119020E+00  1.642404E+00
         5   3 -5.434244E-01  6.245716E+00 -3.171307E+00  2.290960E+00  1.642404E+00 -4.119020E+00
         5   4  2.383028E+00  2.383028E+00 -3.992925E+00 -8.544520E-01 -1.992322E+00 -1.992322E+00
         5   5 -5.174889E+00 -5.174889E+00  2.790301E+01 -3.304168E+00 -9.221290E+00 -9.221290E+00
         5   6 -4.891721E+00 -5.289794E-01 -8.525805E+00 -4.667179E+00  3.616479E+00  2.310946E+00
         5   7 -5.289794E-01 -4.891721E+00 -8.525805E+00 -4.667179E+00  2.310946E+00  3.616479E+00
         5   8 -3.004755E+00 -3.004755E+00  3.820188E-01 -3.112830E+00 -1.584869E+00 -1.584869E+00
         6   1  6.964329E+00  1.269810E-01  4.943917E+00 -3.001342E+00 -5.875161E+00  2.650547E+00
         6   2  2.439011E+00  2.439011E+00  1.933906E+01 -1.281733E+00  8.896872E+00 -8.896872E+00
         6   3  2.832613E+00  2.832613E+00 -3.044154E-01 -3.848501E+00 -2.160174E+00  2.160174E+00
         6   4  1.269810E-01  6.964329E+00  4.943917E+00 -3.001342E+00 -2.650547E+00  5.875161E+00
         6   5 -6.367125E+00 -1.568948E-01 -4.124395E+00  2.420665E+00 -6.044345E+00  2.688667E+00
         6   6 -5.133084E+00 -5.133084E+00  2.670376E+01  2.008870E+00  8.473544E+00 -8.473544E+00
         6   7 -4.162085E+00 -4.162085E+00  2.311612E+00 -2.648653E+00  8.845749E-01 -8.845749E-01
         6   8 -1.568948E-01 -6.367125E+00 -4.124395E+00  2.420665E+00 -2.688667E+00  6.044345E+00
         7   1  1.269810E-01  6.964329E+00  4.943917E+00 -3.001342E+00  2.650547E+00 -5.875161E+00
         7   2  2.832613E+00  2.832613E+00 -3.044154E-01 -3.848501E+00  2.160174E+00 -2.160174E+00
         7   3  2.439011E+00  2.439011E+00  1.933906E+01 -1.281733E+00 -8.896872E+00  8.896872E+00
         7   4  6.964329E+00  1.269810E-01  4.943917E+00 -3.001342E+00  5.875161E+00 -2.650547E+00
         7   5 -1.568948E-01 -6.367125E+00 -4.124395E+00  2.420665E+00  2.688667E+00 -6.044345E+00
         7   6 -4.162085E+00 -4.162085E+00  2.311612E+00 -2.648653E+00 -8.845749E-01  8.845749E-01
         7   7 -5.133084E+00 -5.133084E+00  2.670376E+01  2.008870E+00 -8.473544E+00  8.473544E+00
         7   8 -6.367125E+00 -1.568948E-01 -4.124395E+00  2.420665E+00  6.044345E+00 -2.688667E+00
         8   1  2.383028E+00  2.383028E+00 -3.992925E+00 -8.544520E-01  1.992322E+00  1.992322E+00
         8   2 -5.434244E-01  6.245716E+00 -3.171307E+00  2.290960E+00 -1.642404E+00  4.119020E+00
         8   3  6.245716E+00 -5.434244E-01 -3.171307E+00  2.290960E+00  4.119020E+00 -1.642404E+00
         8   4  8.971280E+00  8.971280E+00  1.341306E+01  3.394754E+00  6.679908E+00  6.679908E+00
         8   5 -3.004755E+00 -3.004755E+00  3.820188E-01 -3.112830E+00  1.584869E+00  1.584869E+00
         8   6 -5.289794E-01 -4.891721E+00 -8.525805E+00 -4.667179E+00 -2.310946E+00 -3.616479E+00
         8   7 -4.891721E+00 -5.289794E-01 -8.525805E+00 -4.667179E+00 -3.616479E+00 -2.310946E+00
         8   8 -5.174889E+00 -5.174889E+00  2.790301E+01 -3.304168E+00  9.221290E+00  9.221290E+00

 centrifugal force(element,omega square) for set SET2 and time  0.1000000E+01

         1  0.000000E+00
         2  0.000000E+00
         3  0.000000E+00
         4  0.000000E+00
         5  0.000000E+00
         6  0.000000E+00
         7  0.000000E+00
         8  0.000000E+00
