
                        S T E P       1


                                INCREMENT     1


 displacements (vx,vy,vz) for set SET1 and time  0.1000000E+01

         1  0.000000E+00  0.000000E+00  0.000000E+00
         2 -7.910545E-03  0.000000E+00  0.000000E+00
         3  2.769594E-01 -7.205025E-02  7.663481E-01
         4  3.490096E-01 -7.910545E-03  0.000000E+00
         5 -3.904337E-01 -3.904337E-01 -2.078470E-01
         6 -3.983443E-01 -5.966638E-01  2.267849E-01
         7 -3.197045E-01 -6.687141E-01  1.000000E+00
         8 -2.476542E-01 -3.983443E-01  2.267849E-01
         9  5.208385E-02 -4.022097E-03 -5.971749E-02
        10  8.620518E-02 -3.681480E-04  5.489357E-03
        11  5.085443E-02  8.463762E-03  7.396022E-02
        12  8.765972E-02 -4.782630E-02  3.208943E-01
        13  1.916388E-01 -7.767012E-02  5.088307E-01
        14  2.336733E-01 -7.611409E-02  6.399005E-01
        15  2.728955E-01 -2.808391E-02  6.399005E-01
        16  2.713395E-01  1.713399E-02  5.088307E-01
        17  3.011833E-01  4.073137E-04  3.208943E-01
        18  2.702210E-01  5.085443E-02  7.396022E-02
        19  1.741367E-01  8.620518E-02  5.489357E-03
        20  8.323031E-02  5.208385E-02 -5.971749E-02
        21 -3.949371E-01 -4.402473E-01 -1.079490E-01
        22 -3.932447E-01 -4.939169E-01  3.979586E-03
        23 -3.961665E-01 -5.424086E-01  1.126441E-01
        24 -3.485654E-01 -5.879029E-01  3.592588E-01
        25 -3.019100E-01 -5.853178E-01  4.877358E-01
        26 -3.171991E-01 -6.161907E-01  6.730794E-01
        27 -2.671810E-01 -5.789563E-01  6.730794E-01
        28 -2.363081E-01 -4.764148E-01  4.877358E-01
        29 -2.388932E-01 -4.358179E-01  3.592588E-01
        30 -2.806514E-01 -3.961665E-01  1.126441E-01
        31 -3.194121E-01 -3.932447E-01  3.979586E-03
        32 -3.529949E-01 -3.949371E-01 -1.079490E-01
        33 -2.593922E-02 -2.129695E-01  1.448441E-01
        34 -1.600703E-01 -3.246605E-01  2.444573E-01
        35 -2.777569E-01 -4.547006E-01  2.387850E-01
        36 -2.801128E-01 -2.801128E-01 -2.284632E-01
        37 -1.606045E-01 -1.606045E-01 -2.349884E-01
        38 -2.829513E-02 -2.829513E-02 -1.362280E-01
        39  1.424809E-01 -2.065288E-01  7.580081E-01
        40  1.214920E-02 -3.368604E-01  7.521091E-01
        41 -9.925022E-02 -4.482599E-01  8.514958E-01
        42  1.360401E-01 -2.593922E-02  1.448441E-01
        43  2.434911E-02 -1.600703E-01  2.444573E-01
        44 -1.056910E-01 -2.777569E-01  2.387850E-01
        45  1.176741E-01  1.404111E-03  1.295176E-01
        46  1.759089E-01  3.042170E-02  1.295176E-01
        47  1.747569E-01  2.520456E-04  2.585513E-01
        48  1.788372E-01 -3.036592E-02  3.691428E-01
        49  2.313913E-01  4.332415E-03  3.691428E-01
        50 -3.527384E-01 -4.921447E-01  1.267258E-01
        51 -3.176398E-01 -4.399908E-01  1.267258E-01
        52 -3.187919E-01 -4.932967E-01  2.444664E-01
        53 -3.147115E-01 -5.470510E-01  3.806493E-01
        54 -2.852938E-01 -4.892164E-01  3.806493E-01
        55 -4.058089E-02 -1.211884E-01  3.865645E-03
        56 -1.523145E-01 -2.009072E-01 -9.818664E-02
        57 -1.509290E-01 -2.429792E-01  4.734472E-03
        58 -1.531136E-01 -2.880346E-01  1.076556E-01
        59 -2.756107E-01 -3.679628E-01  5.603298E-03
        60  5.206740E-02 -2.022775E-01  4.982041E-01
        61 -1.131453E-01 -3.308146E-01  3.544300E-01
        62 -6.703683E-02 -3.311585E-01  4.982832E-01
        63 -2.575854E-02 -3.315544E-01  6.421365E-01
        64 -1.947070E-01 -4.607964E-01  4.983624E-01
        65  1.467322E-01 -1.224374E-01  4.982041E-01
        66  1.745528E-02 -2.875158E-01  6.421365E-01
        67  1.785117E-02 -2.415416E-01  4.982832E-01
        68  1.819504E-02 -2.003977E-01  3.544300E-01
        69 -1.117868E-01 -3.692118E-01  4.983624E-01
        70  5.331640E-02 -4.058089E-02  3.865645E-03
        71 -2.627739E-02 -1.531136E-01  1.076556E-01
        72 -6.847440E-02 -1.509290E-01  4.734472E-03
        73 -1.136547E-01 -1.523145E-01 -9.818664E-02
        74 -1.934580E-01 -2.756107E-01  5.603298E-03
        75  5.430716E-02 -1.201977E-01  2.583236E-01
        76 -1.071905E-01 -2.444234E-01  1.281217E-01
        77 -6.991855E-02 -1.944429E-01  1.281217E-01
        78 -6.843966E-02 -2.429445E-01  2.515089E-01
        79 -6.588666E-02 -2.869753E-01  3.748961E-01
        80 -2.521808E-02 -2.403915E-01  3.748961E-01
        81 -1.924672E-01 -3.669720E-01  2.446942E-01

 stresses (elem, integ.pnt.,sxx,syy,szz,sxy,sxz,syz) for set EALL and time  0.1000000E+01

         1   1  5.573752E+03  5.573752E+03 -3.448049E+04  4.716724E+03 -1.069004E+04 -1.069004E+04
         1   2  5.968110E+03  7.028604E+03  6.377025E+03  3.747720E+03  1.319320E+03  1.953236E+03
         1   3  7.028604E+03  5.968110E+03  6.377025E+03  3.747720E+03  1.953236E+03  1.319320E+03
         1   4  5.902245E+02  5.902245E+02  5.275702E+03  8.579877E+03  6.795338E+03  6.795338E+03
         1   5 -1.136113E+04 -1.136113E+04 -2.151603E+04 -4.264947E+03 -7.976803E+03 -7.976803E+03
         1   6 -6.372427E+03 -7.745157E+02  6.937800E+03 -2.826583E+03 -2.770592E+03 -1.196201E+03
         1   7 -7.745157E+02 -6.372427E+03  6.937800E+03 -2.826583E+03 -1.196201E+03 -2.770592E+03
         1   8 -1.028156E+03 -1.028156E+03  2.759508E+03 -8.486543E+02  8.245961E+02  8.245961E+02
         2   1 -5.673728E+03 -6.761571E+03 -7.291827E+03  4.083215E+03  2.311920E+03 -2.091342E+03
         2   2 -6.351678E+03 -5.918210E+03  3.509893E+04  4.464453E+03 -1.080294E+04  1.146902E+04
         2   3 -1.236919E+03 -2.469505E+03 -3.644847E+03  7.722183E+03  2.349037E+03 -4.471937E+03
         2   4 -3.266930E+03 -6.627470E+03 -8.490879E+03  5.083598E+03  1.763897E+03 -2.460877E+03
         2   5  6.697654E+03  5.011946E+02 -7.810819E+03 -2.926213E+03 -2.581852E+03  1.292121E+03
         2   6  1.162089E+04  1.171188E+04  2.033954E+04 -4.160636E+03 -8.549547E+03  8.054342E+03
         2   7  1.127843E+03  2.620023E+03 -5.208170E+03 -4.700147E+02 -1.320888E+02  6.254073E+02
         2   8 -5.597223E+01  7.319202E+03 -5.153422E+03 -3.209060E+03  1.994416E+02  4.246844E+03
         3   1 -6.761571E+03 -5.673728E+03 -7.291827E+03  4.083215E+03 -2.091342E+03  2.311920E+03
         3   2 -2.469505E+03 -1.236919E+03 -3.644847E+03  7.722183E+03 -4.471937E+03  2.349037E+03
         3   3 -5.918210E+03 -6.351678E+03  3.509893E+04  4.464453E+03  1.146902E+04 -1.080294E+04
         3   4 -6.627470E+03 -3.266930E+03 -8.490879E+03  5.083598E+03 -2.460877E+03  1.763897E+03
         3   5  5.011946E+02  6.697654E+03 -7.810819E+03 -2.926213E+03  1.292121E+03 -2.581852E+03
         3   6  2.620023E+03  1.127843E+03 -5.208170E+03 -4.700147E+02  6.254073E+02 -1.320888E+02
         3   7  1.171188E+04  1.162089E+04  2.033954E+04 -4.160636E+03  8.054342E+03 -8.549547E+03
         3   8  7.319202E+03 -5.597223E+01 -5.153422E+03 -3.209060E+03  4.246844E+03  1.994416E+02
         4   1 -1.630711E+03 -1.630711E+03  3.798102E+03  6.557045E+03 -1.661256E+03 -1.661256E+03
         4   2  2.545613E+03 -1.124137E+03  1.026900E+03  7.245044E+02  1.409458E+03  2.945309E+03
         4   3 -1.124137E+03  2.545613E+03  1.026900E+03  7.245044E+02  2.945309E+03  1.409458E+03
         4   4 -1.312849E+02 -1.312849E+02  4.510674E+02  6.931253E+02 -1.381429E+02 -1.381429E+02
         4   5  7.348375E+02  7.348375E+02  4.810515E+03  1.891714E+03  1.693268E+03  1.693268E+03
         4   6  5.346476E+01  1.105161E+03  7.200518E+03  1.966332E+02  2.739888E+03  5.221272E+03
         4   7  1.105161E+03  5.346476E+01  7.200518E+03  1.966332E+02  5.221272E+03  2.739888E+03
         4   8 -4.414100E+03 -4.414100E+03  2.530119E+03 -9.588837E+02 -1.690096E+03 -1.690096E+03
         5   1  4.559273E+03  4.559273E+03 -4.244403E+03  1.183118E+03  1.325532E+03  1.325532E+03
         5   2 -2.616991E+02 -6.817838E+02 -5.679765E+03 -2.185199E+02 -6.582649E+03 -9.252133E+02
         5   3 -6.817838E+02 -2.616991E+02 -5.679765E+03 -2.185199E+02 -9.252133E+02 -6.582649E+03
         5   4  1.203855E+02  1.203855E+02 -4.864654E+03 -2.959645E+03 -3.200238E+03 -3.200238E+03
         5   5 -3.488260E+02 -3.488260E+02  7.914824E+02 -6.348162E+02 -5.814217E+02 -5.814217E+02
         5   6  9.045356E+02  3.300659E+02 -3.295349E+03 -1.790602E+03 -1.342439E+03 -6.536842E+02
         5   7  3.300659E+02  9.045356E+02 -3.295349E+03 -1.790602E+03 -6.536842E+02 -1.342439E+03
         5   8  2.126120E+02  2.126120E+02 -1.030833E+03 -4.157940E+03 -2.012039E+03 -2.012039E+03
         6   1  5.869258E+02  4.084626E+02  4.806746E+03 -3.181500E+02 -6.771390E+03  8.292932E+02
         6   2 -4.299515E+03 -4.208526E+03  3.067907E+03  1.287429E+03  1.898276E+03 -1.403071E+03
         6   3 -2.069847E+01  1.471481E+03  2.415992E+03 -2.581006E+03 -2.243553E+03  1.750235E+03
         6   4 -1.487042E+02  1.208473E+03  7.464142E+03 -6.009973E+02 -2.320856E+03  5.106397E+03
         6   5 -6.101540E+02 -6.303327E+01  2.380547E+03 -1.455107E+03 -2.335039E+03  7.917905E+02
         6   6 -4.291003E+02  4.368256E+00 -1.730357E+02 -8.870872E+02 -4.685217E+02 -1.975567E+02
         6   7 -8.593066E+02 -2.091893E+03  2.661688E+03 -5.015634E+03  2.434262E+03 -3.113623E+02
         6   8  3.431608E+03 -1.563896E+03  1.181496E+03 -4.547237E+02 -4.643456E+02  2.483995E+03
         7   1  4.084626E+02  5.869258E+02  4.806746E+03 -3.181500E+02  8.292932E+02 -6.771390E+03
         7   2  1.471481E+03 -2.069847E+01  2.415992E+03 -2.581006E+03  1.750235E+03 -2.243553E+03
         7   3 -4.208526E+03 -4.299515E+03  3.067907E+03  1.287429E+03 -1.403071E+03  1.898276E+03
         7   4  1.208473E+03 -1.487042E+02  7.464142E+03 -6.009973E+02  5.106397E+03 -2.320856E+03
         7   5 -6.303327E+01 -6.101540E+02  2.380547E+03 -1.455107E+03  7.917905E+02 -2.335039E+03
         7   6 -2.091893E+03 -8.593066E+02  2.661688E+03 -5.015634E+03 -3.113623E+02  2.434262E+03
         7   7  4.368256E+00 -4.291003E+02 -1.730357E+02 -8.870872E+02 -1.975567E+02 -4.685217E+02
         7   8 -1.563896E+03  3.431608E+03  1.181496E+03 -4.547237E+02  2.483995E+03 -4.643456E+02
         8   1  1.883379E+03  1.883379E+03 -2.813647E+03 -2.192767E+02  6.823745E+02  6.823745E+02
         8   2  1.461967E+02  7.215890E+03 -5.417047E+03  2.804696E+03 -6.184737E+02  4.131969E+03
         8   3  7.215890E+03  1.461967E+02 -5.417047E+03  2.804696E+03  4.131969E+03 -6.184737E+02
         8   4  1.150630E+04  1.150630E+04  1.980175E+04  4.489181E+03  8.341367E+03  8.341367E+03
         8   5 -2.008324E+03 -2.008324E+03 -2.508433E+03 -6.180773E+03 -3.122043E+03 -3.122043E+03
         8   6 -4.152925E+03 -6.187711E+03 -8.645474E+03 -4.813818E+03 -2.709010E+03 -2.922190E+03
         8   7 -6.187711E+03 -4.152925E+03 -8.645474E+03 -4.813818E+03 -2.922190E+03 -2.709010E+03
         8   8 -6.053863E+03 -6.053863E+03  3.572304E+04 -4.658415E+03  1.140960E+04  1.140960E+04
