
                        S T E P       1


                                INCREMENT     1


 displacements (vx,vy,vz) for set NALL and time  0.1000000E+00

         2  0.000000E+00  0.000000E+00  0.000000E+00
        10  1.362921E-05  0.000000E+00  0.000000E+00
        11  6.814604E-06  1.016828E-20  0.000000E+00
        12  3.378173E-22 -6.814604E-06  0.000000E+00
        13 -1.044895E-20 -1.362921E-05  0.000000E+00
        33  6.446066E-20  9.265612E-20  3.953739E-05
        34  2.184090E-19  2.905431E-19  7.907479E-05
        93  1.362921E-05 -6.814604E-06  0.000000E+00
        95  1.362921E-05 -1.362921E-05  0.000000E+00
        96  6.814604E-06 -1.362921E-05  0.000000E+00
       103  1.362921E-05  3.652050E-20  3.953739E-05
       105  1.362921E-05  2.129538E-19  7.907479E-05
       106  6.814604E-06  2.487023E-19  7.907479E-05
       132  1.581653E-20 -1.362921E-05  3.953739E-05
       133  1.702007E-19 -6.814604E-06  7.907479E-05
       134  1.419663E-19 -1.362921E-05  7.907479E-05
       219  1.362921E-05 -1.362921E-05  3.953739E-05
       220  1.362921E-05 -6.814604E-06  7.907479E-05
       222  1.362921E-05 -1.362921E-05  7.907479E-05
       223  6.814604E-06 -1.362921E-05  7.907479E-05

 forces (fx,fy,fz) for set NALL and time  0.1000000E+00

         2 -9.172315E-06  9.172315E-06  4.166575E-01
        10  9.172315E-06  9.172315E-06  4.166575E-01
        11 -6.260002E-16 -3.668926E-05 -1.666630E+00
        12  3.668926E-05  1.666519E-16 -1.666630E+00
        13 -9.172315E-06 -9.172315E-06  4.166575E-01
        33  3.668926E-05 -3.668926E-05  2.775558E-17
        34 -9.172315E-06  9.172315E-06 -4.166575E-01
        93 -3.668926E-05  3.702374E-17 -1.666630E+00
        95  9.172315E-06 -9.172315E-06  4.166575E-01
        96 -3.245533E-16  3.668926E-05 -1.666630E+00
       103 -3.668926E-05 -3.668926E-05 -7.667478E-16
       105  9.172315E-06  9.172315E-06 -4.166575E-01
       106  2.132472E-16 -3.668926E-05  1.666630E+00
       132  3.668926E-05  3.668926E-05 -3.330669E-16
       133  3.668926E-05 -5.237369E-16  1.666630E+00
       134 -9.172315E-06 -9.172315E-06 -4.166575E-01
       219 -3.668926E-05  3.668926E-05 -5.204170E-16
       220 -3.668926E-05  2.244815E-16  1.666630E+00
       222  9.172315E-06 -9.172315E-06 -4.166575E-01
       223 -6.098672E-16  3.668926E-05  1.666630E+00

 stresses (elem, integ.pnt.,sxx,syy,szz,sxy,sxz,syz) for set EALL and time  0.1000000E+00

         1   1  2.201356E-04  2.201356E-04  1.999956E+01 -1.131748E-15 -3.994403E-16 -3.528390E-15
         1   2  2.201356E-04  2.201356E-04  1.999956E+01 -3.095663E-15  4.993004E-16 -3.994403E-16
         1   3  2.201356E-04  2.201356E-04  1.999956E+01  3.994403E-16  2.579719E-15  2.571397E-15
         1   4  2.201356E-04  2.201356E-04  1.999956E+01  3.994403E-16 -7.988807E-16 -2.130348E-15
         1   5  2.201356E-04  2.201356E-04  1.999956E+01  0.000000E+00 -6.657339E-16  0.000000E+00
         1   6  2.201356E-04  2.201356E-04  1.999956E+01  9.153841E-16 -4.660137E-16  2.163635E-15
         1   7  2.201356E-04  2.201356E-04  1.999956E+01 -6.657339E-16 -1.331468E-15 -1.597761E-15
         1   8  2.201356E-04  2.201356E-04  1.999956E+01  3.994403E-16 -2.396642E-15 -5.325871E-16
         1   9  2.201356E-04  2.201356E-04  1.999956E+01 -9.986008E-16 -1.331468E-15  1.098461E-15
         1  10  2.201356E-04  2.201356E-04  1.999956E+01  3.994403E-16  5.468067E-16 -4.789729E-15
         1  11  2.201356E-04  2.201356E-04  1.999956E+01 -1.631048E-15  2.818704E-15  2.478728E-16
         1  12  2.201356E-04  2.201356E-04  1.999956E+01 -1.631048E-15  9.516116E-15  7.275970E-15
         1  13  2.201356E-04  2.201356E-04  1.999956E+01 -7.988807E-16  7.323073E-15 -1.264894E-15
         1  14  2.201356E-04  2.201356E-04  1.999956E+01  3.994403E-16  2.662936E-16 -1.597761E-15
         1  15  2.201356E-04  2.201356E-04  1.999956E+01  1.664335E-16 -8.654540E-16 -5.194987E-16
         1  16  2.201356E-04  2.201356E-04  1.999956E+01 -2.662936E-16  9.391372E-16 -7.293341E-15
         1  17  2.201356E-04  2.201356E-04  1.999956E+01  2.662936E-16 -2.752131E-15 -3.905854E-15
         1  18  2.201356E-04  2.201356E-04  1.999956E+01 -2.330069E-15  1.894029E-15  2.015138E-15
         1  19  2.201356E-04  2.201356E-04  1.999956E+01 -4.160837E-16  5.558878E-15  1.311496E-14
         1  20  2.201356E-04  2.201356E-04  1.999956E+01  6.324472E-16  4.027690E-15  4.526990E-15
         1  21  2.201356E-04  2.201356E-04  1.999956E+01 -2.130348E-15 -5.325871E-16  2.737831E-15
         1  22  2.201356E-04  2.201356E-04  1.999956E+01  3.994403E-16  1.065174E-15  1.597761E-15
         1  23  2.201356E-04  2.201356E-04  1.999956E+01 -3.328669E-16 -1.198321E-15  1.597761E-15
         1  24  2.201356E-04  2.201356E-04  1.999956E+01  4.660137E-16 -6.990206E-15 -2.330069E-15
         1  25  2.201356E-04  2.201356E-04  1.999956E+01 -5.325871E-16  1.597761E-15 -7.988807E-15
         1  26  2.201356E-04  2.201356E-04  1.999956E+01 -1.198321E-15 -8.255100E-15 -2.929229E-15
         1  27  2.201356E-04  2.201356E-04  1.999956E+01  2.812726E-15 -3.594963E-15 -1.068503E-14

 equivalent plastic strain (elem, integ.pnt.,pe)for set EALL and time  0.1000000E+00

         1   1  3.199472E-05
         1   2  3.199472E-05
         1   3  3.199472E-05
         1   4  3.199472E-05
         1   5  3.199472E-05
         1   6  3.199472E-05
         1   7  3.199472E-05
         1   8  3.199472E-05
         1   9  3.199472E-05
         1  10  3.199472E-05
         1  11  3.199472E-05
         1  12  3.199472E-05
         1  13  3.199472E-05
         1  14  3.199472E-05
         1  15  3.199472E-05
         1  16  3.199472E-05
         1  17  3.199472E-05
         1  18  3.199472E-05
         1  19  3.199472E-05
         1  20  3.199472E-05
         1  21  3.199472E-05
         1  22  3.199472E-05
         1  23  3.199472E-05
         1  24  3.199472E-05
         1  25  3.199472E-05
         1  26  3.199472E-05
         1  27  3.199472E-05

                                INCREMENT     2


 displacements (vx,vy,vz) for set NALL and time  0.2000000E+00

         2  0.000000E+00  0.000000E+00  0.000000E+00
        10  2.162807E-05  0.000000E+00  0.000000E+00
        11  1.081404E-05  2.841481E-20  0.000000E+00
        12  1.398490E-20 -1.081404E-05  0.000000E+00
        13  1.519965E-20 -2.162807E-05  0.000000E+00
        33  1.024920E-19  2.180882E-19  5.553512E-05
        34  3.862397E-19  6.728458E-19  1.110702E-04
        93  2.162807E-05 -1.081404E-05  0.000000E+00
        95  2.162807E-05 -2.162807E-05  0.000000E+00
        96  1.081404E-05 -2.162807E-05  0.000000E+00
       103  2.162807E-05  1.205621E-19  5.553512E-05
       105  2.162807E-05  5.676252E-19  1.110702E-04
       106  1.081404E-05  6.171140E-19  1.110702E-04
       132  4.642124E-20 -2.162807E-05  5.553512E-05
       133  3.120588E-19 -1.081404E-05  1.110702E-04
       134  2.473035E-19 -2.162807E-05  1.110702E-04
       219  2.162807E-05 -2.162807E-05  5.553512E-05
       220  2.162807E-05 -1.081404E-05  1.110702E-04
       222  2.162807E-05 -2.162807E-05  1.110702E-04
       223  1.081404E-05 -2.162807E-05  1.110702E-04

 forces (fx,fy,fz) for set NALL and time  0.2000000E+00

         2 -8.150480E-06  8.150480E-06  4.166585E-01
        10  8.150480E-06  8.150480E-06  4.166585E-01
        11  7.205287E-17 -3.260192E-05 -1.666634E+00
        12  3.260192E-05  9.419873E-16 -1.666634E+00
        13 -8.150480E-06 -8.150480E-06  4.166585E-01
        33  3.260192E-05 -3.260192E-05  8.118506E-16
        34 -8.150480E-06  8.150480E-06 -4.166585E-01
        93 -3.260192E-05  1.797239E-16 -1.666634E+00
        95  8.150480E-06 -8.150480E-06  4.166585E-01
        96  9.205466E-16  3.260192E-05 -1.666634E+00
       103 -3.260192E-05 -3.260192E-05  5.967449E-16
       105  8.150480E-06  8.150480E-06 -4.166585E-01
       106  9.496093E-16 -3.260192E-05  1.666634E+00
       132  3.260192E-05  3.260192E-05 -3.885781E-16
       133  3.260192E-05  7.708203E-16  1.666634E+00
       134 -8.150480E-06 -8.150480E-06 -4.166585E-01
       219 -3.260192E-05  3.260192E-05  1.804112E-16
       220 -3.260192E-05  7.829286E-16  1.666634E+00
       222  8.150480E-06 -8.150480E-06 -4.166585E-01
       223  2.826405E-16  3.260192E-05  1.666634E+00

 stresses (elem, integ.pnt.,sxx,syy,szz,sxy,sxz,syz) for set EALL and time  0.2000000E+00

         1   1  1.956115E-04  1.956115E-04  1.999961E+01  3.936187E-16 -2.645394E-15 -2.330576E-15
         1   2  1.956115E-04  1.956115E-04  1.999961E+01 -3.658833E-15 -9.872167E-16  8.409939E-17
         1   3  1.956115E-04  1.956115E-04  1.999961E+01 -8.164026E-16  4.415840E-16  6.977200E-15
         1   4  1.956115E-04  1.956115E-04  1.999961E+01  1.047642E-15  8.339290E-16 -1.326750E-15
         1   5  1.956115E-04  1.956115E-04  1.999961E+01 -3.994381E-16 -2.944384E-15  2.396629E-15
         1   6  1.956115E-04  1.956115E-04  1.999961E+01 -6.781560E-16 -3.951743E-15  6.074165E-15
         1   7  1.956115E-04  1.956115E-04  1.999961E+01 -1.080340E-15 -1.095511E-15  1.135274E-15
         1   8  1.956115E-04  1.956115E-04  1.999961E+01  3.311125E-15 -3.356639E-15  3.662694E-15
         1   9  1.956115E-04  1.956115E-04  1.999961E+01  1.042411E-15 -6.021914E-15  5.310930E-15
         1  10  1.956115E-04  1.956115E-04  1.999961E+01 -3.213031E-15  6.528610E-15 -3.965733E-15
         1  11  1.956115E-04  1.956115E-04  1.999961E+01  2.158076E-16  2.939538E-15  7.289669E-16
         1  12  1.956115E-04  1.956115E-04  1.999961E+01  1.608850E-17  1.149682E-14  2.107998E-15
         1  13  1.956115E-04  1.956115E-04  1.999961E+01  1.366513E-15  1.498346E-15 -4.715566E-15
         1  14  1.956115E-04  1.956115E-04  1.999961E+01  2.245956E-15 -3.667403E-16 -1.860512E-15
         1  15  1.956115E-04  1.956115E-04  1.999961E+01  1.801264E-15 -2.802475E-15 -1.238109E-15
         1  16  1.956115E-04  1.956115E-04  1.999961E+01  3.828537E-15  4.744083E-15 -7.187660E-15
         1  17  1.956115E-04  1.956115E-04  1.999961E+01  9.647200E-16 -1.566616E-15 -8.117390E-15
         1  18  1.956115E-04  1.956115E-04  1.999961E+01 -2.516302E-15 -8.380837E-15  3.384293E-15
         1  19  1.956115E-04  1.956115E-04  1.999961E+01 -3.304847E-15  1.714274E-14  1.003185E-14
         1  20  1.956115E-04  1.956115E-04  1.999961E+01 -1.603312E-15  3.273977E-15 -2.306778E-15
         1  21  1.956115E-04  1.956115E-04  1.999961E+01 -1.393323E-15  1.108559E-14 -1.440494E-15
         1  22  1.956115E-04  1.956115E-04  1.999961E+01 -1.348987E-15  4.657756E-15 -3.363976E-16
         1  23  1.956115E-04  1.956115E-04  1.999961E+01 -1.072754E-15 -1.145735E-15 -7.010549E-17
         1  24  1.956115E-04  1.956115E-04  1.999961E+01 -1.107807E-15 -1.111056E-14  4.174287E-15
         1  25  1.956115E-04  1.956115E-04  1.999961E+01 -5.979797E-16  1.430967E-14 -1.083374E-14
         1  26  1.956115E-04  1.956115E-04  1.999961E+01 -3.276072E-15 -3.277113E-15  6.697065E-15
         1  27  1.956115E-04  1.956115E-04  1.999961E+01 -2.758597E-15 -1.348973E-14  6.094251E-15

 equivalent plastic strain (elem, integ.pnt.,pe)for set EALL and time  0.2000000E+00

         1   1  6.399002E-05
         1   2  6.399002E-05
         1   3  6.399002E-05
         1   4  6.399002E-05
         1   5  6.399002E-05
         1   6  6.399002E-05
         1   7  6.399002E-05
         1   8  6.399002E-05
         1   9  6.399002E-05
         1  10  6.399002E-05
         1  11  6.399002E-05
         1  12  6.399002E-05
         1  13  6.399002E-05
         1  14  6.399002E-05
         1  15  6.399002E-05
         1  16  6.399002E-05
         1  17  6.399002E-05
         1  18  6.399002E-05
         1  19  6.399002E-05
         1  20  6.399002E-05
         1  21  6.399002E-05
         1  22  6.399002E-05
         1  23  6.399002E-05
         1  24  6.399002E-05
         1  25  6.399002E-05
         1  26  6.399002E-05
         1  27  6.399002E-05

                                INCREMENT     3


 displacements (vx,vy,vz) for set NALL and time  0.3500000E+00

         2  0.000000E+00  0.000000E+00  0.000000E+00
        10  3.362835E-05  0.000000E+00  0.000000E+00
        11  1.681418E-05  2.672282E-20  0.000000E+00
        12 -8.732918E-21 -1.681418E-05  0.000000E+00
        13 -3.748303E-20 -3.362835E-05  0.000000E+00
        33  1.222805E-19  1.661368E-19  7.953568E-05
        34  4.662417E-19  4.439325E-19  1.590714E-04
        93  3.362835E-05 -1.681418E-05  0.000000E+00
        95  3.362835E-05 -3.362835E-05  0.000000E+00
        96  1.681418E-05 -3.362835E-05  0.000000E+00
       103  3.362835E-05  3.561670E-20  7.953568E-05
       105  3.362835E-05  2.808891E-19  1.590714E-04
       106  1.681418E-05  3.568499E-19  1.590714E-04
       132  2.626756E-21 -3.362835E-05  7.953568E-05
       133  3.344391E-19 -1.681418E-05  1.590714E-04
       134  2.216919E-19 -3.362835E-05  1.590714E-04
       219  3.362835E-05 -3.362835E-05  7.953568E-05
       220  3.362835E-05 -1.681418E-05  1.590714E-04
       222  3.362835E-05 -3.362835E-05  1.590714E-04
       223  1.681418E-05 -3.362835E-05  1.590714E-04

 forces (fx,fy,fz) for set NALL and time  0.3500000E+00

         2 -2.137696E-12  2.137528E-12  4.166667E-01
        10  2.139128E-12  2.138233E-12  4.166667E-01
        11 -1.371474E-15 -8.553366E-12 -1.666667E+00
        12  8.553784E-12  9.006175E-16 -1.666667E+00
        13 -2.138248E-12 -2.138726E-12  4.166667E-01
        33  8.554011E-12 -8.553988E-12  1.186551E-15
        34 -2.138059E-12  2.137441E-12 -4.166667E-01
        93 -8.554458E-12  5.900189E-16 -1.666667E+00
        95  2.139080E-12 -2.138667E-12  4.166667E-01
        96 -5.636109E-16  8.553826E-12 -1.666667E+00
       103 -8.554120E-12 -8.553665E-12 -1.951564E-16
       105  2.138525E-12  2.137406E-12 -4.166667E-01
       106 -9.330685E-17 -8.553048E-12  1.666667E+00
       132  8.553891E-12  8.554035E-12 -1.665335E-16
       133  8.553689E-12  1.286853E-15  1.666667E+00
       134 -2.138406E-12 -2.138749E-12 -4.166667E-01
       219 -8.554047E-12  8.553596E-12 -1.110223E-16
       220 -8.553582E-12  1.173205E-15  1.666667E+00
       222  2.139251E-12 -2.138857E-12 -4.166667E-01
       223 -7.131477E-16  8.553052E-12  1.666667E+00

 stresses (elem, integ.pnt.,sxx,syy,szz,sxy,sxz,syz) for set EALL and time  0.3500000E+00

         1   1  5.131806E-11  5.132605E-11  2.000000E+01  2.622368E-16  2.646439E-15 -4.861479E-15
         1   2  5.134027E-11  5.134027E-11  2.000000E+01 -4.633294E-15  1.050939E-15 -2.812258E-15
         1   3  5.133494E-11  5.134382E-11  2.000000E+01 -9.037951E-16  2.513617E-15  3.690601E-15
         1   4  5.129497E-11  5.129497E-11  2.000000E+01  1.108959E-15  3.125226E-15 -2.487332E-15
         1   5  5.133405E-11  5.132961E-11  2.000000E+01 -1.553430E-15  4.735614E-16  1.255677E-15
         1   6  5.132961E-11  5.133138E-11  2.000000E+01  6.808069E-16 -7.823104E-16  3.434494E-15
         1   7  5.135092E-11  5.135359E-11  2.000000E+01  7.781235E-16  3.221244E-16  1.042860E-15
         1   8  5.130207E-11  5.130030E-11  2.000000E+01  1.846826E-15 -3.102810E-15 -9.721428E-17
         1   9  5.131184E-11  5.132161E-11  2.000000E+01 -3.402288E-15 -1.138863E-15  9.343731E-16
         1  10  5.132073E-11  5.133138E-11  2.000000E+01 -8.993304E-16  1.229348E-14 -9.716663E-15
         1  11  5.130296E-11  5.130296E-11  2.000000E+01 -1.109561E-16  5.414623E-15 -1.232049E-14
         1  12  5.132605E-11  5.132605E-11  2.000000E+01 -1.951791E-15  6.934161E-15  2.946918E-15
         1  13  5.133760E-11  5.133494E-11  2.000000E+01  7.159636E-16  7.281765E-15 -4.934925E-15
         1  14  5.132073E-11  5.131806E-11  2.000000E+01  1.400760E-15  1.376028E-15 -3.607082E-15
         1  15  5.132961E-11  5.132250E-11  2.000000E+01  1.223776E-15  8.279440E-16 -7.806826E-16
         1  16  5.131184E-11  5.131362E-11  2.000000E+01 -6.823984E-16 -1.347460E-16 -1.594385E-16
         1  17  5.131895E-11  5.132428E-11  2.000000E+01  5.054503E-16 -3.631182E-15  2.322725E-15
         1  18  5.134737E-11  5.134293E-11  2.000000E+01 -1.654415E-15 -1.331104E-16  3.515014E-15
         1  19  5.133050E-11  5.132605E-11  2.000000E+01  7.047499E-16  1.066187E-14 -6.561292E-15
         1  20  5.132961E-11  5.132961E-11  2.000000E+01  5.321236E-16  3.339533E-15  2.095770E-15
         1  21  5.136602E-11  5.136602E-11  2.000000E+01 -3.894366E-15 -1.208589E-14  3.956805E-15
         1  22  5.135359E-11  5.134648E-11  2.000000E+01  8.613952E-16  1.028124E-14 -2.640527E-15
         1  23  5.129852E-11  5.129852E-11  2.000000E+01 -7.860782E-16  1.191911E-15 -1.156856E-15
         1  24  5.131362E-11  5.132161E-11  2.000000E+01  3.996917E-16  1.655631E-15  8.148995E-16
         1  25  5.130563E-11  5.130563E-11  2.000000E+01  2.599025E-15  1.421809E-14  2.388734E-15
         1  26  5.129852E-11  5.129586E-11  2.000000E+01 -3.722967E-16 -9.781899E-15  5.525051E-15
         1  27  5.133849E-11  5.132694E-11  2.000000E+01  1.943056E-15 -2.643241E-15 -3.863803E-15

 equivalent plastic strain (elem, integ.pnt.,pe)for set EALL and time  0.3500000E+00

         1   1  1.119900E-04
         1   2  1.119900E-04
         1   3  1.119900E-04
         1   4  1.119900E-04
         1   5  1.119900E-04
         1   6  1.119900E-04
         1   7  1.119900E-04
         1   8  1.119900E-04
         1   9  1.119900E-04
         1  10  1.119900E-04
         1  11  1.119900E-04
         1  12  1.119900E-04
         1  13  1.119900E-04
         1  14  1.119900E-04
         1  15  1.119900E-04
         1  16  1.119900E-04
         1  17  1.119900E-04
         1  18  1.119900E-04
         1  19  1.119900E-04
         1  20  1.119900E-04
         1  21  1.119900E-04
         1  22  1.119900E-04
         1  23  1.119900E-04
         1  24  1.119900E-04
         1  25  1.119900E-04
         1  26  1.119900E-04
         1  27  1.119900E-04

                                INCREMENT     4


 displacements (vx,vy,vz) for set NALL and time  0.5750000E+00

         2  0.000000E+00  0.000000E+00  0.000000E+00
        10  5.162835E-05  0.000000E+00  0.000000E+00
        11  2.581418E-05  2.794002E-20  0.000000E+00
        12 -3.045570E-20 -2.581418E-05  0.000000E+00
        13 -8.349627E-20 -5.162835E-05  0.000000E+00
        33  2.438375E-19  2.283901E-19  1.155357E-04
        34  8.617316E-19  4.791022E-19  2.310714E-04
        93  5.162835E-05 -2.581418E-05  0.000000E+00
        95  5.162835E-05 -5.162835E-05  0.000000E+00
        96  2.581418E-05 -5.162835E-05  0.000000E+00
       103  5.162835E-05  1.135968E-20  1.155357E-04
       105  5.162835E-05  1.879195E-19  2.310714E-04
       106  2.581418E-05  3.030566E-19  2.310714E-04
       132  7.096260E-21 -5.162835E-05  1.155357E-04
       133  6.282985E-19 -2.581418E-05  2.310714E-04
       134  4.535804E-19 -5.162835E-05  2.310714E-04
       219  5.162835E-05 -5.162835E-05  1.155357E-04
       220  5.162835E-05 -2.581418E-05  2.310714E-04
       222  5.162835E-05 -5.162835E-05  2.310714E-04
       223  2.581418E-05 -5.162835E-05  2.310714E-04

 forces (fx,fy,fz) for set NALL and time  0.5750000E+00

         2  4.526441E-15 -4.531174E-15  4.166667E-01
        10 -4.701214E-15 -3.823654E-15  4.166667E-01
        11 -5.823443E-17  1.561246E-14 -1.666667E+00
        12 -1.607728E-14 -6.667415E-17 -1.666667E+00
        13  4.096154E-15  4.242629E-15  4.166667E-01
        33 -1.685473E-14  1.634590E-14  2.928213E-15
        34  2.186783E-15 -1.839202E-15 -4.166667E-01
        93  1.578192E-14  8.567465E-17 -1.666667E+00
        95 -4.069836E-15  3.641506E-15  4.166667E-01
        96  1.719153E-16 -1.487786E-14 -1.666667E+00
       103  1.692302E-14  1.537534E-14  4.276093E-16
       105 -5.413371E-15 -3.314187E-15 -4.166667E-01
       106  3.548331E-15  1.651309E-14  1.666667E+00
       132 -1.580795E-14 -1.623741E-14  7.216450E-16
       133 -1.722431E-14 -3.018188E-15  1.666667E+00
       134  2.803673E-15  4.537610E-15 -4.166667E-01
       219  1.587425E-14 -1.542989E-14 -6.106227E-16
       220  1.746116E-14 -2.651403E-15  1.666667E+00
       222 -6.194560E-15  5.805633E-15 -4.166667E-01
       223  3.027863E-15 -1.637020E-14  1.666667E+00

 stresses (elem, integ.pnt.,sxx,syy,szz,sxy,sxz,syz) for set EALL and time  0.5750000E+00

         1   1 -8.970602E-14 -9.503509E-14  2.000000E+01  2.531212E-15  2.839013E-15 -5.133555E-15
         1   2 -6.306067E-14 -5.950795E-14  2.000000E+01 -1.644136E-15  1.078088E-15 -1.949065E-16
         1   3 -7.904788E-14 -7.016610E-14  2.000000E+01 -1.789135E-16  5.203038E-15  6.176134E-15
         1   4 -1.474376E-13 -1.429967E-13  2.000000E+01  1.735974E-15  3.132111E-15  1.118790E-15
         1   5 -7.283063E-14 -6.750156E-14  2.000000E+01 -1.109789E-15  2.552787E-15  1.798065E-15
         1   6 -8.082424E-14 -7.549517E-14  2.000000E+01 -3.678350E-16 -1.440629E-17  6.248702E-15
         1   7 -4.618528E-14 -5.062617E-14  2.000000E+01 -3.832597E-15 -9.493900E-16  5.507995E-15
         1   8 -1.154632E-13 -1.119105E-13  2.000000E+01  2.319666E-15 -2.398817E-15  1.406476E-15
         1   9 -1.181277E-13 -1.092459E-13  2.000000E+01 -2.410350E-16 -5.277195E-15  4.240657E-15
         1  10 -8.615331E-14 -7.194245E-14  2.000000E+01  1.971782E-15  9.619652E-15 -1.834350E-14
         1  11 -1.243450E-13 -1.296740E-13  2.000000E+01 -1.766001E-15  5.990548E-15 -7.010188E-15
         1  12 -1.199041E-13 -1.163514E-13  2.000000E+01 -2.273611E-15  3.749385E-15 -4.459818E-15
         1  13 -7.016610E-14 -7.016610E-14  2.000000E+01  2.112515E-15  1.122447E-14 -1.817024E-15
         1  14 -1.021405E-13 -9.237056E-14  2.000000E+01 -1.310093E-16  1.306141E-15 -4.964601E-15
         1  15 -1.136868E-13 -1.048051E-13  2.000000E+01 -3.416223E-16 -1.187708E-15 -3.085839E-15
         1  16 -1.296740E-13 -1.243450E-13  2.000000E+01  2.244539E-15  3.327700E-15 -1.578884E-15
         1  17 -9.059420E-14 -8.526513E-14  2.000000E+01  5.758099E-16 -5.326275E-15 -5.752277E-15
         1  18 -5.950795E-14 -6.306067E-14  2.000000E+01 -3.459665E-15 -1.546946E-14 -5.158395E-15
         1  19 -1.341149E-13 -1.287859E-13  2.000000E+01 -1.398177E-15  4.738274E-15  6.361352E-15
         1  20 -9.148238E-14 -9.148238E-14  2.000000E+01  7.680501E-16  3.539472E-15 -1.123686E-14
         1  21 -1.225686E-13 -1.314504E-13  2.000000E+01 -3.299277E-15  7.167396E-15  1.167212E-14
         1  22 -6.572520E-14 -6.572520E-14  2.000000E+01  2.264538E-15  3.700579E-16  1.415863E-15
         1  23 -1.243450E-13 -1.207923E-13  2.000000E+01 -7.850472E-16  3.761552E-15  3.310414E-15
         1  24 -1.501022E-13 -1.501022E-13  2.000000E+01 -7.129926E-16 -8.211230E-15  5.004380E-15
         1  25 -3.730349E-14 -4.174439E-14  2.000000E+01 -3.242947E-15  1.216944E-14  8.248991E-15
         1  26 -7.460699E-14 -7.460699E-14  2.000000E+01 -2.871837E-15 -6.311108E-15  3.423905E-15
         1  27 -1.074696E-13 -1.119105E-13  2.000000E+01  1.681820E-15 -1.360431E-14 -6.656575E-15

 equivalent plastic strain (elem, integ.pnt.,pe)for set EALL and time  0.5750000E+00

         1   1  1.839900E-04
         1   2  1.839900E-04
         1   3  1.839900E-04
         1   4  1.839900E-04
         1   5  1.839900E-04
         1   6  1.839900E-04
         1   7  1.839900E-04
         1   8  1.839900E-04
         1   9  1.839900E-04
         1  10  1.839900E-04
         1  11  1.839900E-04
         1  12  1.839900E-04
         1  13  1.839900E-04
         1  14  1.839900E-04
         1  15  1.839900E-04
         1  16  1.839900E-04
         1  17  1.839900E-04
         1  18  1.839900E-04
         1  19  1.839900E-04
         1  20  1.839900E-04
         1  21  1.839900E-04
         1  22  1.839900E-04
         1  23  1.839900E-04
         1  24  1.839900E-04
         1  25  1.839900E-04
         1  26  1.839900E-04
         1  27  1.839900E-04

                                INCREMENT     5


 displacements (vx,vy,vz) for set NALL and time  0.9125000E+00

         2  0.000000E+00  0.000000E+00  0.000000E+00
        10  7.862835E-05  0.000000E+00  0.000000E+00
        11  3.931418E-05  6.800005E-20  0.000000E+00
        12 -4.008923E-20 -3.931418E-05  0.000000E+00
        13 -1.527139E-19 -7.862835E-05  0.000000E+00
        33  4.884373E-19  4.373907E-19  1.695357E-04
        34  1.757596E-18  1.146528E-18  3.390714E-04
        93  7.862835E-05 -3.931418E-05  0.000000E+00
        95  7.862835E-05 -7.862835E-05  0.000000E+00
        96  3.931418E-05 -7.862835E-05  0.000000E+00
       103  7.862835E-05  1.436245E-19  1.695357E-04
       105  7.862835E-05  7.373666E-19  3.390714E-04
       106  3.931418E-05  8.809426E-19  3.390714E-04
       132  1.272869E-19 -7.862835E-05  1.695357E-04
       133  1.408412E-18 -3.931418E-05  3.390714E-04
       134  1.098927E-18 -7.862835E-05  3.390714E-04
       219  7.862835E-05 -7.862835E-05  1.695357E-04
       220  7.862835E-05 -3.931418E-05  3.390714E-04
       222  7.862835E-05 -7.862835E-05  3.390714E-04
       223  3.931418E-05 -7.862835E-05  3.390714E-04

 forces (fx,fy,fz) for set NALL and time  0.9125000E+00

         2 -1.271839E-17 -9.784346E-16  4.166667E-01
        10 -6.967396E-16 -4.572882E-16  4.166667E-01
        11  5.953019E-16 -9.971388E-16 -1.666667E+00
        12  1.125899E-15  1.703090E-15 -1.666667E+00
        13 -1.585519E-15 -1.206804E-15  4.166667E-01
        33  2.257100E-16 -3.683416E-16  4.163336E-16
        34 -3.742644E-16  7.129496E-16 -4.166667E-01
        93 -6.675902E-16  3.062676E-16 -1.666667E+00
        95 -1.477111E-15  5.212930E-17  4.166667E-01
        96  2.841715E-15  1.327258E-15 -1.666667E+00
       103  1.523189E-16 -7.316929E-17  1.405126E-15
       105  7.660459E-17  2.551846E-17 -4.166667E-01
       106  7.563431E-16 -5.689735E-16  1.666667E+00
       132  5.226269E-16 -2.413110E-16  1.110223E-16
       133 -4.486623E-16  8.247202E-16  1.666667E+00
       134 -1.105286E-15 -1.076656E-15 -4.166667E-01
       219 -2.275928E-16  5.705778E-16  2.713108E-15
       220 -4.075438E-16  1.100102E-15  1.666667E+00
       222  2.036256E-16 -1.107710E-15 -4.166667E-01
       223  5.028823E-16  4.532146E-16  1.666667E+00

 stresses (elem, integ.pnt.,sxx,syy,szz,sxy,sxz,syz) for set EALL and time  0.9125000E+00

         1   1 -1.154632E-14 -1.154632E-14  2.000000E+01  5.852399E-15  7.920771E-16 -3.512017E-15
         1   2  6.217249E-14  7.194245E-14  2.000000E+01 -2.365856E-15  1.337246E-15 -1.047149E-15
         1   3  1.776357E-14  2.753353E-14  2.000000E+01 -2.235695E-15  1.077018E-15  6.558074E-15
         1   4 -3.552714E-15 -3.552714E-15  2.000000E+01  1.412893E-15  4.670095E-16 -1.943013E-16
         1   5  1.421085E-14  1.421085E-14  2.000000E+01 -1.207211E-15 -5.659612E-16 -2.520754E-16
         1   6  8.881784E-16  1.065814E-14  2.000000E+01 -1.559336E-16 -1.619872E-15  6.617022E-15
         1   7  1.199041E-13  1.021405E-13  2.000000E+01 -5.753186E-15  8.117315E-16  2.932774E-15
         1   8 -4.352074E-14 -5.240253E-14  2.000000E+01 -1.766109E-15 -7.879337E-16  7.765222E-15
         1   9 -2.042810E-14 -2.042810E-14  2.000000E+01 -5.065038E-15  2.328691E-16  4.552975E-15
         1  10 -2.575717E-14 -1.598721E-14  2.000000E+01 -3.144401E-15 -8.059821E-15 -2.474913E-15
         1  11  8.881784E-16  9.769963E-15  2.000000E+01 -8.609681E-16 -1.941842E-15 -2.883987E-15
         1  12 -3.463896E-14 -4.352074E-14  2.000000E+01 -7.468077E-16  4.563447E-15  5.849984E-15
         1  13  3.641532E-14  2.664535E-14  2.000000E+01 -2.395939E-15  3.525655E-17 -4.108007E-15
         1  14 -1.154632E-14 -1.154632E-14  2.000000E+01  1.361437E-15 -1.256338E-15 -3.316074E-15
         1  15 -2.664535E-15 -2.664535E-15  2.000000E+01 -2.289139E-15  5.438424E-15  1.317285E-15
         1  16 -4.352074E-14 -3.463896E-14  2.000000E+01  4.107985E-15 -8.800372E-15  3.515190E-15
         1  17  1.776357E-14  2.753353E-14  2.000000E+01 -9.175894E-17 -8.022368E-15  1.820921E-15
         1  18  3.197442E-14  3.197442E-14  2.000000E+01 -4.858232E-15 -6.215950E-15  7.133034E-16
         1  19  6.217249E-15  6.217249E-15  2.000000E+01 -1.474973E-14  1.672464E-14 -1.420235E-14
         1  20  1.421085E-14  1.421085E-14  2.000000E+01 -1.292637E-15 -3.119700E-17 -5.516756E-15
         1  21  1.065814E-14  8.881784E-16  2.000000E+01  2.076350E-15 -8.584660E-16  3.158974E-14
         1  22 -4.707346E-14 -4.707346E-14  2.000000E+01 -4.171815E-15 -2.125599E-15  1.026853E-15
         1  23  3.197442E-14  3.197442E-14  2.000000E+01 -1.100544E-15  9.546543E-16 -1.721575E-15
         1  24 -3.907985E-14 -3.907985E-14  2.000000E+01  1.767174E-15 -1.505645E-14  5.435844E-15
         1  25  3.641532E-14  2.664535E-14  2.000000E+01  9.046976E-15 -1.620610E-15  4.956678E-15
         1  26 -4.352074E-14 -5.240253E-14  2.000000E+01 -1.083752E-15 -8.252660E-15  3.933581E-15
         1  27 -2.486900E-14 -3.463896E-14  2.000000E+01 -3.590761E-15 -1.598522E-14  1.192845E-14

 equivalent plastic strain (elem, integ.pnt.,pe)for set EALL and time  0.9125000E+00

         1   1  2.919900E-04
         1   2  2.919900E-04
         1   3  2.919900E-04
         1   4  2.919900E-04
         1   5  2.919900E-04
         1   6  2.919900E-04
         1   7  2.919900E-04
         1   8  2.919900E-04
         1   9  2.919900E-04
         1  10  2.919900E-04
         1  11  2.919900E-04
         1  12  2.919900E-04
         1  13  2.919900E-04
         1  14  2.919900E-04
         1  15  2.919900E-04
         1  16  2.919900E-04
         1  17  2.919900E-04
         1  18  2.919900E-04
         1  19  2.919900E-04
         1  20  2.919900E-04
         1  21  2.919900E-04
         1  22  2.919900E-04
         1  23  2.919900E-04
         1  24  2.919900E-04
         1  25  2.919900E-04
         1  26  2.919900E-04
         1  27  2.919900E-04

                                INCREMENT     6


 displacements (vx,vy,vz) for set NALL and time  0.1000000E+01

         2  0.000000E+00  0.000000E+00  0.000000E+00
        10  8.562835E-05  0.000000E+00  0.000000E+00
        11  4.281418E-05  7.536345E-20  0.000000E+00
        12 -1.815341E-20 -4.281418E-05  0.000000E+00
        13 -9.209330E-20 -8.562835E-05  0.000000E+00
        33  5.112006E-19  5.338391E-19  1.835357E-04
        34  1.826764E-18  1.568614E-18  3.670714E-04
        93  8.562835E-05 -4.281418E-05  0.000000E+00
        95  8.562835E-05 -8.562835E-05  0.000000E+00
        96  4.281418E-05 -8.562835E-05  0.000000E+00
       103  8.562835E-05  2.251876E-19  1.835357E-04
       105  8.562835E-05  1.052501E-18  3.670714E-04
       106  4.281418E-05  1.260974E-18  3.670714E-04
       132  1.624579E-19 -8.562835E-05  1.835357E-04
       133  1.474267E-18 -4.281418E-05  3.670714E-04
       134  1.146558E-18 -8.562835E-05  3.670714E-04
       219  8.562835E-05 -8.562835E-05  1.835357E-04
       220  8.562835E-05 -4.281418E-05  3.670714E-04
       222  8.562835E-05 -8.562835E-05  3.670714E-04
       223  4.281418E-05 -8.562835E-05  3.670714E-04

 forces (fx,fy,fz) for set NALL and time  0.1000000E+01

         2  1.333909E-15 -7.028265E-17  4.166667E-01
        10 -3.775359E-16  1.028405E-15  4.166667E-01
        11 -8.410511E-16  3.639061E-16 -1.666667E+00
        12 -5.927415E-16 -2.035055E-15 -1.666667E+00
        13  2.494476E-15  2.709565E-15  4.166667E-01
        33 -1.090170E-15  5.811340E-17  6.522560E-16
        34 -7.854740E-16  2.433517E-16 -4.166667E-01
        93 -2.430994E-16 -1.618007E-15 -1.666667E+00
        95  4.855799E-16  1.925494E-15  4.166667E-01
        96 -2.686915E-15 -1.195630E-15 -1.666667E+00
       103  8.693566E-16  1.174088E-15 -9.046583E-16
       105 -1.908555E-15 -1.422144E-15 -4.166667E-01
       106  3.787357E-15  9.474799E-16  1.666667E+00
       132 -1.020849E-15 -1.263393E-15  3.552714E-15
       133 -2.144308E-15  3.372791E-16  1.666667E+00
       134  2.645232E-16  5.633295E-16 -4.166667E-01
       219  1.518292E-15 -3.312494E-15  7.632783E-17
       220  8.041032E-16  2.645733E-15  1.666667E+00
       222  5.982669E-17 -7.853765E-17 -4.166667E-01
       223  7.327475E-17 -1.001203E-15  1.666667E+00

 stresses (elem, integ.pnt.,sxx,syy,szz,sxy,sxz,syz) for set EALL and time  0.1000000E+01

         1   1  8.881784E-16 -2.664535E-14  2.000000E+01  1.409509E-14 -1.717982E-15 -5.089958E-15
         1   2  4.973799E-14  3.108624E-14  2.000000E+01 -4.201123E-15 -3.038421E-15 -7.111932E-15
         1   3 -3.552714E-15 -3.552714E-15  2.000000E+01 -1.600929E-15  2.834784E-15  5.893095E-15
         1   4 -3.019807E-14 -3.019807E-14  2.000000E+01 -1.943975E-16 -8.126058E-16 -6.833988E-15
         1   5  9.769963E-15  8.881784E-16  2.000000E+01  3.682325E-15 -1.487732E-15  1.511998E-15
         1   6  7.194245E-14  6.217249E-14  2.000000E+01  1.854293E-15  2.015328E-15  4.123229E-16
         1   7  3.552714E-14  4.440892E-14  2.000000E+01 -1.270282E-14 -1.705136E-15 -4.790202E-15
         1   8 -7.105427E-15  1.776357E-15  2.000000E+01  4.993791E-15  2.838523E-15 -4.985319E-15
         1   9  2.753353E-14  3.641532E-14  2.000000E+01  1.443520E-14 -2.362926E-15  2.137348E-15
         1  10 -1.598721E-14 -4.440892E-14  2.000000E+01 -2.055110E-15  1.478917E-14 -3.167533E-14
         1  11 -7.993606E-15 -1.776357E-14  2.000000E+01 -6.990248E-15 -2.059444E-15 -1.557035E-14
         1  12 -4.440892E-14 -1.598721E-14  2.000000E+01 -4.400512E-15  9.320210E-15  1.235290E-14
         1  13  9.769963E-15  8.881784E-16  2.000000E+01 -4.480998E-16  7.847873E-15  1.227513E-15
         1  14 -2.575717E-14 -1.598721E-14  2.000000E+01  8.898048E-16 -8.211145E-16  9.067283E-16
         1  15 -2.842171E-14 -2.842171E-14  2.000000E+01  2.975201E-15 -4.969043E-15  9.330584E-15
         1  16 -4.707346E-14 -4.707346E-14  2.000000E+01  4.492216E-16  2.244150E-14 -2.521316E-14
         1  17 -7.105427E-15  1.776357E-15  2.000000E+01 -5.997160E-17  1.838953E-17  4.674302E-16
         1  18  2.398082E-14  2.398082E-14  2.000000E+01  1.782666E-16  4.785029E-15  2.384366E-14
         1  19  3.641532E-14  2.664535E-14  2.000000E+01 -6.216732E-15  2.071189E-14  2.537048E-14
         1  20  6.217249E-14  9.059420E-14  2.000000E+01 -8.949126E-15  1.199631E-14  1.704077E-15
         1  21 -4.707346E-14 -4.707346E-14  2.000000E+01  2.474889E-15 -1.834160E-14  1.683873E-14
         1  22  9.769963E-15  8.881784E-16  2.000000E+01 -3.844438E-15  1.537825E-14  2.906794E-15
         1  23 -2.930989E-14 -4.796163E-14  2.000000E+01  3.985417E-16 -2.170641E-15  1.843689E-14
         1  24 -3.552714E-15 -3.552714E-15  2.000000E+01  4.857807E-15 -1.333379E-14  9.141911E-15
         1  25  2.753353E-14  1.776357E-14  2.000000E+01  1.317881E-14 -2.788718E-14  4.795289E-14
         1  26 -4.707346E-14 -4.707346E-14  2.000000E+01  2.086266E-15 -1.098292E-14  1.374923E-14
         1  27  8.881784E-16  2.842171E-14  2.000000E+01 -2.067383E-15  4.363699E-15 -7.574035E-15

 equivalent plastic strain (elem, integ.pnt.,pe)for set EALL and time  0.1000000E+01

         1   1  3.199900E-04
         1   2  3.199900E-04
         1   3  3.199900E-04
         1   4  3.199900E-04
         1   5  3.199900E-04
         1   6  3.199900E-04
         1   7  3.199900E-04
         1   8  3.199900E-04
         1   9  3.199900E-04
         1  10  3.199900E-04
         1  11  3.199900E-04
         1  12  3.199900E-04
         1  13  3.199900E-04
         1  14  3.199900E-04
         1  15  3.199900E-04
         1  16  3.199900E-04
         1  17  3.199900E-04
         1  18  3.199900E-04
         1  19  3.199900E-04
         1  20  3.199900E-04
         1  21  3.199900E-04
         1  22  3.199900E-04
         1  23  3.199900E-04
         1  24  3.199900E-04
         1  25  3.199900E-04
         1  26  3.199900E-04
         1  27  3.199900E-04
