
                        S T E P       1


                                INCREMENT     1


 displacements (vx,vy,vz) for set NALL and time  0.1000000E+01

         1  0.000000E+00  0.000000E+00  0.000000E+00
         2  0.000000E+00  0.000000E+00  0.000000E+00
         3  0.000000E+00  0.000000E+00  0.000000E+00
         4  0.000000E+00  0.000000E+00  0.000000E+00
         5  0.000000E+00  0.000000E+00  0.000000E+00
         6  0.000000E+00  0.000000E+00  0.000000E+00
         7  0.000000E+00  0.000000E+00  0.000000E+00
         8  0.000000E+00  0.000000E+00  0.000000E+00
         9  6.645556E-08  0.000000E+00  0.000000E+00
        10  6.645556E-08  1.300000E-01  0.000000E+00
        11  6.645556E-08  0.000000E+00  0.000000E+00
        12  6.645556E-08  1.099984E-01  0.000000E+00
        13  6.645556E-08  0.000000E+00  0.000000E+00

                        S T E P       2


                                INCREMENT     1


 displacements (vx,vy,vz) for set NALL and time  0.2000000E+01

         1  7.858104E-06  0.000000E+00  0.000000E+00
         2  7.858104E-06  9.745226E-06  0.000000E+00
         3  7.470770E-06  9.745210E-06  0.000000E+00
         4  7.470770E-06  1.546729E-11  0.000000E+00
         5  7.857364E-06  4.872613E-06  0.000000E+00
         6  7.638274E-06  9.745170E-06  0.000000E+00
         7  7.470063E-06  4.872613E-06  0.000000E+00
         8  7.638274E-06  5.578916E-11  0.000000E+00
         9  6.645556E-08  1.300000E-01  0.000000E+00
        10  6.645556E-08  1.300000E-01  0.000000E+00
        11  6.645556E-08  1.199992E-01  0.000000E+00
        12  6.645556E-08  1.099984E-01  0.000000E+00
        13  6.645556E-08  1.099984E-01  0.000000E+00

 stresses (elem, integ.pnt.,sxx,syy,szz,sxy,sxz,syz) for set ETUBE and time  0.2000000E+01

         1   1 -9.210922E-02  1.239959E-03  7.784103E-01  3.282301E-05  1.177678E-02 -4.437527E-07
         1   2 -9.211131E-02  1.240245E-03  7.784134E-01  3.378343E-16  1.177683E-02  4.874770E-15
         1   3 -9.210922E-02  1.239959E-03  7.784103E-01 -3.282301E-05  1.177678E-02  4.437527E-07
         1   4 -5.244118E-02 -1.429544E-03  7.298381E-01  1.846191E-06  1.059101E-02 -2.495835E-08
         1   5 -5.244349E-02 -1.429466E-03  7.298407E-01 -5.407798E-17  1.059106E-02 -5.425546E-15
         1   6 -5.244118E-02 -1.429544E-03  7.298381E-01 -1.846191E-06  1.059101E-02  2.495836E-08
         1   7 -7.613880E-03  1.057467E-03  6.933034E-01 -2.913068E-05  9.482796E-03  3.938367E-07
         1   8 -7.616369E-03  1.057358E-03  6.933055E-01  9.892794E-17  9.482843E-03  6.329654E-15
         1   9 -7.613880E-03  1.057467E-03  6.933034E-01  2.913068E-05  9.482796E-03 -3.938367E-07
         1  10 -9.226185E-02  1.242752E-03  7.785723E-01  3.282615E-05  7.663521E-26  1.885627E-16
         1  11 -9.226394E-02  1.243038E-03  7.785753E-01 -1.426471E-15 -2.189274E-15 -1.111471E-15
         1  12 -9.226185E-02  1.242752E-03  7.785723E-01 -3.282615E-05 -3.388672E-16 -5.096146E-17
         1  13 -5.258481E-02 -1.429805E-03  7.299809E-01  1.846486E-06 -4.193682E-27 -1.839901E-16
         1  14 -5.258711E-02 -1.429727E-03  7.299834E-01 -5.605760E-17  1.096775E-15  2.267202E-16
         1  15 -5.258481E-02 -1.429805E-03  7.299809E-01 -1.846486E-06 -1.505126E-15  1.868231E-15
         1  16 -7.749023E-03  1.054465E-03  6.934285E-01 -2.913322E-05  5.473183E-16 -4.724813E-17
         1  17 -7.751513E-03  1.054356E-03  6.934306E-01  4.997962E-16  2.736591E-16  1.056097E-15
         1  18 -7.749023E-03  1.054465E-03  6.934285E-01  2.913322E-05 -1.913477E-16  7.913889E-16
         1  19 -9.210922E-02  1.239959E-03  7.784103E-01  3.282301E-05 -1.177678E-02  4.437527E-07
         1  20 -9.211131E-02  1.240245E-03  7.784134E-01  1.021972E-15 -1.177683E-02 -4.874771E-15
         1  21 -9.210922E-02  1.239959E-03  7.784103E-01 -3.282301E-05 -1.177678E-02 -4.437527E-07
         1  22 -5.244118E-02 -1.429544E-03  7.298381E-01  1.846191E-06 -1.059101E-02  2.495834E-08
         1  23 -5.244349E-02 -1.429466E-03  7.298407E-01 -4.552581E-17 -1.059106E-02  3.236238E-15
         1  24 -5.244118E-02 -1.429544E-03  7.298381E-01 -1.846191E-06 -1.059101E-02 -2.495836E-08
         1  25 -7.613880E-03  1.057467E-03  6.933034E-01 -2.913068E-05 -9.482796E-03 -3.938367E-07
         1  26 -7.616369E-03  1.057358E-03  6.933055E-01 -1.747284E-16 -9.482843E-03 -1.951158E-15
         1  27 -7.613880E-03  1.057467E-03  6.933034E-01  2.913068E-05 -9.482796E-03  3.938367E-07
