
                        S T E P       1


                                INCREMENT     1


 displacements (vx,vy,vz) for set NALL and time  0.1000000E+01

         1  7.335263E-01  0.000000E+00  0.000000E+00
         2  7.335263E-01  1.040391E+00  0.000000E+00
         3  6.831633E-01  1.040594E+00  0.000000E+00
         4  6.831633E-01 -2.025838E-04  0.000000E+00
         5  7.329209E-01  5.201957E-01  0.000000E+00
         6  7.033504E-01  1.040485E+00  0.000000E+00
         7  6.826131E-01  5.201957E-01  0.000000E+00
         8  7.033504E-01 -9.339891E-05  0.000000E+00
         9  6.645556E-08  0.000000E+00  0.000000E+00
        10  6.645556E-08  1.300000E-01  0.000000E+00
        11  6.645556E-08  0.000000E+00  0.000000E+00
        12  6.645556E-08  1.265680E-01  0.000000E+00
        13  6.645556E-08  0.000000E+00  0.000000E+00

 stresses (elem, integ.pnt.,sxx,syy,szz,sxy,sxz,syz) for set ETUBE and time  0.1000000E+01

         1   1 -1.029221E-01 -4.515834E-03  1.614634E+00 -1.096303E-04  2.325256E-02  1.478218E-06
         1   2 -1.029688E-01 -4.651150E-03  1.613275E+00 -4.457180E-15  2.323876E-02  7.541122E-15
         1   3 -1.029221E-01 -4.515834E-03  1.614634E+00  1.096303E-04  2.325256E-02 -1.478218E-06
         1   4 -6.483481E-02 -3.256966E-03  1.370526E+00 -1.654613E-04  1.946665E-02  2.226374E-06
         1   5 -6.484369E-02 -3.359453E-03  1.369452E+00 -5.753871E-15  1.945564E-02 -7.922994E-15
         1   6 -6.483481E-02 -3.256966E-03  1.370526E+00  1.654613E-04  1.946665E-02 -2.226374E-06
         1   7 -5.917296E-03  8.112873E-03  1.207820E+00 -2.375771E-04  1.643454E-02  3.206674E-06
         1   8 -5.883474E-03  8.037442E-03  1.206958E+00 -6.365070E-15  1.642543E-02  1.353457E-14
         1   9 -5.917296E-03  8.112873E-03  1.207820E+00  2.375771E-04  1.643454E-02 -3.206674E-06
         1  10 -1.032311E-01 -4.512367E-03  1.614946E+00 -1.096498E-04 -1.682777E-15  2.121227E-16
         1  11 -1.032777E-01 -4.647729E-03  1.613586E+00 -4.814604E-15  7.569312E-18 -1.399067E-16
         1  12 -1.032311E-01 -4.512367E-03  1.614946E+00  1.096498E-04  1.118075E-16  9.635804E-17
         1  13 -6.509929E-02 -3.257541E-03  1.370787E+00 -1.654833E-04  2.061904E-19 -1.228128E-15
         1  14 -6.510811E-02 -3.360070E-03  1.369713E+00 -5.462484E-15 -3.166401E-15 -6.581335E-16
         1  15 -6.509929E-02 -3.257541E-03  1.370787E+00  1.654833E-04 -2.025479E-18 -5.113125E-16
         1  16 -6.148749E-03  8.108826E-03  1.208039E+00 -2.376016E-04  7.732918E-16  2.173722E-16
         1  17 -6.114892E-03  8.033358E-03  1.207177E+00 -6.375689E-15  2.319381E-15  4.255020E-15
         1  18 -6.148749E-03  8.108826E-03  1.208039E+00  2.376016E-04 -4.801787E-16  5.389520E-16
         1  19 -1.029221E-01 -4.515834E-03  1.614634E+00 -1.096303E-04 -2.325256E-02 -1.478218E-06
         1  20 -1.029688E-01 -4.651150E-03  1.613275E+00 -4.383053E-15 -2.323876E-02 -2.256478E-14
         1  21 -1.029221E-01 -4.515834E-03  1.614634E+00  1.096303E-04 -2.325256E-02  1.478218E-06
         1  22 -6.483481E-02 -3.256966E-03  1.370526E+00 -1.654613E-04 -1.946665E-02 -2.226374E-06
         1  23 -6.484369E-02 -3.359453E-03  1.369452E+00 -5.511823E-15 -1.945564E-02 -5.591783E-15
         1  24 -6.483481E-02 -3.256966E-03  1.370526E+00  1.654613E-04 -1.946665E-02  2.226374E-06
         1  25 -5.917296E-03  8.112873E-03  1.207820E+00 -2.375771E-04 -1.643454E-02 -3.206674E-06
         1  26 -5.883474E-03  8.037442E-03  1.206958E+00 -6.661657E-15 -1.642543E-02  5.075167E-15
         1  27 -5.917296E-03  8.112873E-03  1.207820E+00  2.375771E-04 -1.643454E-02  3.206674E-06
