
                        S T E P       1


                                INCREMENT     1


 displacements (vx,vy,vz) for set NALL and time  0.1000000E+01

         1  0.000000E+00  8.960185E-06  0.000000E+00
         2 -1.599851E-07  5.536504E-06  0.000000E+00
         3 -6.048784E-06  1.878099E-05  0.000000E+00
         4  2.423584E-07  7.140922E-06  0.000000E+00
         5 -1.958348E-06  1.180864E-05  0.000000E+00
         6 -3.835097E-06  1.298216E-05  0.000000E+00
         7 -1.317186E-07  1.781375E-05  0.000000E+00
         8 -5.536623E-07  1.129021E-05  0.000000E+00
         9 -2.981012E-06  1.802513E-05  0.000000E+00
        10 -9.001413E-06  3.507790E-05  0.000000E+00
        11 -3.778682E-06  2.563174E-05  0.000000E+00
        12 -7.670246E-06  2.625770E-05  0.000000E+00
        13 -6.737768E-08  3.431250E-05  0.000000E+00
        14 -8.577469E-08  2.543236E-05  0.000000E+00
        15 -4.450037E-06  3.451204E-05  0.000000E+00
        16 -1.091454E-05  5.565937E-05  0.000000E+00
        17 -4.992206E-06  4.441169E-05  0.000000E+00
        18 -1.004556E-05  4.488292E-05  0.000000E+00
        19 -4.790953E-08  5.508633E-05  0.000000E+00
        20 -5.887240E-08  4.425765E-05  0.000000E+00
        21 -5.426818E-06  5.523408E-05  0.000000E+00
        22 -1.214226E-05  7.919368E-05  0.000000E+00
        23 -5.773911E-06  6.674877E-05  0.000000E+00
        24 -1.159044E-05  6.710889E-05  0.000000E+00
        25 -3.623413E-08  7.875269E-05  0.000000E+00
        26 -4.284386E-08  6.663130E-05  0.000000E+00
        27 -6.048000E-06  7.886633E-05  0.000000E+00
        28 -1.285189E-05  1.045580E-04  0.000000E+00
        29 -6.255663E-06  9.141009E-05  0.000000E+00
        30 -1.254431E-05  9.168751E-05  0.000000E+00
        31 -2.943540E-08  1.042188E-04  0.000000E+00
        32 -3.343509E-08  9.131964E-05  0.000000E+00
        33 -6.407397E-06  1.043064E-04  0.000000E+00
        34 -1.314790E-05  1.308598E-04  0.000000E+00
        35 -6.505504E-06  1.174133E-04  0.000000E+00
        36 -1.303777E-05  1.176246E-04  0.000000E+00
        37 -2.464758E-08  1.306029E-04  0.000000E+00
        38 -2.751718E-08  1.173446E-04  0.000000E+00
        39 -6.558388E-06  1.306696E-04  0.000000E+00
        40 -1.309563E-05  1.573627E-04  0.000000E+00
        41 -6.566340E-06  1.439576E-04  0.000000E+00
        42 -1.315446E-05  1.441135E-04  0.000000E+00
        43 -2.507972E-08  1.571755E-04  0.000000E+00
        44 -2.419064E-08  1.439065E-04  0.000000E+00
        45 -6.535731E-06  1.572253E-04  0.000000E+00
        46 -1.272596E-05  1.833686E-04  0.000000E+00
        47 -6.464789E-06  1.703573E-04  0.000000E+00
        48 -1.293607E-05  1.704641E-04  0.000000E+00
        49 -2.360411E-08  1.832775E-04  0.000000E+00
        50 -3.099657E-08  1.703241E-04  0.000000E+00
        51 -6.358792E-06  1.832814E-04  0.000000E+00
        52  0.000000E+00  0.000000E+00  0.000000E+00
        53 -2.529479E-07  2.973789E-06  0.000000E+00
        54  9.229984E-07  1.079138E-05  0.000000E+00
        55  5.780587E-06  1.884567E-05  0.000000E+00
        56  4.094224E-06  1.175798E-05  0.000000E+00
        57  2.613380E-06  1.811087E-05  0.000000E+00
        58  3.575160E-06  2.566833E-05  0.000000E+00
        59  8.845849E-06  3.501305E-05  0.000000E+00
        60  7.469709E-06  2.632714E-05  0.000000E+00
        61  4.307772E-06  3.448185E-05  0.000000E+00
        62  4.870033E-06  4.442240E-05  0.000000E+00
        63  1.081638E-05  5.561688E-05  0.000000E+00
        64  9.926154E-06  4.490702E-05  0.000000E+00
        65  5.329778E-06  5.521401E-05  0.000000E+00
        66  5.687116E-06  6.675716E-05  0.000000E+00
        67  1.206781E-05  7.916248E-05  0.000000E+00
        68  1.150617E-05  6.712707E-05  0.000000E+00
        69  5.974550E-06  7.885150E-05  0.000000E+00
        70  6.188083E-06  9.141668E-05  0.000000E+00
        71  1.279184E-05  1.045334E-04  0.000000E+00
        72  1.247815E-05  9.170167E-05  0.000000E+00
        73  6.347952E-06  1.042946E-04  0.000000E+00
        74  6.449808E-06  1.174188E-04  0.000000E+00
        75  1.309642E-05  1.308393E-04  0.000000E+00
        76  1.298278E-05  1.176363E-04  0.000000E+00
        77  6.508147E-06  1.306596E-04  0.000000E+00
        78  6.518318E-06  1.439608E-04  0.000000E+00
        79  1.305870E-05  1.573394E-04  0.000000E+00
        80  1.310841E-05  1.441214E-04  0.000000E+00
        81  6.488715E-06  1.572125E-04  0.000000E+00
        82  6.412798E-06  1.703661E-04  0.000000E+00
        83  1.280857E-05  1.835892E-04  0.000000E+00
        84  1.291321E-05  1.704830E-04  0.000000E+00
        85  6.346202E-06  1.833832E-04  0.000000E+00

 stresses (elem, integ.pnt.,sxx,syy,szz,sxy,sxz,syz) for set EALL and time  0.1000000E+01

         1   1 -2.036266E+00  1.738004E-01 -1.975922E+00  3.475454E-01  1.405133E-03 -4.698356E-03
         1   2 -8.003977E-01  7.428942E-01 -7.132956E-01  6.601394E-01 -2.507982E-03 -8.924751E-03
         1   3 -1.318735E+00 -4.991139E-02 -1.631066E+00  1.065175E-01 -4.525957E-03 -1.439213E-03
         1   4 -2.036277E+00  1.738004E-01 -1.975911E+00  3.476060E-01 -2.048387E-15  1.372884E-14
         1   5 -8.002960E-01  7.429446E-01 -7.132293E-01  6.602095E-01 -3.160727E-15  1.139567E-14
         1   6 -1.318720E+00 -4.992930E-02 -1.631141E+00  1.066043E-01  0.000000E+00  0.000000E+00
         1   7 -2.036266E+00  1.738004E-01 -1.975922E+00  3.475454E-01 -1.405133E-03  4.698356E-03
         1   8 -8.003977E-01  7.428942E-01 -7.132956E-01  6.601394E-01  2.507982E-03  8.924751E-03
         1   9 -1.318735E+00 -4.991139E-02 -1.631066E+00  1.065175E-01  4.525957E-03  1.439213E-03
         2   1 -9.206628E-01  1.739631E-02 -1.170292E+00  1.846156E-01 -4.046873E-03 -2.495871E-03
         2   2 -4.507879E-01  1.306336E-01 -5.979269E-01  6.469763E-01 -3.103894E-03 -8.747366E-03
         2   3 -1.280503E-02  1.066580E-01 -2.560944E-01  3.045993E-01 -3.282547E-03 -4.118075E-03
         2   4 -9.205139E-01  1.744054E-02 -1.170294E+00  1.846204E-01  5.429309E-16 -6.269828E-15
         2   5 -4.506694E-01  1.306729E-01 -5.979146E-01  6.469743E-01  3.753691E-16  6.547867E-15
         2   6 -1.276411E-02  1.066565E-01 -2.561404E-01  3.046087E-01 -2.376152E-15  2.783166E-15
         2   7 -9.206628E-01  1.739631E-02 -1.170292E+00  1.846156E-01  4.046873E-03  2.495871E-03
         2   8 -4.507879E-01  1.306336E-01 -5.979269E-01  6.469763E-01  3.103894E-03  8.747366E-03
         2   9 -1.280503E-02  1.066580E-01 -2.560944E-01  3.045993E-01  3.282547E-03  4.118075E-03
         3   1 -9.695573E-01  6.174596E-04 -1.277708E+00  8.698703E-02 -4.233399E-03 -1.175694E-03
         3   2 -4.276941E-01 -7.572742E-02 -5.495323E-01  1.783548E-01 -2.005450E-03 -2.411023E-03
         3   3 -7.875186E-01  4.435254E-03 -1.083347E+00  3.764514E-02 -4.195093E-03 -5.083367E-04
         3   4 -9.695020E-01  6.170306E-04 -1.277764E+00  8.700737E-02 -1.096751E-15 -8.754795E-15
         3   5 -4.277016E-01 -7.574020E-02 -5.495674E-01  1.783770E-01 -1.027450E-15 -1.778000E-15
         3   6 -7.874745E-01  4.430962E-03 -1.083406E+00  3.768531E-02  1.002444E-15 -3.227874E-16
         3   7 -9.695573E-01  6.174596E-04 -1.277708E+00  8.698703E-02  4.233399E-03  1.175694E-03
         3   8 -4.276941E-01 -7.572742E-02 -5.495323E-01  1.783548E-01  2.005450E-03  2.411023E-03
         3   9 -7.875186E-01  4.435254E-03 -1.083347E+00  3.764514E-02  4.195093E-03  5.083367E-04
         4   1 -6.406616E-01 -2.177688E-02 -8.453559E-01  8.142235E-02 -2.999429E-03 -1.100559E-03
         4   2 -1.517263E-01 -1.423733E-03 -2.402630E-01  1.546909E-01 -1.496536E-03 -2.091406E-03
         4   3 -1.499768E-01  9.309929E-03 -2.067047E-01  1.356122E-01 -8.450419E-04 -1.833239E-03
         4   4 -6.405647E-01 -2.175141E-02 -8.453679E-01  8.142464E-02 -1.008550E-17 -1.205682E-16
         4   5 -1.516845E-01 -1.412775E-03 -2.402682E-01  1.546745E-01  1.639490E-16  8.788055E-15
         4   6 -1.499500E-01  9.317009E-03 -2.067080E-01  1.356144E-01 -1.799292E-15  1.072515E-16
         4   7 -6.406616E-01 -2.177688E-02 -8.453559E-01  8.142235E-02  2.999429E-03  1.100559E-03
         4   8 -1.517263E-01 -1.423733E-03 -2.402630E-01  1.546909E-01  1.496536E-03  2.091406E-03
         4   9 -1.499768E-01  9.309929E-03 -2.067047E-01  1.356122E-01  8.450419E-04  1.833239E-03
         5   1 -6.592564E-01  1.856127E-02 -9.460399E-01  2.925073E-02 -3.904800E-03 -3.950682E-04
         5   2 -2.916746E-01 -1.307523E-02 -3.933650E-01  9.875194E-02 -1.500615E-03 -1.334753E-03
         5   3 -5.605585E-01 -1.137183E-03 -8.454406E-01  2.368912E-02 -3.930647E-03 -3.197101E-04
         5   4 -6.592053E-01  1.856072E-02 -9.460929E-01  2.926165E-02 -1.665913E-21 -4.374200E-15
         5   5 -2.916786E-01 -1.308492E-02 -3.933933E-01  9.876425E-02 -1.166942E-15  6.863160E-15
         5   6 -5.605144E-01 -1.140615E-03 -8.454961E-01  2.371437E-02 -1.094613E-15 -4.378478E-15
         5   7 -6.592564E-01  1.856127E-02 -9.460399E-01  2.925073E-02  3.904800E-03  3.950682E-04
         5   8 -2.916746E-01 -1.307523E-02 -3.933650E-01  9.875194E-02  1.500615E-03  1.334753E-03
         5   9 -5.605585E-01 -1.137183E-03 -8.454406E-01  2.368912E-02  3.930647E-03  3.197101E-04
         6   1 -4.462304E-01 -1.163447E-02 -6.598869E-01  5.259117E-02 -2.983560E-03 -7.106879E-04
         6   2 -1.110562E-01  5.077407E-03 -1.798450E-01  8.965368E-02 -1.036356E-03 -1.211943E-03
         6   3 -1.035357E-01  7.725950E-03 -1.609255E-01  8.840922E-02 -8.063731E-04 -1.194970E-03
         6   4 -4.461563E-01 -1.161943E-02 -6.599109E-01  5.259264E-02 -2.736567E-16 -4.378485E-15
         6   5 -1.110308E-01  5.082869E-03 -1.798521E-01  8.964220E-02  2.561774E-16  1.060545E-15
         6   6 -1.035162E-01  7.729818E-03 -1.609322E-01  8.841078E-02 -9.848124E-16  5.623295E-17
         6   7 -4.462304E-01 -1.163447E-02 -6.598869E-01  5.259117E-02  2.983560E-03  7.106879E-04
         6   8 -1.110562E-01  5.077407E-03 -1.798450E-01  8.965368E-02  1.036356E-03  1.211943E-03
         6   9 -1.035357E-01  7.725950E-03 -1.609255E-01  8.840922E-02  8.063731E-04  1.194970E-03
         7   1 -4.694440E-01  1.129630E-02 -7.525894E-01  2.173616E-02 -3.839598E-03 -2.934424E-04
         7   2 -2.045975E-01 -9.818110E-03 -3.106974E-01  6.706243E-02 -1.489727E-03 -9.062715E-04
         7   3 -3.984816E-01 -6.935460E-04 -6.810719E-01  1.776217E-02 -3.857114E-03 -2.396059E-04
         7   4 -4.693930E-01  1.129595E-02 -7.526415E-01  2.174350E-02  0.000000E+00  0.000000E+00
         7   5 -2.045939E-01 -9.824871E-03 -3.107236E-01  6.707073E-02 -1.012721E-15  6.847837E-15
         7   6 -3.984361E-01 -6.961885E-04 -6.811262E-01  1.777889E-02 -3.774014E-16 -7.676314E-15
         7   7 -4.694440E-01  1.129630E-02 -7.525894E-01  2.173616E-02  3.839598E-03  2.934424E-04
         7   8 -2.045975E-01 -9.818110E-03 -3.106974E-01  6.706243E-02  1.489727E-03  9.062715E-04
         7   9 -3.984816E-01 -6.935460E-04 -6.810719E-01  1.776217E-02  3.857114E-03  2.396059E-04
         8   1 -3.168937E-01 -8.815285E-03 -5.331161E-01  3.855209E-02 -2.969466E-03 -5.208285E-04
         8   2 -7.913234E-02  3.108164E-03 -1.434452E-01  6.300703E-02 -9.176912E-04 -8.515701E-04
         8   3 -7.377901E-02  5.487772E-03 -1.301825E-01  6.542402E-02 -7.778826E-04 -8.841534E-04
         8   4 -3.168328E-01 -8.806091E-03 -5.331465E-01  3.855364E-02  2.720879E-16 -3.170012E-15
         8   5 -7.911345E-02  3.111223E-03 -1.434539E-01  6.300012E-02  3.981257E-16  5.459003E-15
         8   6 -7.376320E-02  5.490130E-03 -1.301905E-01  6.542562E-02 -8.113699E-16 -4.346812E-15
         8   7 -3.168937E-01 -8.815285E-03 -5.331161E-01  3.855209E-02  2.969466E-03  5.208285E-04
         8   8 -7.913234E-02  3.108164E-03 -1.434452E-01  6.300703E-02  9.176912E-04  8.515701E-04
         8   9 -7.377901E-02  5.487772E-03 -1.301825E-01  6.542402E-02  7.778826E-04  8.841534E-04
         9   1 -3.297512E-01  8.547130E-03 -6.116830E-01  1.651391E-02 -3.816883E-03 -2.228192E-04
         9   2 -1.443719E-01 -7.396923E-03 -2.518391E-01  5.083256E-02 -1.478413E-03 -6.868208E-04
         9   3 -2.751647E-01 -4.729380E-04 -5.565534E-01  1.416041E-02 -3.820544E-03 -1.909356E-04
         9   4 -3.296995E-01  8.547211E-03 -6.117344E-01  1.651893E-02 -5.473084E-16  4.275769E-18
         9   5 -1.443612E-01 -7.400757E-03 -2.518626E-01  5.083831E-02 -4.160900E-16  5.951703E-15
         9   6 -2.751175E-01 -4.747837E-04 -5.566067E-01  1.417098E-02  7.682097E-22  4.378486E-15
         9   7 -3.297512E-01  8.547130E-03 -6.116830E-01  1.651391E-02  3.816883E-03  2.228192E-04
         9   8 -1.443719E-01 -7.396923E-03 -2.518391E-01  5.083256E-02  1.478413E-03  6.868208E-04
         9   9 -2.751647E-01 -4.729380E-04 -5.565534E-01  1.416041E-02  3.820544E-03  1.909356E-04
        10   1 -2.183654E-01 -7.021099E-03 -4.360661E-01  3.035319E-02 -2.965879E-03 -4.099467E-04
        10   2 -5.477726E-02  2.434705E-03 -1.166984E-01  4.854661E-02 -8.591821E-04 -6.559880E-04
        10   3 -5.067836E-02  4.263242E-03 -1.065717E-01  5.189691E-02 -7.637226E-04 -7.012310E-04
        10   4 -2.183138E-01 -7.016069E-03 -4.361008E-01  3.035506E-02  1.645550E-21  4.378491E-15
        10   5 -5.476220E-02  2.436308E-03 -1.167082E-01  4.854362E-02  1.764887E-16  1.150137E-14
        10   6 -5.066512E-02  4.264535E-03 -1.065806E-01  5.189882E-02 -4.064770E-16  1.051744E-15
        10   7 -2.183654E-01 -7.021099E-03 -4.360661E-01  3.035319E-02  2.965879E-03  4.099467E-04
        10   8 -5.477726E-02  2.434705E-03 -1.166984E-01  4.854661E-02  8.591821E-04  6.559880E-04
        10   9 -5.067836E-02  4.263242E-03 -1.065717E-01  5.189691E-02  7.637226E-04  7.012310E-04
        11   1 -2.199338E-01  6.829896E-03 -5.011415E-01  1.331860E-02 -3.803857E-03 -1.796114E-04
        11   2 -9.778174E-02 -5.883205E-03 -2.061050E-01  4.091067E-02 -1.474671E-03 -5.526669E-04
        11   3 -1.757133E-01 -3.527308E-04 -4.563160E-01  1.177395E-02 -3.798775E-03 -1.586987E-04
        11   4 -2.198812E-01  6.830422E-03 -5.011924E-01  1.332196E-02  5.673646E-17 -1.399034E-14
        11   5 -9.776490E-02 -5.884478E-03 -2.061261E-01  4.091462E-02 -1.428405E-15  8.980756E-15
        11   6 -1.756647E-01 -3.538780E-04 -4.563684E-01  1.177980E-02 -3.810163E-16  1.391778E-14
        11   7 -2.199338E-01  6.829896E-03 -5.011415E-01  1.331860E-02  3.803857E-03  1.796114E-04
        11   8 -9.778174E-02 -5.883205E-03 -2.061050E-01  4.091067E-02  1.474671E-03  5.526669E-04
        11   9 -1.757133E-01 -3.527308E-04 -4.563160E-01  1.177395E-02  3.798775E-03  1.586987E-04
        12   1 -1.389231E-01 -5.800295E-03 -3.575005E-01  2.498095E-02 -2.964753E-03 -3.372962E-04
        12   2 -3.498926E-02  1.885720E-03 -9.558396E-02  3.950063E-02 -8.274550E-04 -5.336332E-04
        12   3 -3.151701E-02  3.747110E-03 -8.721937E-02  4.289327E-02 -7.571566E-04 -5.794818E-04
        12   4 -1.388789E-01 -5.798477E-03 -3.575386E-01  2.498320E-02 -1.359814E-16  9.024229E-15
        12   5 -3.497682E-02  1.886302E-03 -9.559445E-02  3.950096E-02  1.108440E-16  1.089193E-15
        12   6 -3.150571E-02  3.747587E-03 -8.722908E-02  4.289555E-02 -8.524832E-16  4.118300E-15
        12   7 -1.389231E-01 -5.800295E-03 -3.575005E-01  2.498095E-02  2.964753E-03  3.372962E-04
        12   8 -3.498926E-02  1.885720E-03 -9.558396E-02  3.950063E-02  8.274550E-04  5.336332E-04
        12   9 -3.151701E-02  3.747110E-03 -8.721937E-02  4.289327E-02  7.571566E-04  5.794818E-04
        13   1 -1.294264E-01  5.683776E-03 -4.101620E-01  1.121517E-02 -3.795480E-03 -1.511761E-04
        13   2 -6.019018E-02 -4.907447E-03 -1.688409E-01  3.433365E-02 -1.470121E-03 -4.637469E-04
        13   3 -9.112715E-02 -1.356952E-04 -3.719698E-01  1.048942E-02 -3.795126E-03 -1.413642E-04
        13   4 -1.293727E-01  5.684768E-03 -4.102123E-01  1.121725E-02 -2.649448E-16  3.793640E-17
        13   5 -6.016792E-02 -4.906422E-03 -1.688597E-01  3.433623E-02 -4.718145E-16  4.410167E-15
        13   6 -9.107710E-02 -1.362476E-04 -3.720217E-01  1.049143E-02 -5.553676E-16  2.847438E-16
        13   7 -1.294264E-01  5.683776E-03 -4.101620E-01  1.121517E-02  3.795480E-03  1.511761E-04
        13   8 -6.019018E-02 -4.907447E-03 -1.688409E-01  3.433365E-02  1.470121E-03  4.637469E-04
        13   9 -9.112715E-02 -1.356952E-04 -3.719698E-01  1.048942E-02  3.795126E-03  1.413642E-04
        14   1 -7.191402E-02 -5.513940E-03 -2.915088E-01  2.219852E-02 -2.970631E-03 -2.996717E-04
        14   2 -1.808624E-02  2.284396E-03 -7.778711E-02  3.329384E-02 -8.072715E-04 -4.496815E-04
        14   3 -1.617436E-02  3.839533E-03 -7.109306E-02  3.787681E-02 -7.442497E-04 -5.116519E-04
        14   4 -7.187595E-02 -5.514826E-03 -2.915498E-01  2.220132E-02  1.368279E-16 -2.137903E-18
        14   5 -1.807589E-02  2.284153E-03 -7.779827E-02  3.329716E-02  9.397355E-17  1.303162E-14
        14   6 -1.616473E-02  3.839353E-03 -7.110328E-02  3.787962E-02 -3.545256E-16  4.770123E-15
        14   7 -7.191402E-02 -5.513940E-03 -2.915088E-01  2.219852E-02  2.970631E-03  2.996717E-04
        14   8 -1.808624E-02  2.284396E-03 -7.778711E-02  3.329384E-02  8.072715E-04  4.496815E-04
        14   9 -1.617436E-02  3.839533E-03 -7.109306E-02  3.787681E-02  7.442497E-04  5.116519E-04
        15   1 -4.693461E-02  5.832723E-03 -3.306995E-01  1.090702E-02 -3.835410E-03 -1.470229E-04
        15   2 -2.852808E-02 -4.123349E-03 -1.373169E-01  3.131668E-02 -1.466124E-03 -4.229693E-04
        15   3 -1.735120E-02 -1.486340E-03 -2.992299E-01  7.299195E-03 -3.804614E-03 -9.827555E-05
        15   4 -4.687948E-02  5.834118E-03 -3.307500E-01  1.090809E-02  2.693792E-16 -4.380630E-15
        15   5 -2.850058E-02 -4.120085E-03 -1.373336E-01  3.131819E-02  1.493686E-16 -1.061385E-14
        15   6 -1.729941E-02 -1.486230E-03 -2.992813E-01  7.297352E-03 -4.955187E-17  8.927457E-16
        15   7 -4.693461E-02  5.832723E-03 -3.306995E-01  1.090702E-02  3.835410E-03  1.470229E-04
        15   8 -2.852808E-02 -4.123349E-03 -1.373169E-01  3.131668E-02  1.466124E-03  4.229693E-04
        15   9 -1.735120E-02 -1.486340E-03 -2.992299E-01  7.299195E-03  3.804614E-03  9.827555E-05
        16   1 -1.172943E-02 -3.569897E-03 -2.331169E-01  1.495512E-02 -2.988935E-03 -2.017504E-04
        16   2 -5.371349E-03  3.983949E-03 -6.291510E-02  2.927857E-02 -7.719812E-04 -3.953753E-04
        16   3 -9.179708E-03 -2.304405E-02 -6.721519E-02  2.959749E-02 -7.839169E-04 -3.997197E-04
        16   4 -1.169644E-02 -3.573101E-03 -2.331606E-01  1.495774E-02 -1.942222E-19 -3.424179E-15
        16   5 -5.362589E-03  3.983195E-03 -6.292637E-02  2.928451E-02  2.220968E-16  6.913147E-15
        16   6 -9.171296E-03 -2.304499E-02 -6.722674E-02  2.960054E-02 -4.166120E-16 -4.379792E-15
        16   7 -1.172943E-02 -3.569897E-03 -2.331169E-01  1.495512E-02  2.988935E-03  2.017504E-04
        16   8 -5.371349E-03  3.983949E-03 -6.291510E-02  2.927857E-02  7.719812E-04  3.953753E-04
        16   9 -9.179708E-03 -2.304405E-02 -6.721519E-02  2.959749E-02  7.839169E-04  3.997197E-04
        17   1  6.704381E-01  1.839683E+00  4.041989E-01  8.993991E-01 -2.628463E-03 -1.215941E-02
        17   2  2.153675E+00  3.081474E+00  1.909176E+00  1.121025E+00 -5.386000E-03 -1.515563E-02
        17   3  3.553164E-01 -7.255928E-02  1.241191E-01  5.166185E-01 -3.518026E-03 -6.983856E-03
        17   4  6.704418E-01  1.839664E+00  4.041310E-01  8.994899E-01 -6.815914E-16  1.705018E-14
        17   5  2.153738E+00  3.081482E+00  1.909139E+00  1.121147E+00  3.353602E-16  1.757029E-14
        17   6  3.553361E-01 -7.256895E-02  1.240672E-01  5.167207E-01  1.366813E-16 -2.189518E-15
        17   7  6.704381E-01  1.839683E+00  4.041989E-01  8.993991E-01  2.628463E-03  1.215941E-02
        17   8  2.153675E+00  3.081474E+00  1.909176E+00  1.121025E+00  5.386000E-03  1.515563E-02
        17   9  3.553164E-01 -7.255928E-02  1.241191E-01  5.166185E-01  3.518026E-03  6.983856E-03
        18   1  7.100378E-01  4.010358E-03  5.558003E-01  1.589033E-01 -2.714105E-03 -2.148161E-03
        18   2  2.235694E+00  3.204707E-01  1.959477E+00  7.381694E-01 -6.852627E-03 -9.979495E-03
        18   3  9.356729E-01 -5.178630E-02  1.369705E+00 -1.472440E-02  5.146476E-03  1.993589E-04
        18   4  7.101784E-01  4.058528E-03  5.558202E-01  1.589137E-01  7.508647E-16 -2.905992E-15
        18   5  2.235851E+00  3.205161E-01  1.959472E+00  7.382453E-01  1.110895E-15  9.352795E-15
        18   6  9.357107E-01 -5.173612E-02  1.369835E+00 -1.471741E-02 -1.438424E-15 -7.283504E-15
        18   7  7.100378E-01  4.010358E-03  5.558003E-01  1.589033E-01  2.714105E-03  2.148161E-03
        18   8  2.235694E+00  3.204707E-01  1.959477E+00  7.381694E-01  6.852627E-03  9.979495E-03
        18   9  9.356729E-01 -5.178630E-02  1.369705E+00 -1.472440E-02 -5.146476E-03 -1.993589E-04
        19   1  1.914310E-01 -5.520365E-02  1.950814E-01  2.304709E-01  5.651477E-05 -3.115670E-03
        19   2  8.286112E-01  3.221164E-03  9.781786E-01  8.440964E-02  1.809452E-03 -1.140840E-03
        19   3  2.036877E-01  5.462867E-03  2.137962E-01  1.383479E-01 -6.140389E-05 -1.869900E-03
        19   4  1.914132E-01 -5.521097E-02  1.950747E-01  2.304926E-01 -9.763354E-16 -8.870929E-15
        19   5  8.285299E-01  3.198028E-03  9.781828E-01  8.443051E-02  1.644061E-15  4.784369E-15
        19   6  2.036799E-01  5.460323E-03  2.137955E-01  1.383883E-01  6.707712E-17 -2.543361E-15
        19   7  1.914310E-01 -5.520365E-02  1.950814E-01  2.304709E-01 -5.651477E-05  3.115670E-03
        19   8  8.286112E-01  3.221164E-03  9.781786E-01  8.440964E-02 -1.809452E-03  1.140840E-03
        19   9  2.036877E-01  5.462867E-03  2.137962E-01  1.383479E-01  6.140389E-05  1.869900E-03
        20   1  3.097259E-01 -1.675452E-02  3.964498E-01  1.097760E-01  9.935256E-04 -1.483922E-03
        20   2  9.533876E-01  1.364521E-03  1.183733E+00  4.989183E-02  2.803171E-03 -6.744707E-04
        20   3  7.799244E-01  1.195440E-02  1.035151E+00  3.681713E-02  3.383503E-03 -4.974919E-04
        20   4  3.097736E-01 -1.672726E-02  3.964929E-01  1.097781E-01  3.914118E-16 -4.459068E-15
        20   5  9.533659E-01  1.373261E-03  1.183784E+00  4.987427E-02 -3.940508E-16 -1.188944E-14
        20   6  7.799028E-01  1.196517E-02  1.035208E+00  3.681735E-02  1.093843E-15 -4.378544E-15
        20   7  3.097259E-01 -1.675452E-02  3.964498E-01  1.097760E-01 -9.935256E-04  1.483922E-03
        20   8  9.533876E-01  1.364521E-03  1.183733E+00  4.989183E-02 -2.803171E-03  6.744707E-04
        20   9  7.799244E-01  1.195440E-02  1.035151E+00  3.681713E-02 -3.383503E-03  4.974919E-04
        21   1  1.372948E-01  5.571438E-03  1.821580E-01  1.178393E-01  5.986419E-04 -1.592820E-03
        21   2  5.331090E-01 -1.138347E-02  7.430258E-01  6.475145E-02  2.751006E-03 -8.750383E-04
        21   3  1.346689E-01  5.116908E-03  1.703884E-01  8.164340E-02  4.010517E-04 -1.103281E-03
        21   4  1.372775E-01  5.567548E-03  1.821623E-01  1.178524E-01 -8.704862E-16  4.336672E-15
        21   5  5.330367E-01 -1.139802E-02  7.430496E-01  6.476440E-02 -1.416636E-16  2.950561E-16
        21   6  1.346566E-01  5.114462E-03  1.703925E-01  8.166946E-02 -7.275932E-17 -2.189591E-15
        21   7  1.372948E-01  5.571438E-03  1.821580E-01  1.178393E-01 -5.986419E-04  1.592820E-03
        21   8  5.331090E-01 -1.138347E-02  7.430258E-01  6.475145E-02 -2.751006E-03  8.750383E-04
        21   9  1.346689E-01  5.116908E-03  1.703884E-01  8.164340E-02 -4.010517E-04  1.103281E-03
        22   1  2.109214E-01 -1.081216E-02  3.150891E-01  7.239151E-02  1.333000E-03 -9.784030E-04
        22   2  6.543894E-01  1.189546E-03  9.110966E-01  3.129624E-02  3.355967E-03 -4.229181E-04
        22   3  5.473224E-01  9.001662E-03  8.152784E-01  2.435530E-02  3.595970E-03 -3.289364E-04
        22   4  2.109421E-01 -1.079511E-02  3.151252E-01  7.239283E-02  2.736542E-16 -4.374244E-15
        22   5  6.543520E-01  1.193636E-03  9.111476E-01  3.128431E-02  4.009982E-16  3.274829E-15
        22   6  5.472887E-01  9.008224E-03  8.153340E-01  2.435541E-02 -2.136694E-18  4.380676E-15
        22   7  2.109214E-01 -1.081216E-02  3.150891E-01  7.239151E-02 -1.333000E-03  9.784030E-04
        22   8  6.543894E-01  1.189546E-03  9.110966E-01  3.129624E-02 -3.355967E-03  4.229181E-04
        22   9  5.473224E-01  9.001662E-03  8.152784E-01  2.435530E-02 -3.595970E-03  3.289364E-04
        23   1  9.772415E-02  5.754427E-03  1.486494E-01  7.952793E-02  6.855831E-04 -1.074810E-03
        23   2  3.752296E-01 -8.411460E-03  5.944651E-01  4.440265E-02  2.927151E-03 -5.998939E-04
        23   3  9.430382E-02  3.008285E-03  1.378083E-01  5.882081E-02  5.507445E-04 -7.947404E-04
        23   4  9.770896E-02  5.751910E-03  1.486562E-01  7.953652E-02 -4.996479E-16 -1.753905E-14
        23   5  3.751670E-01 -8.421084E-03  5.944956E-01  4.441122E-02  1.004740E-15  2.488754E-15
        23   6  9.429154E-02  3.006433E-03  1.378144E-01  5.883792E-02  2.462414E-16  1.061355E-15
        23   7  9.772415E-02  5.754427E-03  1.486494E-01  7.952793E-02 -6.855831E-04  1.074810E-03
        23   8  3.752296E-01 -8.411460E-03  5.944651E-01  4.440265E-02 -2.927151E-03  5.998939E-04
        23   9  9.430382E-02  3.008285E-03  1.378083E-01  5.882081E-02 -5.507445E-04  7.947404E-04
        24   1  1.480172E-01 -7.846653E-03  2.563102E-01  5.379657E-02  1.429809E-03 -7.269451E-04
        24   2  4.618445E-01  4.204235E-04  7.291444E-01  2.139030E-02  3.563119E-03 -2.888889E-04
        24   3  3.884254E-01  7.231688E-03  6.602385E-01  1.802792E-02  3.662991E-03 -2.433400E-04
        24   4  1.480223E-01 -7.835964E-03  2.563407E-01  5.379798E-02  1.059115E-16  1.220394E-15
        24   5  4.618006E-01  4.225172E-04  7.291953E-01  2.138309E-02 -2.534459E-16  2.182798E-15
        24   6  3.883855E-01  7.235884E-03  6.602923E-01  1.802846E-02  2.741941E-16  2.138022E-18
        24   7  1.480172E-01 -7.846653E-03  2.563102E-01  5.379657E-02 -1.429809E-03  7.269451E-04
        24   8  4.618445E-01  4.204235E-04  7.291444E-01  2.139030E-02 -3.563119E-03  2.888889E-04
        24   9  3.884254E-01  7.231688E-03  6.602385E-01  1.802792E-02 -3.662991E-03  2.433400E-04
        25   1  6.850965E-02  4.350454E-03  1.217811E-01  6.043835E-02  7.202029E-04 -8.166947E-04
        25   2  2.625129E-01 -6.862075E-03  4.844755E-01  3.390212E-02  2.986382E-03 -4.579082E-04
        25   3  6.578732E-02  2.384701E-03  1.129742E-01  4.601925E-02  6.215449E-04 -6.216840E-04
        25   4  6.849633E-02  4.348918E-03  1.217893E-01  6.044433E-02 -8.052266E-16 -1.099290E-17
        25   5  2.624585E-01 -6.867976E-03  4.845101E-01  3.390807E-02 -1.762175E-17 -6.087334E-15
        25   6  6.577582E-02  2.383471E-03  1.129815E-01  4.603013E-02  3.344995E-16  4.377394E-15
        25   7  6.850965E-02  4.350454E-03  1.217811E-01  6.043835E-02 -7.202029E-04  8.166947E-04
        25   8  2.625129E-01 -6.862075E-03  4.844755E-01  3.390212E-02 -2.986382E-03  4.579082E-04
        25   9  6.578732E-02  2.384701E-03  1.129742E-01  4.601925E-02 -6.215449E-04  6.216840E-04
        26   1  1.001690E-01 -6.182373E-03  2.102282E-01  4.284868E-02  1.473280E-03 -5.788949E-04
        26   2  3.231005E-01  1.796415E-04  5.944551E-01  1.635547E-02  3.645675E-03 -2.207462E-04
        26   3  2.670981E-01  6.035707E-03  5.407435E-01  1.432829E-02  3.694337E-03 -1.932887E-04
        26   4  1.001636E-01 -6.176101E-03  2.102546E-01  4.285043E-02  0.000000E+00  0.000000E+00
        26   5  3.230530E-01  1.805147E-04  5.945055E-01  1.635223E-02  8.303226E-16  9.295669E-15
        26   6  2.670544E-01  6.038418E-03  5.407963E-01  1.432936E-02  4.265358E-16  1.017752E-15
        26   7  1.001690E-01 -6.182373E-03  2.102282E-01  4.284868E-02 -1.473280E-03  5.788949E-04
        26   8  3.231005E-01  1.796415E-04  5.944551E-01  1.635547E-02 -3.645675E-03  2.207462E-04
        26   9  2.670981E-01  6.035707E-03  5.407435E-01  1.432829E-02 -3.694337E-03  1.932887E-04
        27   1  4.595685E-02  3.571200E-03  1.002440E-01  4.871288E-02  7.356148E-04 -6.581558E-04
        27   2  1.743107E-01 -5.793806E-03  3.973889E-01  2.740633E-02  3.013279E-03 -3.700780E-04
        27   3  4.363481E-02  1.902518E-03  9.283042E-02  3.783044E-02  6.602389E-04 -5.109963E-04
        27   4  4.594517E-02  3.570445E-03  1.002532E-01  4.871702E-02 -5.367585E-17 -9.633874E-15
        27   5  1.742632E-01 -5.796678E-03  3.974268E-01  2.741045E-02 -6.604768E-16  1.316049E-15
        27   6  4.362432E-02  1.901874E-03  9.283877E-02  3.783653E-02 -3.336598E-16  5.191751E-15
        27   7  4.595685E-02  3.571200E-03  1.002440E-01  4.871288E-02 -7.356148E-04  6.581558E-04
        27   8  1.743107E-01 -5.793806E-03  3.973889E-01  2.740633E-02 -3.013279E-03  3.700780E-04
        27   9  4.363481E-02  1.902518E-03  9.283042E-02  3.783044E-02 -6.602389E-04  5.109963E-04
        28   1  6.167092E-02 -5.099854E-03  1.724876E-01  3.559920E-02  1.494357E-03 -4.808626E-04
        28   2  2.140097E-01  8.524605E-05  4.875072E-01  1.327363E-02  3.689174E-03 -1.790297E-04
        28   3  1.686920E-01  4.976457E-03  4.434475E-01  1.200990E-02  3.712839E-03 -1.619266E-04
        28   4  6.165733E-02 -5.096996E-03  1.725107E-01  3.560137E-02  5.152125E-17  4.636267E-15
        28   5  2.139597E-01  8.523916E-05  4.875572E-01  1.327376E-02 -7.847499E-17 -3.287243E-15
        28   6  1.686456E-01  4.978086E-03  4.434994E-01  1.201151E-02  8.263669E-17 -4.634142E-15
        28   7  6.167092E-02 -5.099854E-03  1.724876E-01  3.559920E-02 -1.494357E-03  4.808626E-04
        28   8  2.140097E-01  8.524605E-05  4.875072E-01  1.327363E-02 -3.689174E-03  1.790297E-04
        28   9  1.686920E-01  4.976457E-03  4.434475E-01  1.200990E-02 -3.712839E-03  1.619266E-04
        29   1  2.742723E-02  3.286365E-03  8.237107E-02  4.079597E-02  7.453670E-04 -5.511199E-04
        29   2  1.021328E-01 -4.654322E-03  3.255883E-01  2.290642E-02  3.025037E-03 -3.092422E-04
        29   3  2.475026E-02  2.628141E-03  7.598592E-02  3.206404E-02  6.944767E-04 -4.330644E-04
        29   4  2.741686E-02  3.286224E-03  8.238097E-02  4.079871E-02 -1.897452E-16  4.423206E-15
        29   5  1.020910E-01 -4.654698E-03  3.256288E-01  2.290913E-02 -1.635724E-16  1.645808E-14
        29   6  2.474067E-02  2.628045E-03  7.599519E-02  3.206627E-02 -2.058971E-16 -1.723114E-14
        29   7  2.742723E-02  3.286365E-03  8.237107E-02  4.079597E-02 -7.453670E-04  5.511199E-04
        29   8  1.021328E-01 -4.654322E-03  3.255883E-01  2.290642E-02 -3.025037E-03  3.092422E-04
        29   9  2.475026E-02  2.628141E-03  7.598592E-02  3.206404E-02 -6.944767E-04  4.330644E-04
        30   1  2.747041E-02 -2.673227E-03  1.403779E-01  3.071596E-02  1.529320E-03 -4.148361E-04
        30   2  1.238385E-01 -4.934164E-05  3.987460E-01  1.095853E-02  3.716683E-03 -1.476980E-04
        30   3  8.810112E-02  6.768377E-03  3.629164E-01  7.550571E-03  3.716065E-03 -1.016310E-04
        30   4  2.745039E-02 -2.672962E-03  1.403988E-01  3.071842E-02  2.757953E-16  1.615567E-22
        30   5  1.237868E-01 -4.996166E-05  3.987956E-01  1.096143E-02 -6.223043E-16  1.848464E-14
        30   6  8.805273E-02  6.769169E-03  3.629674E-01  7.552534E-03  5.671733E-18 -3.983040E-15
        30   7  2.747041E-02 -2.673227E-03  1.403779E-01  3.071596E-02 -1.529320E-03  4.148361E-04
        30   8  1.238385E-01 -4.934164E-05  3.987460E-01  1.095853E-02 -3.716683E-03  1.476980E-04
        30   9  8.810112E-02  6.768377E-03  3.629164E-01  7.550571E-03 -3.716065E-03  1.016310E-04
        31   1  6.866935E-03  1.719400E-03  6.495219E-02  3.524547E-02  7.895158E-04 -4.760895E-04
        31   2  3.380600E-02 -6.840107E-03  2.611770E-01  1.832530E-02  3.083587E-03 -2.473172E-04
        31   3  9.233318E-03 -3.438927E-03  5.936779E-02  2.632292E-02  6.853770E-04 -3.554835E-04
        31   4  6.857788E-03  1.720031E-03  6.496344E-02  3.524690E-02 -9.218121E-17 -4.381604E-15
        31   5  3.376929E-02 -6.838026E-03  2.612206E-01  1.832681E-02  2.328165E-16 -7.751814E-16
        31   6  9.224777E-03 -3.438660E-03  5.937722E-02  2.632147E-02  1.364945E-16 -7.876640E-15
        31   7  6.866935E-03  1.719400E-03  6.495219E-02  3.524547E-02 -7.895158E-04  4.760895E-04
        31   8  3.380600E-02 -6.840107E-03  2.611770E-01  1.832530E-02 -3.083587E-03  2.473172E-04
        31   9  9.233318E-03 -3.438927E-03  5.936779E-02  2.632292E-02 -6.853770E-04  3.554835E-04
        32   1 -6.034936E-03 -5.072519E-02  9.626779E-02  2.954106E-02  1.392921E-03 -3.989624E-04
        32   2  5.737211E-02  3.045380E-02  3.349067E-01  7.788463E-03  3.761784E-03 -1.048324E-04
        32   3  2.279812E-02 -7.404476E-02  2.706619E-01  1.444954E-02  3.357279E-03 -1.949007E-04
        32   4 -6.058119E-03 -5.072711E-02  9.628457E-02  2.954323E-02 -3.776721E-16 -3.445717E-15
        32   5  5.732094E-02  3.045361E-02  3.349573E-01  7.792503E-03  3.891181E-16 -1.830498E-14
        32   6  2.275054E-02 -7.404573E-02  2.707062E-01  1.445303E-02 -2.747261E-16  4.378521E-15
        32   7 -6.034936E-03 -5.072519E-02  9.626779E-02  2.954106E-02 -1.392921E-03  3.989624E-04
        32   8  5.737211E-02  3.045380E-02  3.349067E-01  7.788463E-03 -3.761784E-03  1.048324E-04
        32   9  2.279812E-02 -7.404476E-02  2.706619E-01  1.444954E-02 -3.357279E-03  1.949007E-04
