
                        S T E P       1


                                INCREMENT     1


 displacements (vx,vy,vz) for set NALL and time  0.1000000E+01

         1  2.994565E-05  0.000000E+00  0.000000E+00
         2  2.994565E-05  9.539947E-06  0.000000E+00
         3  5.595161E-05  8.311437E-06  0.000000E+00
         4  5.595161E-05  1.228509E-06  0.000000E+00
         5  2.999064E-05  4.769973E-06  0.000000E+00
         6  3.985612E-05  9.016712E-06  0.000000E+00
         7  5.603440E-05  4.769973E-06  0.000000E+00
         8  3.985612E-05  5.232352E-07  0.000000E+00
         9  6.785460E-05  5.714525E-06  0.000000E+00
        10  6.785460E-05  3.825422E-06  0.000000E+00
        11  6.677830E-05  7.264055E-06  0.000000E+00
        12  6.804776E-05  4.769973E-06  0.000000E+00
        13  6.677830E-05  2.275892E-06  0.000000E+00

 stresses (elem, integ.pnt.,sxx,syy,szz,sxy,sxz,syz) for set EALL and time  0.1000000E+01

         1   1  2.155563E+01 -2.533122E-06  4.243890E+01 -1.199538E-05  2.188925E-01  2.018713E-07
         1   2  2.155563E+01 -2.531852E-06  4.243890E+01  1.199539E-05  2.188925E-01 -2.018713E-07
         1   3  2.438294E+01  1.514395E-06  2.968169E+01 -3.221113E-06  5.698757E-02  1.468813E-07
         1   4  2.438294E+01  1.512364E-06  2.968169E+01  3.221114E-06  5.698757E-02 -1.468813E-07
         1   5  2.155563E+01 -2.533122E-06  4.243890E+01 -1.199538E-05 -2.188925E-01 -2.018713E-07
         1   6  2.155563E+01 -2.531852E-06  4.243890E+01  1.199539E-05 -2.188925E-01  2.018713E-07
         1   7  2.438294E+01  1.514395E-06  2.968169E+01 -3.221113E-06 -5.698757E-02 -1.468813E-07
         1   8  2.438294E+01  1.512364E-06  2.968169E+01  3.221114E-06 -5.698757E-02  1.468813E-07
         2   1  1.855687E+01  3.202057E-09  2.568389E+01  2.549120E-06  6.762146E-02  1.347284E-07
         2   2  1.855687E+01  4.634515E-09  2.568389E+01 -2.549120E-06  6.762146E-02 -1.347284E-07
         2   3  5.619336E+00 -2.174458E-07  1.763083E+01  8.521308E-07  1.180180E-01  2.440573E-07
         2   4  5.619336E+00 -2.177194E-07  1.763083E+01 -8.521309E-07  1.180180E-01 -2.440573E-07
         2   5  1.855687E+01  3.202043E-09  2.568389E+01  2.549120E-06 -6.762146E-02 -1.347284E-07
         2   6  1.855687E+01  4.634522E-09  2.568389E+01 -2.549120E-06 -6.762146E-02  1.347284E-07
         2   7  5.619336E+00 -2.174458E-07  1.763083E+01  8.521308E-07 -1.180180E-01 -2.440573E-07
         2   8  5.619336E+00 -2.177194E-07  1.763083E+01 -8.521309E-07 -1.180180E-01  2.440573E-07
