
                        S T E P       1


                                INCREMENT     1


 stresses (elem, integ.pnt.,sxx,syy,szz,sxy,sxz,syz) for set EALL and time  0.1000000E+01

         1   1  1.594496E-02 -3.844509E-03  2.395088E-02 -3.449158E-05  1.143153E-04  4.701900E-07
         1   2  1.124892E-02 -6.188448E-03  2.083379E-02 -6.151312E-11  1.408924E-04  8.314021E-13
         1   3  1.594496E-02 -3.844509E-03  2.395088E-02  3.449156E-05  1.143153E-04 -4.701898E-07
         1   4  1.172864E-02  2.090739E-03  2.808752E-02 -5.608118E-04  2.309556E-04  7.583410E-06
         1   5  7.338480E-03  5.267352E-05  2.568413E-02 -8.028787E-11  2.602896E-04  1.085247E-12
         1   6  1.172864E-02  2.090739E-03  2.808752E-02  5.608117E-04  2.309556E-04 -7.583409E-06
         1   7  6.103195E-03  8.586355E-04  3.469256E-02 -1.087132E-03  3.894890E-04  1.469662E-05
         1   8  2.231834E-03 -6.606276E-04  3.349971E-02 -4.677519E-11  4.234991E-04  6.321632E-13
         1   9  6.103195E-03  8.586354E-04  3.469256E-02  1.087132E-03  3.894890E-04 -1.469662E-05
         1  10  1.594257E-02 -3.844906E-03  2.395194E-02 -3.415062E-05 -8.484968E-18 -7.516208E-20
         1  11  1.124637E-02 -6.188790E-03  2.083520E-02 -6.151714E-11  8.585183E-18 -7.047247E-33
         1  12  1.594257E-02 -3.844906E-03  2.395194E-02  3.415061E-05 -2.891236E-17  2.505403E-19
         1  13  1.172544E-02  2.090649E-03  2.809042E-02 -5.607339E-04  3.420711E-17 -4.259186E-18
         1  14  7.335175E-03  5.269466E-05  2.568751E-02 -8.029122E-11  3.422381E-17 -3.427684E-32
         1  15  1.172544E-02  2.090649E-03  2.809042E-02  5.607338E-04 -4.277460E-18  1.102378E-18
         1  16  6.098973E-03  8.590660E-04  3.469822E-02 -1.087317E-03  1.710356E-17  8.351114E-21
         1  17  2.227603E-03 -6.599910E-04  3.350606E-02 -4.677786E-11 -9.410297E-17  5.501405E-32
         1  18  6.098973E-03  8.590660E-04  3.469822E-02  1.087317E-03 -6.372077E-18 -3.774808E-18
         1  19  1.594496E-02 -3.844509E-03  2.395088E-02 -3.449158E-05 -1.143153E-04 -4.701900E-07
         1  20  1.124892E-02 -6.188448E-03  2.083379E-02 -6.151312E-11 -1.408924E-04 -8.314107E-13
         1  21  1.594496E-02 -3.844509E-03  2.395088E-02  3.449156E-05 -1.143153E-04  4.701898E-07
         1  22  1.172864E-02  2.090739E-03  2.808752E-02 -5.608118E-04 -2.309556E-04 -7.583410E-06
         1  23  7.338480E-03  5.267352E-05  2.568413E-02 -8.028787E-11 -2.602896E-04 -1.085247E-12
         1  24  1.172864E-02  2.090739E-03  2.808752E-02  5.608117E-04 -2.309556E-04  7.583409E-06
         1  25  6.103195E-03  8.586355E-04  3.469256E-02 -1.087132E-03 -3.894890E-04 -1.469662E-05
         1  26  2.231834E-03 -6.606276E-04  3.349971E-02 -4.677519E-11 -4.234991E-04 -6.321632E-13
         1  27  6.103195E-03  8.586354E-04  3.469256E-02  1.087132E-03 -3.894890E-04  1.469662E-05
         2   1  1.017101E+02 -5.083598E-01  8.307449E-05 -4.001354E+00  1.518917E-05 -2.921114E-06
         2   2  1.007026E+02 -8.103449E-01 -1.038100E-04 -3.011417E-07  1.519419E-05  1.842671E-10
         2   3  1.017101E+02 -5.083601E-01  8.307460E-05  4.001353E+00  1.519100E-05  2.921124E-06
         2   4  9.886956E+01  1.054757E+00 -1.038115E-04  3.329895E+00 -1.234961E-05 -2.926276E-06
         2   5  9.786227E+01  7.528059E-01  1.297947E-04 -2.648533E-07 -1.234465E-05 -9.709688E-11
         2   6  9.886956E+01  1.054757E+00 -1.038114E-04 -3.329895E+00 -1.235021E-05  2.926978E-06
         2   7  1.017034E+02  2.152485E+01  8.306650E-05  1.066279E+01 -3.988866E-05 -2.941710E-06
         2   8  1.006942E+02  2.121970E+01 -1.038047E-04 -3.839391E-07 -3.988475E-05  8.052684E-11
         2   9  1.017034E+02  2.152485E+01  8.306663E-05 -1.066279E+01 -3.988823E-05  2.941795E-06
         2  10  1.017101E+02 -5.083598E-01  8.307449E-05 -4.001354E+00 -2.177545E-10  3.577700E-09
         2  11  1.007026E+02 -8.103449E-01 -1.038100E-04 -3.011417E-07  1.466389E-09 -2.139664E-11
         2  12  1.017101E+02 -5.083601E-01  8.307460E-05  4.001353E+00  3.236182E-10 -3.598059E-09
         2  13  9.886956E+01  1.054757E+00 -1.038115E-04  3.329895E+00  6.012055E-10  1.745605E-09
         2  14  9.786227E+01  7.528059E-01  1.297947E-04 -2.648533E-07  1.646429E-09 -5.349358E-11
         2  15  9.886956E+01  1.054757E+00 -1.038114E-04 -3.329895E+00  8.524430E-10 -1.879488E-09
         2  16  1.017034E+02  2.152485E+01  8.306650E-05  1.066279E+01  7.019391E-10 -2.236379E-11
         2  17  1.006942E+02  2.121970E+01 -1.038047E-04 -3.839391E-07  1.682816E-09 -2.140248E-11
         2  18  1.017034E+02  2.152485E+01  8.306663E-05 -1.066279E+01  3.939075E-10 -2.934595E-11
         2  19  1.017101E+02 -5.083598E-01  8.307449E-05 -4.001354E+00 -1.519047E-05  2.927982E-06
         2  20  1.007026E+02 -8.103449E-01 -1.038100E-04 -3.011417E-07 -1.519126E-05 -2.270603E-10
         2  21  1.017101E+02 -5.083601E-01  8.307460E-05  4.001353E+00 -1.518745E-05 -2.928365E-06
         2  22  9.886956E+01  1.054757E+00 -1.038115E-04  3.329895E+00  1.235081E-05  2.929910E-06
         2  23  9.786227E+01  7.528059E-01  1.297947E-04 -2.648533E-07  1.234650E-05 -8.158471E-11
         2  24  9.886956E+01  1.054757E+00 -1.038114E-04 -3.329895E+00  1.235256E-05 -2.930540E-06
         2  25  1.017034E+02  2.152485E+01  8.306650E-05  1.066279E+01  3.989036E-05  2.941666E-06
         2  26  1.006942E+02  2.121970E+01 -1.038047E-04 -3.839391E-07  3.988754E-05 -1.054062E-10
         2  27  1.017034E+02  2.152485E+01  8.306663E-05 -1.066279E+01  3.988966E-05 -2.941836E-06

 strains (elem, integ.pnt.,exx,eyy,ezz,exy,exz,eyz) for set EALL and time  0.1000000E+01

         1   1  4.720499E-08 -7.530123E-08  9.676543E-08 -2.135250E-10  7.076656E-10  2.910775E-12
         1   2  3.264438E-08 -7.530124E-08  9.197925E-08 -3.807939E-16  8.721907E-10  5.146755E-18
         1   3  4.720499E-08 -7.530124E-08  9.676543E-08  2.135249E-10  7.076657E-10 -2.910774E-12
         1   4  1.273890E-08 -4.692433E-08  1.140081E-07 -3.471693E-09  1.429725E-09  4.694493E-11
         1   5 -1.821716E-09 -4.692433E-08  1.117466E-07 -4.970195E-16  1.611316E-09  6.718191E-18
         1   6  1.273889E-08 -4.692433E-08  1.140081E-07  3.471693E-09  1.429725E-09 -4.694492E-11
         1   7 -2.172457E-08 -5.419090E-08  1.552571E-07 -6.729863E-09  2.411121E-09  9.097910E-11
         1   8 -3.628518E-08 -5.419090E-08  1.572778E-07 -2.895605E-16  2.621660E-09  3.913388E-18
         1   9 -2.172457E-08 -5.419090E-08  1.552572E-07  6.729862E-09  2.411122E-09 -9.097910E-11
         1  10  4.719265E-08 -7.530123E-08  9.677449E-08 -2.114143E-10 -5.252597E-23 -4.652867E-25
         1  11  3.263071E-08 -7.530124E-08  9.199009E-08 -3.808188E-16  5.314636E-23  7.654089E-37
         1  12  4.719265E-08 -7.530124E-08  9.677449E-08  2.114142E-10 -1.789812E-22  1.550955E-24
         1  13  1.271964E-08 -4.692433E-08  1.140266E-07 -3.471211E-09  2.117582E-22 -2.636638E-23
         1  14 -1.842304E-09 -4.692433E-08  1.117673E-07 -4.970402E-16  2.118616E-22  3.029787E-36
         1  15  1.271964E-08 -4.692433E-08  1.140266E-07  3.471210E-09 -2.647951E-23  6.824239E-24
         1  16 -2.175337E-08 -5.419090E-08  1.552895E-07 -6.731009E-09  1.058791E-22  5.170003E-26
         1  17 -3.631532E-08 -5.419090E-08  1.573132E-07 -2.895770E-16 -5.825419E-22 -8.621316E-36
         1  18 -2.175338E-08 -5.419090E-08  1.552895E-07  6.731008E-09 -3.944618E-23 -2.336785E-23
         1  19  4.720499E-08 -7.530123E-08  9.676543E-08 -2.135250E-10 -7.076656E-10 -2.910775E-12
         1  20  3.264438E-08 -7.530124E-08  9.197925E-08 -3.807939E-16 -8.721907E-10 -5.146808E-18
         1  21  4.720499E-08 -7.530124E-08  9.676543E-08  2.135249E-10 -7.076657E-10  2.910774E-12
         1  22  1.273890E-08 -4.692433E-08  1.140081E-07 -3.471693E-09 -1.429725E-09 -4.694493E-11
         1  23 -1.821716E-09 -4.692433E-08  1.117466E-07 -4.970195E-16 -1.611316E-09 -6.718191E-18
         1  24  1.273889E-08 -4.692433E-08  1.140081E-07  3.471693E-09 -1.429725E-09  4.694492E-11
         1  25 -2.172457E-08 -5.419090E-08  1.552571E-07 -6.729863E-09 -2.411121E-09 -9.097910E-11
         1  26 -3.628518E-08 -5.419090E-08  1.572778E-07 -2.895605E-16 -2.621660E-09 -3.913388E-18
         1  27 -2.172457E-08 -5.419090E-08  1.552572E-07  6.729862E-09 -2.411122E-09  9.097910E-11
         2   1  4.846840E-04 -1.476104E-04 -1.444599E-04 -2.474822E-05  9.389485E-11 -1.808454E-11
         2   2  4.803252E-04 -1.476106E-04 -1.425923E-04 -1.853806E-12  9.392831E-11  1.141249E-15
         2   3  4.846841E-04 -1.476104E-04 -1.444599E-04  2.474822E-05  9.390616E-11  1.808460E-11
         2   4  4.689491E-04 -1.361133E-04 -1.426443E-04  2.057867E-05 -7.634560E-11 -1.811614E-11
         2   5  4.645894E-04 -1.361134E-04 -1.407750E-04 -1.632391E-12 -7.631642E-11 -6.013532E-16
         2   6  4.689491E-04 -1.361133E-04 -1.426443E-04 -2.057867E-05 -7.634932E-11  1.812049E-11
         2   7  4.532211E-04 -4.267473E-05 -1.759482E-04  6.591188E-05 -2.466066E-10 -1.814829E-11
         2   8  4.488538E-04 -4.267474E-05 -1.740771E-04 -2.372337E-12 -2.465878E-10  4.987515E-16
         2   9  4.532212E-04 -4.267473E-05 -1.759482E-04 -6.591188E-05 -2.466038E-10  1.814882E-11
         2  10  4.846840E-04 -1.476104E-04 -1.444599E-04 -2.474822E-05 -1.350157E-15  2.215865E-14
         2  11  4.803252E-04 -1.476106E-04 -1.425923E-04 -1.853806E-12  9.065012E-15 -1.325203E-16
         2  12  4.846841E-04 -1.476104E-04 -1.444599E-04  2.474822E-05  1.999718E-15 -2.228488E-14
         2  13  4.689491E-04 -1.361133E-04 -1.426443E-04  2.057867E-05  3.716372E-15  1.081071E-14
         2  14  4.645894E-04 -1.361134E-04 -1.407750E-04 -1.632391E-12  1.017954E-14 -3.313015E-16
         2  15  4.689491E-04 -1.361133E-04 -1.426443E-04 -2.057867E-05  5.271422E-15 -1.163980E-14
         2  16  4.532211E-04 -4.267473E-05 -1.759482E-04  6.591188E-05  4.339707E-15 -1.396244E-16
         2  17  4.488538E-04 -4.267474E-05 -1.740771E-04 -2.372337E-12  1.040513E-14 -1.325162E-16
         2  18  4.532212E-04 -4.267473E-05 -1.759482E-04 -6.591188E-05  2.433893E-15 -1.809191E-16
         2  19  4.846840E-04 -1.476104E-04 -1.444599E-04 -2.474822E-05 -9.390288E-11  1.812708E-11
         2  20  4.803252E-04 -1.476106E-04 -1.425923E-04 -1.853806E-12 -9.391018E-11 -1.406290E-15
         2  21  4.846841E-04 -1.476104E-04 -1.444599E-04  2.474822E-05 -9.388416E-11 -1.812945E-11
         2  22  4.689491E-04 -1.361133E-04 -1.426443E-04  2.057867E-05  7.635303E-11  1.813865E-11
         2  23  4.645894E-04 -1.361134E-04 -1.407750E-04 -1.632391E-12  7.632789E-11 -5.052785E-16
         2  24  4.689491E-04 -1.361133E-04 -1.426443E-04 -2.057867E-05  7.636386E-11 -1.814255E-11
         2  25  4.532211E-04 -4.267473E-05 -1.759482E-04  6.591188E-05  2.466170E-10  1.814801E-11
         2  26  4.488538E-04 -4.267474E-05 -1.740771E-04 -2.372337E-12  2.466050E-10 -6.527663E-16
         2  27  4.532212E-04 -4.267473E-05 -1.759482E-04 -6.591188E-05  2.466127E-10 -1.814907E-11
