
                        S T E P       1


                                INCREMENT     1


 stresses (elem, integ.pnt.,sxx,syy,szz,sxy,sxz,syz) for set EALL and time  0.1000000E+01

         1   1 -6.276549E+00 -3.622989E+00  2.099897E+03  4.184366E+00  1.600000E+01  1.046092E+00
         1   2  6.276549E+00  2.566757E+01  2.112450E+03 -4.184366E+00  1.600000E+01  1.046092E+00
         1   3 -6.276549E+00 -3.622989E+00  2.099897E+03 -4.184366E+00  1.600000E+01 -1.046092E+00
         1   4  6.276549E+00  2.566757E+01  2.112450E+03  4.184366E+00  1.600000E+01 -1.046092E+00
         1   5  6.276549E+00  3.622989E+00 -2.099897E+03  4.184366E+00  1.600000E+01 -1.046092E+00
         1   6 -6.276549E+00 -2.566757E+01 -2.112450E+03 -4.184366E+00  1.600000E+01 -1.046092E+00
         1   7  6.276549E+00  3.622989E+00 -2.099897E+03 -4.184366E+00  1.600000E+01  1.046092E+00
         1   8 -6.276549E+00 -2.566757E+01 -2.112450E+03  4.184366E+00  1.600000E+01  1.046092E+00
         2   1 -1.171665E+01 -2.880774E+01  1.872755E+03  7.811099E+00  1.600000E+01  1.952775E+00
         2   2  1.171665E+01  2.586995E+01  1.896188E+03 -7.811099E+00  1.600000E+01  1.952775E+00
         2   3 -1.171665E+01 -2.880774E+01  1.872755E+03 -7.811099E+00  1.600000E+01 -1.952775E+00
         2   4  1.171665E+01  2.586995E+01  1.896188E+03  7.811099E+00  1.600000E+01 -1.952775E+00
         2   5  1.171665E+01  2.880774E+01 -1.872755E+03  7.811099E+00  1.600000E+01 -1.952775E+00
         2   6 -1.171665E+01 -2.586995E+01 -1.896188E+03 -7.811099E+00  1.600000E+01 -1.952775E+00
         2   7  1.171665E+01  2.880774E+01 -1.872755E+03 -7.811099E+00  1.600000E+01  1.952775E+00
         2   8 -1.171665E+01 -2.586995E+01 -1.896188E+03  7.811099E+00  1.600000E+01  1.952775E+00
         3   1 -1.099167E+01 -2.545148E+01  1.651777E+03  7.327782E+00  1.600000E+01  1.831946E+00
         3   2  1.099167E+01  2.584300E+01  1.673760E+03 -7.327782E+00  1.600000E+01  1.831946E+00
         3   3 -1.099167E+01 -2.545148E+01  1.651777E+03 -7.327782E+00  1.600000E+01 -1.831946E+00
         3   4  1.099167E+01  2.584300E+01  1.673760E+03  7.327782E+00  1.600000E+01 -1.831946E+00
         3   5  1.099167E+01  2.545148E+01 -1.651777E+03  7.327782E+00  1.600000E+01 -1.831946E+00
         3   6 -1.099167E+01 -2.584300E+01 -1.673760E+03 -7.327782E+00  1.600000E+01 -1.831946E+00
         3   7  1.099167E+01  2.545148E+01 -1.651777E+03 -7.327782E+00  1.600000E+01  1.831946E+00
         3   8 -1.099167E+01 -2.584300E+01 -1.673760E+03  7.327782E+00  1.600000E+01  1.831946E+00
         4   1 -1.108826E+01 -2.589875E+01  1.429978E+03  7.392172E+00  1.600000E+01  1.848043E+00
         4   2  1.108826E+01  2.584645E+01  1.452155E+03 -7.392172E+00  1.600000E+01  1.848043E+00
         4   3 -1.108826E+01 -2.589875E+01  1.429978E+03 -7.392172E+00  1.600000E+01 -1.848043E+00
         4   4  1.108826E+01  2.584645E+01  1.452155E+03  7.392172E+00  1.600000E+01 -1.848043E+00
         4   5  1.108826E+01  2.589875E+01 -1.429978E+03  7.392172E+00  1.600000E+01 -1.848043E+00
         4   6 -1.108826E+01 -2.584645E+01 -1.452155E+03 -7.392172E+00  1.600000E+01 -1.848043E+00
         4   7  1.108826E+01  2.589875E+01 -1.429978E+03 -7.392172E+00  1.600000E+01  1.848043E+00
         4   8 -1.108826E+01 -2.584645E+01 -1.452155E+03  7.392172E+00  1.600000E+01  1.848043E+00
         5   1 -1.107561E+01 -2.583915E+01  1.208288E+03  7.383741E+00  1.600000E+01  1.845935E+00
         5   2  1.107561E+01  2.584703E+01  1.230439E+03 -7.383741E+00  1.600000E+01  1.845935E+00
         5   3 -1.107561E+01 -2.583915E+01  1.208288E+03 -7.383741E+00  1.600000E+01 -1.845935E+00
         5   4  1.107561E+01  2.584703E+01  1.230439E+03  7.383741E+00  1.600000E+01 -1.845935E+00
         5   5  1.107561E+01  2.583915E+01 -1.208288E+03  7.383741E+00  1.600000E+01 -1.845935E+00
         5   6 -1.107561E+01 -2.584703E+01 -1.230439E+03 -7.383741E+00  1.600000E+01 -1.845935E+00
         5   7  1.107561E+01  2.583915E+01 -1.208288E+03 -7.383741E+00  1.600000E+01  1.845935E+00
         5   8 -1.107561E+01 -2.584703E+01 -1.230439E+03  7.383741E+00  1.600000E+01  1.845935E+00
         6   1 -1.107561E+01 -2.584703E+01  9.865857E+02  7.383741E+00  1.600000E+01  1.845935E+00
         6   2  1.107561E+01  2.583915E+01  1.008737E+03 -7.383741E+00  1.600000E+01  1.845935E+00
         6   3 -1.107561E+01 -2.584703E+01  9.865857E+02 -7.383741E+00  1.600000E+01 -1.845935E+00
         6   4  1.107561E+01  2.583915E+01  1.008737E+03  7.383741E+00  1.600000E+01 -1.845935E+00
         6   5  1.107561E+01  2.584703E+01 -9.865857E+02  7.383741E+00  1.600000E+01 -1.845935E+00
         6   6 -1.107561E+01 -2.583915E+01 -1.008737E+03 -7.383741E+00  1.600000E+01 -1.845935E+00
         6   7  1.107561E+01  2.584703E+01 -9.865857E+02 -7.383741E+00  1.600000E+01  1.845935E+00
         6   8 -1.107561E+01 -2.583915E+01 -1.008737E+03  7.383741E+00  1.600000E+01  1.845935E+00
         7   1 -1.108826E+01 -2.584645E+01  7.648705E+02  7.392172E+00  1.600000E+01  1.848043E+00
         7   2  1.108826E+01  2.589875E+01  7.870470E+02 -7.392172E+00  1.600000E+01  1.848043E+00
         7   3 -1.108826E+01 -2.584645E+01  7.648705E+02 -7.392172E+00  1.600000E+01 -1.848043E+00
         7   4  1.108826E+01  2.589875E+01  7.870470E+02  7.392172E+00  1.600000E+01 -1.848043E+00
         7   5  1.108826E+01  2.584645E+01 -7.648705E+02  7.392172E+00  1.600000E+01 -1.848043E+00
         7   6 -1.108826E+01 -2.589875E+01 -7.870470E+02 -7.392172E+00  1.600000E+01 -1.848043E+00
         7   7  1.108826E+01  2.584645E+01 -7.648705E+02 -7.392172E+00  1.600000E+01  1.848043E+00
         7   8 -1.108826E+01 -2.589875E+01 -7.870470E+02  7.392172E+00  1.600000E+01  1.848043E+00
         8   1 -1.099167E+01 -2.584300E+01  5.432646E+02  7.327782E+00  1.600000E+01  1.831946E+00
         8   2  1.099167E+01  2.545148E+01  5.652479E+02 -7.327782E+00  1.600000E+01  1.831946E+00
         8   3 -1.099167E+01 -2.584300E+01  5.432646E+02 -7.327782E+00  1.600000E+01 -1.831946E+00
         8   4  1.099167E+01  2.545148E+01  5.652479E+02  7.327782E+00  1.600000E+01 -1.831946E+00
         8   5  1.099167E+01  2.584300E+01 -5.432646E+02  7.327782E+00  1.600000E+01 -1.831946E+00
         8   6 -1.099167E+01 -2.545148E+01 -5.652479E+02 -7.327782E+00  1.600000E+01 -1.831946E+00
         8   7  1.099167E+01  2.584300E+01 -5.432646E+02 -7.327782E+00  1.600000E+01  1.831946E+00
         8   8 -1.099167E+01 -2.545148E+01 -5.652479E+02  7.327782E+00  1.600000E+01  1.831946E+00
         9   1 -1.171665E+01 -2.586995E+01  3.208371E+02  7.811099E+00  1.600000E+01  1.952775E+00
         9   2  1.171665E+01  2.880774E+01  3.442704E+02 -7.811099E+00  1.600000E+01  1.952775E+00
         9   3 -1.171665E+01 -2.586995E+01  3.208371E+02 -7.811099E+00  1.600000E+01 -1.952775E+00
         9   4  1.171665E+01  2.880774E+01  3.442704E+02  7.811099E+00  1.600000E+01 -1.952775E+00
         9   5  1.171665E+01  2.586995E+01 -3.208371E+02  7.811099E+00  1.600000E+01 -1.952775E+00
         9   6 -1.171665E+01 -2.880774E+01 -3.442704E+02 -7.811099E+00  1.600000E+01 -1.952775E+00
         9   7  1.171665E+01  2.586995E+01 -3.208371E+02 -7.811099E+00  1.600000E+01  1.952775E+00
         9   8 -1.171665E+01 -2.880774E+01 -3.442704E+02  7.811099E+00  1.600000E+01  1.952775E+00
        10   1 -6.276549E+00 -2.566757E+01  1.045747E+02  4.184366E+00  1.600000E+01  1.046092E+00
        10   2  6.276549E+00  3.622989E+00  1.171278E+02 -4.184366E+00  1.600000E+01  1.046092E+00
        10   3 -6.276549E+00 -2.566757E+01  1.045747E+02 -4.184366E+00  1.600000E+01 -1.046092E+00
        10   4  6.276549E+00  3.622989E+00  1.171278E+02  4.184366E+00  1.600000E+01 -1.046092E+00
        10   5  6.276549E+00  2.566757E+01 -1.045747E+02  4.184366E+00  1.600000E+01 -1.046092E+00
        10   6 -6.276549E+00 -3.622989E+00 -1.171278E+02 -4.184366E+00  1.600000E+01 -1.046092E+00
        10   7  6.276549E+00  2.566757E+01 -1.045747E+02 -4.184366E+00  1.600000E+01  1.046092E+00
        10   8 -6.276549E+00 -3.622989E+00 -1.171278E+02  4.184366E+00  1.600000E+01  1.046092E+00
