
                        S T E P       1


                                INCREMENT     1


 stresses (elem, integ.pnt.,sxx,syy,szz,sxy,sxz,syz) for set EALL and time  0.1000000E+01

         1   1 -6.276551E+00 -3.622990E+00  2.099897E+03  4.184367E+00  1.600000E+01  1.046092E+00
         1   2  6.276551E+00  2.566758E+01  2.112450E+03 -4.184367E+00  1.600000E+01  1.046092E+00
         1   3 -6.276551E+00 -3.622990E+00  2.099897E+03 -4.184367E+00  1.600000E+01 -1.046092E+00
         1   4  6.276551E+00  2.566758E+01  2.112450E+03  4.184367E+00  1.600000E+01 -1.046092E+00
         1   5  6.276551E+00  3.622990E+00 -2.099897E+03  4.184367E+00  1.600000E+01 -1.046092E+00
         1   6 -6.276551E+00 -2.566758E+01 -2.112450E+03 -4.184367E+00  1.600000E+01 -1.046092E+00
         1   7  6.276551E+00  3.622990E+00 -2.099897E+03 -4.184367E+00  1.600000E+01  1.046092E+00
         1   8 -6.276551E+00 -2.566758E+01 -2.112450E+03  4.184367E+00  1.600000E+01  1.046092E+00
         2   1 -1.171664E+01 -2.880774E+01  1.872755E+03  7.811093E+00  1.600000E+01  1.952773E+00
         2   2  1.171664E+01  2.586991E+01  1.896188E+03 -7.811093E+00  1.600000E+01  1.952773E+00
         2   3 -1.171664E+01 -2.880774E+01  1.872755E+03 -7.811093E+00  1.600000E+01 -1.952773E+00
         2   4  1.171664E+01  2.586991E+01  1.896188E+03  7.811093E+00  1.600000E+01 -1.952773E+00
         2   5  1.171664E+01  2.880774E+01 -1.872755E+03  7.811093E+00  1.600000E+01 -1.952773E+00
         2   6 -1.171664E+01 -2.586991E+01 -1.896188E+03 -7.811093E+00  1.600000E+01 -1.952773E+00
         2   7  1.171664E+01  2.880774E+01 -1.872755E+03 -7.811093E+00  1.600000E+01  1.952773E+00
         2   8 -1.171664E+01 -2.586991E+01 -1.896188E+03  7.811093E+00  1.600000E+01  1.952773E+00
         3   1 -1.099174E+01 -2.545148E+01  1.651777E+03  7.327827E+00  1.600000E+01  1.831957E+00
         3   2  1.099174E+01  2.584331E+01  1.673761E+03 -7.327827E+00  1.600000E+01  1.831957E+00
         3   3 -1.099174E+01 -2.545148E+01  1.651777E+03 -7.327827E+00  1.600000E+01 -1.831957E+00
         3   4  1.099174E+01  2.584331E+01  1.673761E+03  7.327827E+00  1.600000E+01 -1.831957E+00
         3   5  1.099174E+01  2.545148E+01 -1.651777E+03  7.327827E+00  1.600000E+01 -1.831957E+00
         3   6 -1.099174E+01 -2.584331E+01 -1.673761E+03 -7.327827E+00  1.600000E+01 -1.831957E+00
         3   7  1.099174E+01  2.545148E+01 -1.651777E+03 -7.327827E+00  1.600000E+01  1.831957E+00
         3   8 -1.099174E+01 -2.584331E+01 -1.673761E+03  7.327827E+00  1.600000E+01  1.831957E+00
         4   1 -1.108776E+01 -2.589873E+01  1.429979E+03  7.391838E+00  1.600000E+01  1.847959E+00
         4   2  1.108776E+01  2.584413E+01  1.452154E+03 -7.391838E+00  1.600000E+01  1.847959E+00
         4   3 -1.108776E+01 -2.589873E+01  1.429979E+03 -7.391838E+00  1.600000E+01 -1.847959E+00
         4   4  1.108776E+01  2.584413E+01  1.452154E+03  7.391838E+00  1.600000E+01 -1.847959E+00
         4   5  1.108776E+01  2.589873E+01 -1.429979E+03  7.391838E+00  1.600000E+01 -1.847959E+00
         4   6 -1.108776E+01 -2.584413E+01 -1.452154E+03 -7.391838E+00  1.600000E+01 -1.847959E+00
         4   7  1.108776E+01  2.589873E+01 -1.429979E+03 -7.391838E+00  1.600000E+01  1.847959E+00
         4   8 -1.108776E+01 -2.584413E+01 -1.452154E+03  7.391838E+00  1.600000E+01  1.847959E+00
         5   1 -1.107937E+01 -2.583929E+01  1.208284E+03  7.386246E+00  1.600000E+01  1.846561E+00
         5   2  1.107937E+01  2.586443E+01  1.230443E+03 -7.386246E+00  1.600000E+01  1.846561E+00
         5   3 -1.107937E+01 -2.583929E+01  1.208284E+03 -7.386246E+00  1.600000E+01 -1.846561E+00
         5   4  1.107937E+01  2.586443E+01  1.230443E+03  7.386246E+00  1.600000E+01 -1.846561E+00
         5   5  1.107937E+01  2.583929E+01 -1.208284E+03  7.386246E+00  1.600000E+01 -1.846561E+00
         5   6 -1.107937E+01 -2.586443E+01 -1.230443E+03 -7.386246E+00  1.600000E+01 -1.846561E+00
         5   7  1.107937E+01  2.583929E+01 -1.208284E+03 -7.386246E+00  1.600000E+01  1.846561E+00
         5   8 -1.107937E+01 -2.586443E+01 -1.230443E+03  7.386246E+00  1.600000E+01  1.846561E+00
         6   1 -1.104741E+01 -2.584598E+01  9.866139E+02  7.364943E+00  1.600000E+01  1.841236E+00
         6   2  1.104741E+01  2.570862E+01  1.008709E+03 -7.364943E+00  1.600000E+01  1.841236E+00
         6   3 -1.104741E+01 -2.584598E+01  9.866139E+02 -7.364943E+00  1.600000E+01 -1.841236E+00
         6   4  1.104741E+01  2.570862E+01  1.008709E+03  7.364943E+00  1.600000E+01 -1.841236E+00
         6   5  1.104741E+01  2.584598E+01 -9.866139E+02  7.364943E+00  1.600000E+01 -1.841236E+00
         6   6 -1.104741E+01 -2.570862E+01 -1.008709E+03 -7.364943E+00  1.600000E+01 -1.841236E+00
         6   7  1.104741E+01  2.584598E+01 -9.866139E+02 -7.364943E+00  1.600000E+01  1.841236E+00
         6   8 -1.104741E+01 -2.570862E+01 -1.008709E+03  7.364943E+00  1.600000E+01  1.841236E+00
         7   1 -1.129984E+01 -2.585432E+01  7.646589E+02  7.533224E+00  1.600000E+01  1.883306E+00
         7   2  1.129984E+01  2.687825E+01  7.872586E+02 -7.533224E+00  1.600000E+01  1.883306E+00
         7   3 -1.129984E+01 -2.585432E+01  7.646589E+02 -7.533224E+00  1.600000E+01 -1.883306E+00
         7   4  1.129984E+01  2.687825E+01  7.872586E+02  7.533224E+00  1.600000E+01 -1.883306E+00
         7   5  1.129984E+01  2.585432E+01 -7.646589E+02  7.533224E+00  1.600000E+01 -1.883306E+00
         7   6 -1.129984E+01 -2.687825E+01 -7.872586E+02 -7.533224E+00  1.600000E+01 -1.883306E+00
         7   7  1.129984E+01  2.585432E+01 -7.646589E+02 -7.533224E+00  1.600000E+01  1.883306E+00
         7   8 -1.129984E+01 -2.687825E+01 -7.872586E+02  7.533224E+00  1.600000E+01  1.883306E+00
         8   1 -9.404028E+00 -2.578394E+01  5.448522E+02  6.269352E+00  1.600000E+01  1.567338E+00
         8   2  9.404028E+00  1.810153E+01  5.636603E+02 -6.269352E+00  1.600000E+01  1.567338E+00
         8   3 -9.404028E+00 -2.578394E+01  5.448522E+02 -6.269352E+00  1.600000E+01 -1.567338E+00
         8   4  9.404028E+00  1.810153E+01  5.636603E+02  6.269352E+00  1.600000E+01 -1.567338E+00
         8   5  9.404028E+00  2.578394E+01 -5.448522E+02  6.269352E+00  1.600000E+01 -1.567338E+00
         8   6 -9.404028E+00 -1.810153E+01 -5.636603E+02 -6.269352E+00  1.600000E+01 -1.567338E+00
         8   7  9.404028E+00  2.578394E+01 -5.448522E+02 -6.269352E+00  1.600000E+01  1.567338E+00
         8   8 -9.404028E+00 -1.810153E+01 -5.636603E+02  6.269352E+00  1.600000E+01  1.567338E+00
         9   1 -2.363002E+01 -2.631314E+01  3.089237E+02  1.575335E+01  1.600000E+01  3.938337E+00
         9   2  2.363002E+01  8.396029E+01  3.561838E+02 -1.575335E+01  1.600000E+01  3.938337E+00
         9   3 -2.363002E+01 -2.631314E+01  3.089237E+02 -1.575335E+01  1.600000E+01 -3.938337E+00
         9   4  2.363002E+01  8.396029E+01  3.561838E+02  1.575335E+01  1.600000E+01 -3.938337E+00
         9   5  2.363002E+01  2.631314E+01 -3.089237E+02  1.575335E+01  1.600000E+01 -3.938337E+00
         9   6 -2.363002E+01 -8.396029E+01 -3.561838E+02 -1.575335E+01  1.600000E+01 -3.938337E+00
         9   7  2.363002E+01  2.631314E+01 -3.089237E+02 -1.575335E+01  1.600000E+01  3.938337E+00
         9   8 -2.363002E+01 -8.396029E+01 -3.561838E+02  1.575335E+01  1.600000E+01  3.938337E+00
