
                        S T E P       1


                                INCREMENT     1


 stresses (elem, integ.pnt.,sxx,syy,szz,sxy,sxz,syz) for set E1 and time  0.1000000E-01

        32   1 -9.503509E-14 -1.092459E-13  2.625000E+01  1.094627E-14 -2.456070E-14 -6.335155E-14
        32   2  8.881784E-16 -2.220446E-14  2.625000E+01  6.430935E-15 -6.896151E-14 -7.121918E-14
        32   3 -1.136868E-13 -1.003642E-13  2.625000E+01  1.395650E-14  3.502807E-14 -9.304331E-15
        32   4 -1.776357E-14  2.664535E-15  2.625000E+01 -1.299870E-15  5.459453E-14 -1.204090E-14
        32   5 -7.016610E-14 -8.792966E-14  2.625000E+01 -1.272504E-14  3.749098E-14  1.747299E-13
        32   6 -4.707346E-14 -8.792966E-14  2.625000E+01 -4.446923E-15  7.631604E-14  2.846031E-14
        32   7  4.263256E-14  4.352074E-14  2.625000E+01  7.115077E-15  1.559844E-14 -2.189254E-15
        32   8  4.618528E-14  3.197442E-14  2.625000E+01 -7.799219E-15 -2.982859E-14 -6.636177E-14

 equivalent plastic strain (elem, integ.pnt.,pe)for set E1 and time  0.1000000E-01

        32   1  0.000000E+00
        32   2  0.000000E+00
        32   3  0.000000E+00
        32   4  0.000000E+00
        32   5  0.000000E+00
        32   6  0.000000E+00
        32   7  0.000000E+00
        32   8  0.000000E+00

                                INCREMENT     2


 stresses (elem, integ.pnt.,sxx,syy,szz,sxy,sxz,syz) for set E1 and time  0.2000000E-01

        32   1  9.059420E-14  1.012523E-13  5.250000E+01 -8.209704E-15  2.545008E-14  1.598156E-13
        32   2  3.552714E-14 -5.151435E-14  5.250000E+01  5.062651E-15 -3.557538E-15 -3.010225E-14
        32   3  7.638334E-14  1.083578E-13  5.250000E+01 -2.681837E-14  1.247875E-13 -6.896151E-14
        32   4 -6.217249E-14 -1.101341E-13  5.250000E+01 -1.806135E-14  6.280424E-14  1.915598E-15
        32   5 -1.296740E-13 -2.007283E-13  5.250000E+01 -3.064956E-14  7.251905E-14  2.328819E-13
        32   6 -4.618528E-14 -7.283063E-14  5.250000E+01  7.115077E-15  1.408648E-13  5.568916E-14
        32   7 -9.947598E-14  7.105427E-15  5.250000E+01 -4.925822E-15  1.423015E-14  3.174419E-14
        32   8 -9.769963E-14 -8.171241E-14  5.250000E+01  2.243986E-14 -1.981275E-13 -1.559844E-14

 equivalent plastic strain (elem, integ.pnt.,pe)for set E1 and time  0.2000000E-01

        32   1  0.000000E+00
        32   2  0.000000E+00
        32   3  0.000000E+00
        32   4  0.000000E+00
        32   5  0.000000E+00
        32   6  0.000000E+00
        32   7  0.000000E+00
        32   8  0.000000E+00

                                INCREMENT     3


 stresses (elem, integ.pnt.,sxx,syy,szz,sxy,sxz,syz) for set E1 and time  0.3500000E-01

        32   1  7.460699E-14  1.492140E-13  9.187500E+01  2.189254E-14 -2.235776E-13 -1.767823E-13
        32   2 -1.740830E-13 -1.989520E-13  9.187500E+01  3.557538E-15 -1.477747E-14 -9.441160E-14
        32   3 -2.948752E-13 -2.771117E-13  9.187500E+01  2.189254E-15 -5.801524E-14 -9.632719E-14
        32   4  2.131628E-13  1.811884E-13  9.187500E+01 -4.652166E-15  2.301454E-13  3.081376E-13
        32   5  1.776357E-14 -5.329071E-14  9.187500E+01 -2.243986E-14  1.959383E-13  4.663112E-13
        32   6  1.172396E-13  1.847411E-13  9.187500E+01 -1.121993E-14  1.039212E-13 -6.335155E-14
        32   7 -4.618528E-14 -7.105427E-14  9.187500E+01 -7.662390E-15  6.786689E-14  1.773296E-13
        32   8 -1.421085E-13 -1.456613E-13  9.187500E+01 -5.199479E-15 -3.456285E-13 -1.384703E-13

 equivalent plastic strain (elem, integ.pnt.,pe)for set E1 and time  0.3500000E-01

        32   1  0.000000E+00
        32   2  0.000000E+00
        32   3  0.000000E+00
        32   4  0.000000E+00
        32   5  0.000000E+00
        32   6  0.000000E+00
        32   7  0.000000E+00
        32   8  0.000000E+00

                                INCREMENT     4


 stresses (elem, integ.pnt.,sxx,syy,szz,sxy,sxz,syz) for set E1 and time  0.5750000E-01

        32   1 -3.126388E-13 -2.629008E-13  1.509375E+02 -8.921212E-14 -2.960967E-13 -3.579431E-13
        32   2 -2.557954E-13 -1.847411E-13  1.509375E+02 -8.866480E-14  4.295043E-13  2.528589E-13
        32   3 -1.207923E-13 -3.552714E-14  1.509375E+02 -1.795189E-13  2.627105E-14  6.567763E-14
        32   4 -1.207923E-13 -1.563194E-13  1.509375E+02 -1.688462E-13  5.473136E-14  1.423015E-13
        32   5 -9.947598E-14 -3.126388E-13  1.509375E+02  2.298717E-14  2.517643E-14  6.064235E-13
        32   6  2.060574E-13  9.947598E-14  1.509375E+02  5.746793E-15  9.304331E-15  4.104852E-15
        32   7  2.344791E-13  1.350031E-13  1.509375E+02  1.236929E-13  1.269768E-13 -5.254211E-14
        32   8 -2.842171E-14 -7.105427E-15  1.509375E+02  8.291801E-14 -2.249459E-13 -3.327667E-13

 equivalent plastic strain (elem, integ.pnt.,pe)for set E1 and time  0.5750000E-01

        32   1  0.000000E+00
        32   2  0.000000E+00
        32   3  0.000000E+00
        32   4  0.000000E+00
        32   5  0.000000E+00
        32   6  0.000000E+00
        32   7  0.000000E+00
        32   8  0.000000E+00

                                INCREMENT     5


 stresses (elem, integ.pnt.,sxx,syy,szz,sxy,sxz,syz) for set E1 and time  0.9125000E-01

        32   1  4.263256E-14 -4.263256E-14  2.395313E+02 -1.641941E-14 -2.451965E-13 -4.334724E-13
        32   2  2.913225E-13  2.202682E-13  2.395313E+02 -5.144748E-14  9.632719E-14  1.100100E-13
        32   3 -2.771117E-13  2.131628E-13  2.395313E+02 -4.597434E-14  1.182197E-13 -4.903930E-13
        32   4 -7.958079E-13 -3.979039E-13  2.395312E+02 -7.771853E-14 -4.301885E-13 -5.079070E-13
        32   5 -1.207923E-13 -2.700062E-13  2.395312E+02 -3.283882E-15  4.586488E-13  1.525910E-12
        32   6  4.618528E-13  3.268497E-13  2.395313E+02  1.094627E-14 -7.424309E-13 -7.782799E-13
        32   7 -1.705303E-13 -3.481659E-13  2.395313E+02  1.094627E-14  9.545149E-13  3.502807E-14
        32   8  1.058709E-12  7.887024E-13  2.395313E+02  7.115077E-15 -6.108020E-13  9.851645E-14

 equivalent plastic strain (elem, integ.pnt.,pe)for set E1 and time  0.9125000E-01

        32   1  0.000000E+00
        32   2  0.000000E+00
        32   3  0.000000E+00
        32   4  0.000000E+00
        32   5  0.000000E+00
        32   6  0.000000E+00
        32   7  0.000000E+00
        32   8  0.000000E+00

                                INCREMENT     6


 stresses (elem, integ.pnt.,sxx,syy,szz,sxy,sxz,syz) for set E1 and time  0.1418750E+00

        32   1 -1.179501E-12 -1.051603E-12  3.724219E+02 -1.050842E-13 -1.303701E-12  1.123088E-12
        32   2  5.684342E-14 -3.268497E-13  3.724219E+02  1.423015E-14  3.699840E-13 -9.315277E-13
        32   3 -4.405365E-13  0.000000E+00  3.724219E+02 -7.005614E-14  3.459022E-13 -3.590377E-13
        32   4 -1.165290E-12 -1.222134E-12  3.724219E+02 -8.209704E-14 -1.321215E-12 -3.305774E-13
        32   5 -5.115908E-13 -8.384404E-13  3.724219E+02 -7.005614E-14 -3.568485E-13 -3.590377E-13
        32   6  7.247536E-13  6.252776E-13  3.724219E+02  9.523257E-14  1.532478E-13 -4.214315E-13
        32   7  4.547474E-13  5.115908E-13  3.724219E+02  8.757018E-14  7.136969E-13 -2.977386E-13
        32   8  2.842171E-13  1.421085E-13  3.724219E+02  3.721732E-14 -1.216131E-12 -7.071292E-13

 equivalent plastic strain (elem, integ.pnt.,pe)for set E1 and time  0.1418750E+00

        32   1  0.000000E+00
        32   2  0.000000E+00
        32   3  0.000000E+00
        32   4  0.000000E+00
        32   5  0.000000E+00
        32   6  0.000000E+00
        32   7  0.000000E+00
        32   8  0.000000E+00

                                INCREMENT     7


 stresses (elem, integ.pnt.,sxx,syy,szz,sxy,sxz,syz) for set E1 and time  0.2178125E+00

        32   1 -1.307399E-12 -1.591616E-12  5.717578E+02 -7.487250E-13 -1.221604E-12 -8.319167E-13
        32   2 -3.694822E-13 -6.821210E-13  5.717578E+02 -2.769407E-13  2.465648E-12 -1.683537E-12
        32   3 -3.780087E-12 -3.382183E-12  5.717578E+02 -5.297996E-13  2.057899E-12  4.203368E-13
        32   4  5.684342E-13  5.115908E-13  5.717578E+02 -1.050842E-13 -5.998557E-13  1.344202E-12
        32   5 -7.958079E-13 -3.126388E-13  5.717578E+02  4.269046E-13 -1.403312E-12  3.415237E-12
        32   6  9.379164E-13  5.684342E-13  5.717578E+02  5.692061E-14 -4.706897E-13 -1.165778E-12
        32   7 -7.389644E-13 -1.421085E-13  5.717578E+02  1.795189E-13  2.127955E-12 -8.406737E-13
        32   8  2.842171E-14  0.000000E+00  5.717578E+02  8.975943E-14 -2.618348E-12 -7.049399E-13

 equivalent plastic strain (elem, integ.pnt.,pe)for set E1 and time  0.2178125E+00

        32   1  0.000000E+00
        32   2  0.000000E+00
        32   3  0.000000E+00
        32   4  0.000000E+00
        32   5  0.000000E+00
        32   6  0.000000E+00
        32   7  0.000000E+00
        32   8  0.000000E+00

                                INCREMENT     8


 stresses (elem, integ.pnt.,sxx,syy,szz,sxy,sxz,syz) for set E1 and time  0.3178125E+00

        32   1  2.955858E-12  2.756906E-12  8.012572E+02 -3.761884E-13 -1.542372E-12 -3.097285E-12
        32   2 -4.661160E-12 -4.490630E-12  8.012572E+02  4.388865E-14  5.904068E-13 -8.088051E-13
        32   3 -3.439027E-12 -2.955858E-12  8.012572E+02 -4.179871E-14  4.096274E-13 -3.260300E-12
        32   4 -9.379164E-13 -6.536993E-13  8.012572E+02 -5.851820E-13 -7.544668E-13 -1.922741E-12
        32   5  1.534772E-12  2.273737E-13  8.012572E+02  1.044968E-13  2.583160E-12  1.036608E-12
        32   6  8.810730E-13  1.250555E-12  8.012572E+02 -1.713747E-13 -3.487058E-12 -9.049421E-13
        32   7 -3.694822E-13 -1.591616E-12  8.012572E+02  4.932248E-13 -5.768222E-13  5.350235E-13
        32   8  1.989520E-12  1.733724E-12  8.012572E+02  3.343897E-14 -1.297850E-12 -2.900831E-12

 equivalent plastic strain (elem, integ.pnt.,pe)for set E1 and time  0.3178125E+00

        32   1  1.571459E-04
        32   2  1.571459E-04
        32   3  1.571459E-04
        32   4  1.571459E-04
        32   5  1.571459E-04
        32   6  1.571459E-04
        32   7  1.571459E-04
        32   8  1.571459E-04

                                INCREMENT     9


 stresses (elem, integ.pnt.,sxx,syy,szz,sxy,sxz,syz) for set E1 and time  0.4178125E+00

        32   1  1.506351E-12  2.444267E-12  8.108902E+02 -5.471213E-13 -1.594703E-12 -3.710597E-12
        32   2  1.506351E-12  5.684342E-13  8.108902E+02 -5.167230E-13 -1.597595E-12  3.792570E-14
        32   3 -9.379164E-13 -2.557954E-13  8.108902E+02 -6.876047E-13  8.743858E-13 -1.483146E-12
        32   4 -5.684342E-13  6.252776E-13  8.108902E+02 -5.913364E-13  2.128983E-12  4.285307E-12
        32   5 -2.899014E-12 -3.865352E-12  8.108902E+02  3.956197E-13 -1.333169E-12  2.095368E-12
        32   6  2.415845E-12  1.165290E-12  8.108902E+02 -3.610831E-13 -2.917751E-12  2.554110E-13
        32   7  4.547474E-13 -5.115908E-13  8.108902E+02  4.850724E-13  1.230853E-12 -3.535708E-13
        32   8 -5.400125E-13 -1.307399E-12  8.108902E+02  6.323003E-14 -1.123479E-12  5.328484E-13

 equivalent plastic strain (elem, integ.pnt.,pe)for set E1 and time  0.4178125E+00

        32   1  1.361274E-03
        32   2  1.361274E-03
        32   3  1.361274E-03
        32   4  1.361274E-03
        32   5  1.361274E-03
        32   6  1.361274E-03
        32   7  1.361274E-03
        32   8  1.361274E-03

                                INCREMENT    10


 stresses (elem, integ.pnt.,sxx,syy,szz,sxy,sxz,syz) for set E1 and time  0.5178125E+00

        32   1  3.240075E-12  3.495870E-12  8.205232E+02 -1.645864E-13 -4.980977E-13  1.836376E-12
        32   2 -8.554935E-12 -1.105604E-11  8.205232E+02  1.646848E-13  1.651734E-12  1.507160E-13
        32   3  1.591616E-12  1.392664E-12  8.205232E+02 -9.400521E-13  9.163396E-13 -1.171616E-12
        32   4  2.131628E-12  1.051603E-12  8.205232E+02 -1.469810E-12 -4.708171E-13 -7.858064E-13
        32   5 -4.774847E-12 -8.100187E-12  8.205232E+02 -2.184914E-13  8.576198E-13  3.477244E-12
        32   6 -3.467449E-12 -1.563194E-12  8.205232E+02 -3.891048E-13  9.338473E-13  1.847001E-12
        32   7 -1.449507E-12 -5.115908E-13  8.205232E+02  6.291484E-13 -2.418844E-13  4.312808E-12
        32   8 -7.958079E-13 -9.947598E-13  8.205232E+02  4.277799E-13  1.315923E-12 -1.758083E-12

 equivalent plastic strain (elem, integ.pnt.,pe)for set E1 and time  0.5178125E+00

        32   1  2.565403E-03
        32   2  2.565403E-03
        32   3  2.565403E-03
        32   4  2.565403E-03
        32   5  2.565403E-03
        32   6  2.565403E-03
        32   7  2.565403E-03
        32   8  2.565403E-03

                                INCREMENT    11


 stresses (elem, integ.pnt.,sxx,syy,szz,sxy,sxz,syz) for set E1 and time  0.6178125E+00

        32   1 -8.327561E-12 -1.028866E-11  8.301562E+02 -6.790342E-13 -4.203990E-13  1.728146E-12
        32   2 -6.252776E-13 -1.108447E-12  8.301562E+02 -7.253302E-14  3.049444E-12  2.479835E-12
        32   3  1.534772E-12  3.609557E-12  8.301563E+02  6.910654E-13  2.207234E-12  3.512513E-13
        32   4  2.273737E-13  5.400125E-13  8.301563E+02  4.869871E-13  1.229420E-12  8.311164E-13
        32   5  3.126388E-13 -1.847411E-12  8.301563E+02 -5.050920E-13  1.101121E-12  4.840827E-12
        32   6  3.524292E-12  4.547474E-13  8.301563E+02 -1.194426E-13 -5.158461E-13  3.087016E-12
        32   7  3.922196E-12  5.712764E-12  8.301563E+02  1.545077E-13  3.523522E-13 -2.818823E-13
        32   8  1.989520E-13  7.105427E-13  8.301563E+02  6.706416E-14 -1.530685E-12 -6.269890E-13

 equivalent plastic strain (elem, integ.pnt.,pe)for set E1 and time  0.6178125E+00

        32   1  3.769531E-03
        32   2  3.769531E-03
        32   3  3.769531E-03
        32   4  3.769531E-03
        32   5  3.769531E-03
        32   6  3.769531E-03
        32   7  3.769531E-03
        32   8  3.769531E-03

                                INCREMENT    12


 stresses (elem, integ.pnt.,sxx,syy,szz,sxy,sxz,syz) for set E1 and time  0.7178125E+00

        32   1 -4.121148E-12 -2.927436E-12  8.397893E+02 -5.559393E-13 -1.741790E-12 -1.668018E-12
        32   2  3.211653E-12  5.684342E-14  8.397893E+02  8.852811E-13 -4.299256E-12  2.100377E-12
        32   3  2.444267E-12  2.245315E-12  8.397893E+02 -2.800073E-13  5.927472E-12  9.885748E-13
        32   4  3.410605E-13 -5.115908E-13  8.397893E+02 -6.394338E-13 -2.324106E-12  2.033606E-12
        32   5 -4.632739E-12 -6.735945E-12  8.397893E+02  4.310260E-13  4.662516E-13  7.336080E-12
        32   6  2.103206E-12  2.103206E-12  8.397893E+02 -3.356083E-13  1.029081E-12 -4.718181E-12
        32   7 -4.746425E-12 -1.193712E-12  8.397893E+02  3.616319E-13  4.264909E-12 -5.408434E-12
        32   8  1.762146E-12  1.961098E-12  8.397893E+02 -1.224528E-13 -1.174996E-12 -4.273761E-12

 equivalent plastic strain (elem, integ.pnt.,pe)for set E1 and time  0.7178125E+00

        32   1  4.973660E-03
        32   2  4.973660E-03
        32   3  4.973660E-03
        32   4  4.973660E-03
        32   5  4.973660E-03
        32   6  4.973660E-03
        32   7  4.973660E-03
        32   8  4.973660E-03

                                INCREMENT    13


 stresses (elem, integ.pnt.,sxx,syy,szz,sxy,sxz,syz) for set E1 and time  0.8178125E+00

        32   1 -3.694822E-13 -3.694822E-13  8.494223E+02 -1.169902E-12 -4.144876E-12 -1.580495E-12
        32   2  1.421085E-12  1.648459E-12  8.494223E+02  8.534743E-14 -3.675882E-12 -3.233952E-12
        32   3 -7.105427E-13  6.252776E-13  8.494223E+02  1.174876E-13  2.664767E-13 -1.506402E-12
        32   4  6.764367E-12  9.009682E-12  8.494223E+02  5.017662E-13  3.119569E-12  3.338741E-12
        32   5 -2.756906E-12 -4.945377E-12  8.494223E+02  1.252821E-13  4.127544E-12  2.670710E-12
        32   6  1.011813E-11  8.157031E-12  8.494223E+02  8.452383E-13  3.534539E-12 -1.360905E-12
        32   7  3.353762E-12  5.513812E-12  8.494223E+02 -1.610216E-13 -1.127452E-12  3.952503E-12
        32   8 -2.586376E-12 -2.643219E-12  8.494223E+02  3.781582E-13  3.244857E-12  1.981253E-12

 equivalent plastic strain (elem, integ.pnt.,pe)for set E1 and time  0.8178125E+00

        32   1  6.177788E-03
        32   2  6.177788E-03
        32   3  6.177788E-03
        32   4  6.177788E-03
        32   5  6.177788E-03
        32   6  6.177788E-03
        32   7  6.177788E-03
        32   8  6.177788E-03

                                INCREMENT    14


 stresses (elem, integ.pnt.,sxx,syy,szz,sxy,sxz,syz) for set E1 and time  0.9178125E+00

        32   1 -6.991741E-12 -8.100187E-12  8.590553E+02 -4.157165E-13 -3.564675E-12  6.374514E-13
        32   2 -1.071498E-11 -1.128342E-11  8.590553E+02 -1.846908E-13  6.263838E-12  2.057156E-12
        32   3 -5.883294E-12 -2.813749E-12  8.590553E+02  1.399956E-13  2.133822E-12 -2.745620E-12
        32   4 -2.501110E-12 -2.586376E-12  8.590553E+02 -4.229419E-13  5.113357E-12  2.309236E-12
        32   5 -4.803269E-12 -5.940137E-12  8.590553E+02 -6.516809E-13 -3.579959E-12  8.169708E-13
        32   6  6.508571E-12  7.219114E-12  8.590553E+02  1.341442E-13 -3.182635E-12  2.739543E-12
        32   7  1.307399E-12  2.927436E-12  8.590553E+02  1.674234E-13  2.923614E-12 -6.201159E-12
        32   8  5.684342E-14 -1.335820E-12  8.590553E+02  3.476519E-13 -2.349710E-12 -4.443436E-12

 equivalent plastic strain (elem, integ.pnt.,pe)for set E1 and time  0.9178125E+00

        32   1  7.381917E-03
        32   2  7.381917E-03
        32   3  7.381917E-03
        32   4  7.381917E-03
        32   5  7.381917E-03
        32   6  7.381917E-03
        32   7  7.381917E-03
        32   8  7.381917E-03

                                INCREMENT    15


 stresses (elem, integ.pnt.,sxx,syy,szz,sxy,sxz,syz) for set E1 and time  0.1000000E+01

        32   1 -1.980993E-11 -1.656986E-11  8.669725E+02 -4.902778E-13  1.392070E-12 -4.302438E-12
        32   2  1.867306E-11  1.531930E-11  8.669725E+02  2.372828E-12  1.809539E-12  4.664001E-12
        32   3  6.252776E-13  9.094947E-13  8.669725E+02 -3.842335E-13  6.555591E-12  4.489430E-12
        32   4 -2.557954E-13 -2.103206E-12  8.669725E+02  7.456646E-13  2.414027E-12 -4.529439E-12
        32   5 -1.011813E-11 -9.549694E-12  8.669725E+02 -6.888364E-13  9.067790E-13  7.197817E-12
        32   6  3.637979E-12  1.108447E-12  8.669725E+02 -5.269278E-14  1.770221E-12  4.996571E-13
        32   7  2.415845E-12  1.989520E-12  8.669725E+02  6.524844E-13  4.704778E-12  1.343565E-12
        32   8 -3.097966E-12 -2.529532E-12  8.669725E+02 -3.244642E-13  4.086154E-12  9.506537E-13

 equivalent plastic strain (elem, integ.pnt.,pe)for set E1 and time  0.1000000E+01

        32   1  8.371560E-03
        32   2  8.371560E-03
        32   3  8.371560E-03
        32   4  8.371560E-03
        32   5  8.371560E-03
        32   6  8.371560E-03
        32   7  8.371560E-03
        32   8  8.371560E-03

                        S T E P       2


                                INCREMENT     1


 stresses (elem, integ.pnt.,sxx,syy,szz,sxy,sxz,syz) for set E1 and time  0.2000000E+01

        32   1 -9.521273E-12 -6.735945E-12  8.669725E+02  5.955924E-13 -7.732742E-12  2.142726E-12
        32   2  3.410605E-13 -1.620037E-12  8.669725E+02 -8.672684E-13  3.762354E-12 -1.241218E-11
        32   3 -3.893774E-12 -1.222134E-12  8.669725E+02  1.016889E-12 -9.404158E-13  1.459492E-13
        32   4  1.676881E-12  3.353762E-12  8.669725E+02 -1.137094E-12 -1.439060E-12 -3.023232E-12
        32   5 -6.082246E-12 -5.826450E-12  8.669725E+02 -1.354370E-12  1.309602E-12  7.022677E-12
        32   6  2.160050E-12  4.831691E-13  8.669725E+02 -7.896383E-14  8.988980E-13  3.949922E-12
        32   7  3.154810E-12  2.586376E-12  8.669725E+02 -1.881892E-13  3.513823E-12  2.884800E-12
        32   8 -1.222134E-12 -1.932676E-12  8.669725E+02 -9.549695E-13  2.685031E-12  2.982282E-12

 equivalent plastic strain (elem, integ.pnt.,pe)for set E1 and time  0.2000000E+01

        32   1  8.371560E-03
        32   2  8.371560E-03
        32   3  8.371560E-03
        32   4  8.371560E-03
        32   5  8.371560E-03
        32   6  8.371560E-03
        32   7  8.371560E-03
        32   8  8.371560E-03

                        S T E P       3


                                INCREMENT     1


 stresses (elem, integ.pnt.,sxx,syy,szz,sxy,sxz,syz) for set E1 and time  0.2010000E+01

        32   1 -4.120722E-10 -4.115108E-10  8.213200E+01 -3.422329E-13 -3.007611E-13 -4.451433E-13
        32   2 -3.882867E-10 -3.887060E-10  8.213200E+01  2.533781E-13  4.796046E-13 -1.061242E-12
        32   3 -4.179554E-10 -4.176748E-10  8.213200E+01 -8.729164E-14 -5.267548E-13  3.267080E-13
        32   4 -4.083560E-10 -4.083560E-10  8.213200E+01 -2.438292E-13  4.148181E-13 -7.611147E-13
        32   5 -4.022986E-10 -4.027214E-10  8.213200E+01 -1.330093E-13  2.326876E-13  5.490068E-13
        32   6 -3.971508E-10 -3.977121E-10  8.213200E+01  1.572734E-13  2.360373E-13  1.194629E-13
        32   7 -4.109850E-10 -4.100045E-10  8.213200E+01  2.028041E-13  5.426786E-13 -8.436443E-13
        32   8 -3.949445E-10 -3.948024E-10  8.213200E+01 -3.426205E-14 -7.248151E-13 -2.850377E-13

 equivalent plastic strain (elem, integ.pnt.,pe)for set E1 and time  0.2010000E+01

        32   1  1.210890E-02
        32   2  1.210890E-02
        32   3  1.210890E-02
        32   4  1.210890E-02
        32   5  1.210890E-02
        32   6  1.210890E-02
        32   7  1.210890E-02
        32   8  1.210890E-02

                                INCREMENT     2


 stresses (elem, integ.pnt.,sxx,syy,szz,sxy,sxz,syz) for set E1 and time  0.2020000E+01

        32   1  1.347110E-04  1.347110E-04  4.469159E+01  3.514090E-13  1.913158E-12  2.694676E-12
        32   2  1.347110E-04  1.347110E-04  4.469159E+01  2.935909E-13  2.459128E-12  4.768092E-12
        32   3  1.347110E-04  1.347110E-04  4.469159E+01 -4.006085E-13  5.431713E-12 -1.116276E-12
        32   4  1.347110E-04  1.347110E-04  4.469159E+01  1.298259E-13 -2.487457E-12  2.320277E-12
        32   5  1.347110E-04  1.347110E-04  4.469159E+01 -4.149496E-13  2.505007E-12  7.422488E-13
        32   6  1.347110E-04  1.347110E-04  4.469159E+01 -2.628935E-13  1.538231E-12  1.806234E-12
        32   7  1.347110E-04  1.347110E-04  4.469159E+01  6.374556E-13  8.102755E-13  3.346980E-12
        32   8  1.347110E-04  1.347110E-04  4.469159E+01 -5.873774E-13  2.543563E-12  3.003416E-13

 equivalent plastic strain (elem, integ.pnt.,pe)for set E1 and time  0.2020000E+01

        32   1  1.228718E-02
        32   2  1.228718E-02
        32   3  1.228718E-02
        32   4  1.228718E-02
        32   5  1.228718E-02
        32   6  1.228718E-02
        32   7  1.228718E-02
        32   8  1.228718E-02

                                INCREMENT     3


 stresses (elem, integ.pnt.,sxx,syy,szz,sxy,sxz,syz) for set E1 and time  0.2035000E+01

        32   1  7.910199E-07  7.910195E-07  3.277622E+01 -8.135457E-13 -4.759750E-12  9.695730E-14
        32   2  7.910160E-07  7.910189E-07  3.277622E+01 -1.386454E-13 -5.275829E-12 -6.863360E-12
        32   3  7.910082E-07  7.910100E-07  3.277622E+01  3.840532E-13  5.553986E-12 -9.545137E-14
        32   4  7.910144E-07  7.910135E-07  3.277622E+01 -1.352142E-12  1.073122E-12  1.683970E-12
        32   5  7.910171E-07  7.910161E-07  3.277622E+01 -4.897444E-13  2.899898E-12  3.501692E-13
        32   6  7.910095E-07  7.910119E-07  3.277622E+01  3.330104E-13 -5.036222E-12  1.574770E-12
        32   7  7.910215E-07  7.910173E-07  3.277622E+01  3.997283E-13 -1.452681E-12 -3.071949E-13
        32   8  7.910164E-07  7.910159E-07  3.277622E+01 -1.166451E-12  3.112138E-12  7.544819E-13

 equivalent plastic strain (elem, integ.pnt.,pe)for set E1 and time  0.2035000E+01

        32   1  1.234392E-02
        32   2  1.234392E-02
        32   3  1.234392E-02
        32   4  1.234392E-02
        32   5  1.234392E-02
        32   6  1.234392E-02
        32   7  1.234392E-02
        32   8  1.234392E-02

                                INCREMENT     4


 stresses (elem, integ.pnt.,sxx,syy,szz,sxy,sxz,syz) for set E1 and time  0.2057500E+01

        32   1  2.975792E-08  2.975694E-08  2.654670E+01 -1.287969E-12  3.448771E-12 -1.880786E-12
        32   2  2.976325E-08  2.976395E-08  2.654670E+01 -8.740206E-13 -9.886629E-13 -5.649050E-12
        32   3  2.977169E-08  2.977253E-08  2.654670E+01  6.054324E-13 -2.520555E-12 -3.162344E-12
        32   4  2.976223E-08  2.976251E-08  2.654670E+01 -1.070930E-12 -4.516838E-12  3.861103E-12
        32   5  2.975820E-08  2.975806E-08  2.654670E+01 -1.786593E-13 -7.363090E-13 -2.453334E-12
        32   6  2.976650E-08  2.976734E-08  2.654670E+01  5.859388E-13 -4.893447E-12 -2.699293E-13
        32   7  2.976755E-08  2.976447E-08  2.654670E+01 -2.642985E-13  1.337656E-12  5.300676E-13
        32   8  2.977463E-08  2.977463E-08  2.654670E+01 -8.696745E-13 -6.302721E-12 -5.139706E-12

 equivalent plastic strain (elem, integ.pnt.,pe)for set E1 and time  0.2057500E+01

        32   1  1.237359E-02
        32   2  1.237359E-02
        32   3  1.237359E-02
        32   4  1.237359E-02
        32   5  1.237359E-02
        32   6  1.237359E-02
        32   7  1.237359E-02
        32   8  1.237359E-02

                                INCREMENT     5


 stresses (elem, integ.pnt.,sxx,syy,szz,sxy,sxz,syz) for set E1 and time  0.2091250E+01

        32   1  2.483209E-09  2.483770E-09  2.247886E+01  3.978716E-13  2.505316E-12  6.174036E-13
        32   2  2.482720E-09  2.483841E-09  2.247886E+01 -1.869628E-13 -3.914853E-12  5.707922E-12
        32   3  2.486328E-09  2.487308E-09  2.247886E+01  3.721304E-14  1.750779E-13 -1.109266E-12
        32   4  2.491442E-09  2.492422E-09  2.247886E+01  7.031468E-14 -3.229513E-12  5.572027E-13
        32   5  2.487904E-09  2.489585E-09  2.247886E+01  3.737960E-13 -7.395208E-13  8.579991E-14
        32   6  2.491372E-09  2.490671E-09  2.247886E+01  1.687291E-12 -3.414292E-12 -6.392679E-14
        32   7  2.489550E-09  2.488289E-09  2.247886E+01  2.160173E-13  1.164550E-12 -5.472898E-12
        32   8  2.488044E-09  2.488604E-09  2.247886E+01 -1.617752E-12 -2.704859E-14 -1.846765E-12

 equivalent plastic strain (elem, integ.pnt.,pe)for set E1 and time  0.2091250E+01

        32   1  1.239296E-02
        32   2  1.239296E-02
        32   3  1.239296E-02
        32   4  1.239296E-02
        32   5  1.239296E-02
        32   6  1.239296E-02
        32   7  1.239296E-02
        32   8  1.239296E-02

                                INCREMENT     6


 stresses (elem, integ.pnt.,sxx,syy,szz,sxy,sxz,syz) for set E1 and time  0.2141875E+01

        32   1  7.690062E-10  7.709673E-10  1.948946E+01  3.231632E-13  2.387744E-13 -1.350372E-12
        32   2  7.632970E-10  7.628760E-10  1.948946E+01 -1.216481E-13 -1.879053E-12  9.395598E-12
        32   3  7.589529E-10  7.571312E-10  1.948946E+01 -3.552744E-13 -1.339293E-12 -1.091606E-13
        32   4  7.671490E-10  7.664491E-10  1.948946E+01 -7.512430E-13  4.711214E-12  3.151897E-12
        32   5  7.569918E-10  7.590932E-10  1.948946E+01  1.687838E-13 -6.431995E-13  9.359642E-13
        32   6  7.597230E-10  7.593028E-10  1.948946E+01  4.142625E-13 -4.199204E-12  9.947575E-13
        32   7  7.685150E-10  7.676748E-10  1.948946E+01  4.216220E-13  1.703698E-12  5.879797E-13
        32   8  7.582175E-10  7.610197E-10  1.948946E+01 -4.269063E-14  1.926358E-12  1.912958E-12

 equivalent plastic strain (elem, integ.pnt.,pe)for set E1 and time  0.2141875E+01

        32   1  1.240719E-02
        32   2  1.240719E-02
        32   3  1.240719E-02
        32   4  1.240719E-02
        32   5  1.240719E-02
        32   6  1.240719E-02
        32   7  1.240719E-02
        32   8  1.240719E-02

                                INCREMENT     7


 stresses (elem, integ.pnt.,sxx,syy,szz,sxy,sxz,syz) for set E1 and time  0.2217812E+01

        32   1  2.958469E-10  2.952865E-10  1.713434E+01  3.393928E-13 -5.043907E-13 -3.674879E-12
        32   2  2.803291E-10  2.799090E-10  1.713434E+01  1.391547E-12 -6.323097E-12  2.108177E-12
        32   3  2.975633E-10  2.988245E-10  1.713434E+01  2.073223E-13 -2.244357E-12 -3.480336E-12
        32   4  3.021872E-10  3.026073E-10  1.713434E+01 -8.909376E-14 -4.142001E-12 -3.023863E-12
        32   5  2.925189E-10  2.934999E-10  1.713434E+01 -3.380516E-13 -2.233096E-12  7.473768E-13
        32   6  3.064957E-10  3.064957E-10  1.713434E+01  1.610398E-13 -4.512489E-12 -1.030986E-12
        32   7  2.957417E-10  2.930793E-10  1.713434E+01 -5.128551E-13  1.470485E-12 -2.181036E-13
        32   8  3.055147E-10  3.049543E-10  1.713434E+01 -8.077933E-13  6.030555E-14  8.952695E-13

 equivalent plastic strain (elem, integ.pnt.,pe)for set E1 and time  0.2217812E+01

        32   1  1.241841E-02
        32   2  1.241841E-02
        32   3  1.241841E-02
        32   4  1.241841E-02
        32   5  1.241841E-02
        32   6  1.241841E-02
        32   7  1.241841E-02
        32   8  1.241841E-02

                                INCREMENT     8


 stresses (elem, integ.pnt.,sxx,syy,szz,sxy,sxz,syz) for set E1 and time  0.2317813E+01

        32   1  6.522205E-11  6.522205E-11  1.534666E+01  4.690089E-13  4.248805E-12  8.308848E-12
        32   2  6.231460E-11  6.245493E-11  1.534666E+01 -2.940614E-13  1.033590E-11 -3.004867E-12
        32   3  7.163203E-11  7.037082E-11  1.534666E+01  2.836893E-14 -2.040196E-12 -5.291183E-12
        32   4  6.893464E-11  6.949508E-11  1.534666E+01 -4.336331E-13 -3.280712E-12  1.255900E-12
        32   5  6.599254E-11  6.851453E-11  1.534666E+01 -4.060709E-13 -4.685765E-12  9.984822E-13
        32   6  7.310330E-11  7.352385E-11  1.534666E+01 -4.138421E-13 -5.162776E-12  2.490873E-13
        32   7  7.580070E-11  7.215739E-11  1.534666E+01  7.521457E-13  1.049235E-12  3.019035E-12
        32   8  6.189405E-11  6.147394E-11  1.534666E+01 -9.513874E-13 -5.859949E-12 -6.620635E-13

 equivalent plastic strain (elem, integ.pnt.,pe)for set E1 and time  0.2317813E+01

        32   1  1.242692E-02
        32   2  1.242692E-02
        32   3  1.242692E-02
        32   4  1.242692E-02
        32   5  1.242692E-02
        32   6  1.242692E-02
        32   7  1.242692E-02
        32   8  1.242692E-02

                                INCREMENT     9


 stresses (elem, integ.pnt.,sxx,syy,szz,sxy,sxz,syz) for set E1 and time  0.2417813E+01

        32   1  2.100542E-13  1.330935E-12  1.415381E+01 -7.218102E-13 -5.491785E-13 -1.334237E-12
        32   2 -3.853362E-12 -4.694023E-12  1.415381E+01  1.310461E-13 -3.505233E-12  6.134280E-13
        32   3 -4.205525E-13  3.222311E-12  1.415381E+01 -1.018401E-13  1.907613E-12  1.051710E-12
        32   4  1.821210E-12  2.381650E-12  1.415381E+01 -1.557745E-13  1.910329E-12  1.080748E-12
        32   5  4.168221E-12  3.187228E-12  1.415381E+01  7.684903E-14 -7.109955E-13 -7.181171E-13
        32   6  7.215561E-12  6.374901E-12  1.415381E+01  8.572840E-14 -3.687655E-12  9.931704E-14
        32   7  5.779377E-12  3.117506E-12  1.415381E+01  5.258680E-13  8.285515E-13 -5.781315E-14
        32   8  8.721912E-12  8.021139E-12  1.415381E+01 -5.558143E-13  1.363367E-12  9.893338E-14

 equivalent plastic strain (elem, integ.pnt.,pe)for set E1 and time  0.2417813E+01

        32   1  1.243260E-02
        32   2  1.243260E-02
        32   3  1.243260E-02
        32   4  1.243260E-02
        32   5  1.243260E-02
        32   6  1.243260E-02
        32   7  1.243260E-02
        32   8  1.243260E-02

                                INCREMENT    10


 stresses (elem, integ.pnt.,sxx,syy,szz,sxy,sxz,syz) for set E1 and time  0.2517812E+01

        32   1 -1.586820E-11 -1.656852E-11  1.328485E+01  7.130654E-13 -1.360849E-13 -1.305745E-12
        32   2  5.249134E-13 -1.296296E-12  1.328485E+01  2.114170E-13 -4.439906E-12  1.551132E-13
        32   3 -1.782974E-11 -1.684874E-11  1.328485E+01 -3.878224E-13 -8.969897E-13 -8.460106E-13
        32   4 -1.218980E-11 -1.134914E-11  1.328485E+01  3.437059E-13 -4.118885E-12  6.037704E-14
        32   5 -1.292566E-11 -1.194467E-11  1.328485E+01 -1.117346E-12  8.696857E-13  6.350745E-13
        32   6 -5.499601E-12 -5.919709E-12  1.328485E+01  5.031211E-13 -2.248208E-12 -9.906022E-13
        32   7 -1.145439E-11 -1.271561E-11  1.328485E+01 -1.041822E-12  1.190081E-13  2.291278E-12
        32   8 -6.515233E-12 -6.795453E-12  1.328485E+01 -4.190993E-13  9.257059E-13 -1.359988E-13

 equivalent plastic strain (elem, integ.pnt.,pe)for set E1 and time  0.2517812E+01

        32   1  1.243674E-02
        32   2  1.243674E-02
        32   3  1.243674E-02
        32   4  1.243674E-02
        32   5  1.243674E-02
        32   6  1.243674E-02
        32   7  1.243674E-02
        32   8  1.243674E-02

                                INCREMENT    11


 stresses (elem, integ.pnt.,sxx,syy,szz,sxy,sxz,syz) for set E1 and time  0.2617812E+01

        32   1 -9.459100E-13 -1.086242E-12  1.261417E+01  1.034886E-12 -1.087082E-11 -4.214828E-14
        32   2  1.540990E-12  1.540990E-12  1.261417E+01  1.024281E-12 -8.086754E-13 -1.204860E-11
        32   3 -1.856737E-12 -1.996625E-12  1.261417E+01 -2.368373E-15 -1.226431E-11 -1.193150E-12
        32   4  5.499157E-12  5.359269E-12  1.261417E+01  1.264435E-12  1.141626E-11  3.489238E-12
        32   5 -9.632739E-12 -8.652190E-12  1.261417E+01 -3.101849E-13 -9.792678E-13  3.673422E-13
        32   6  5.604406E-13  1.961542E-12  1.261417E+01  1.134107E-12 -4.700771E-12  2.911549E-12
        32   7 -5.814904E-12 -6.935785E-12  1.261417E+01 -9.051093E-14  2.441427E-13  3.214945E-12
        32   8  1.015632E-12  3.153033E-13  1.261417E+01  2.816947E-13 -3.880287E-12  1.687048E-12

 equivalent plastic strain (elem, integ.pnt.,pe)for set E1 and time  0.2617812E+01

        32   1  1.243993E-02
        32   2  1.243993E-02
        32   3  1.243993E-02
        32   4  1.243993E-02
        32   5  1.243993E-02
        32   6  1.243993E-02
        32   7  1.243993E-02
        32   8  1.243993E-02

                                INCREMENT    12


 stresses (elem, integ.pnt.,sxx,syy,szz,sxy,sxz,syz) for set E1 and time  0.2717812E+01

        32   1 -1.096412E-11 -8.301804E-12  1.207507E+01  5.344738E-13 -1.876995E-12  8.260294E-13
        32   2 -4.168665E-12 -6.270096E-12  1.207507E+01  2.745483E-13  8.458374E-12 -9.459611E-12
        32   3 -1.331379E-12  3.499423E-13  1.207507E+01  7.972364E-13 -4.263992E-15  6.453617E-14
        32   4  7.110756E-12  7.250645E-12  1.207507E+01  1.468986E-12  1.263106E-12 -2.011626E-12
        32   5 -9.108270E-13 -3.432810E-12  1.207507E+01 -5.614850E-13 -4.329120E-12  1.615203E-12
        32   6  2.732037E-12  2.732037E-12  1.207507E+01 -2.075036E-14 -1.172587E-12  8.035017E-13
        32   7  2.486900E-12  1.048051E-13  1.207507E+01  3.136676E-13  9.650467E-13  4.523172E-12
        32   8 -5.359269E-12 -2.977618E-12  1.207507E+01 -9.313388E-13 -3.823439E-12 -6.756921E-12

 equivalent plastic strain (elem, integ.pnt.,pe)for set E1 and time  0.2717812E+01

        32   1  1.244250E-02
        32   2  1.244250E-02
        32   3  1.244250E-02
        32   4  1.244250E-02
        32   5  1.244250E-02
        32   6  1.244250E-02
        32   7  1.244250E-02
        32   8  1.244250E-02

                                INCREMENT    13


 stresses (elem, integ.pnt.,sxx,syy,szz,sxy,sxz,syz) for set E1 and time  0.2817813E+01

        32   1  2.451372E-13  1.052491E-13  1.162855E+01  1.092945E-13  3.468725E-12 -3.368217E-12
        32   2 -7.776002E-12 -7.495782E-12  1.162855E+01  1.972103E-14 -3.279001E-13  1.219893E-11
        32   3  1.749711E-13 -1.085798E-12  1.162855E+01  1.132373E-12  5.698047E-12 -1.279879E-12
        32   4  1.961542E-12  5.604406E-13  1.162855E+01 -4.800724E-13  1.863584E-12  1.629166E-12
        32   5  2.802203E-12  1.681322E-12  1.162855E+01 -7.724565E-13 -1.294384E-12 -8.683445E-13
        32   6  9.108270E-13  3.432810E-12  1.162855E+01  6.928962E-13 -3.428846E-12  1.448636E-12
        32   7 -6.306067E-13 -2.592149E-12  1.162855E+01 -1.041318E-12  3.875793E-12 -1.035442E-12
        32   8 -5.814460E-12 -5.254019E-12  1.162855E+01 -7.660427E-13  3.734775E-12  6.745278E-12

 equivalent plastic strain (elem, integ.pnt.,pe)for set E1 and time  0.2817813E+01

        32   1  1.244463E-02
        32   2  1.244463E-02
        32   3  1.244463E-02
        32   4  1.244463E-02
        32   5  1.244463E-02
        32   6  1.244463E-02
        32   7  1.244463E-02
        32   8  1.244463E-02

                                INCREMENT    14


 stresses (elem, integ.pnt.,sxx,syy,szz,sxy,sxz,syz) for set E1 and time  0.2917813E+01

        32   1 -2.942535E-12 -3.783196E-12  1.125010E+01  1.895090E-13 -4.213999E-12  3.655962E-13
        32   2  7.110312E-12  6.970424E-12  1.125010E+01  6.956309E-14 -2.191283E-12  4.830680E-12
        32   3 -6.725287E-12 -7.846168E-12  1.125010E+01  3.482392E-13 -5.574779E-12  9.692988E-12
        32   4  8.757439E-13  2.416733E-12  1.125010E+01 -6.897400E-13 -3.078483E-12  9.795797E-12
        32   5  2.171596E-12  1.330935E-12  1.125010E+01 -5.075594E-13 -1.178582E-12  1.355853E-12
        32   6  7.110756E-12  1.033307E-11  1.125010E+01 -6.901941E-13  2.355678E-12 -1.818673E-13
        32   7  7.110756E-12  6.690204E-12  1.125010E+01  7.660691E-14  2.651961E-12  1.700789E-12
        32   8  1.366063E-11  1.310019E-11  1.125010E+01 -2.088555E-14  1.454055E-12  1.064443E-12

 equivalent plastic strain (elem, integ.pnt.,pe)for set E1 and time  0.2917813E+01

        32   1  1.244643E-02
        32   2  1.244643E-02
        32   3  1.244643E-02
        32   4  1.244643E-02
        32   5  1.244643E-02
        32   6  1.244643E-02
        32   7  1.244643E-02
        32   8  1.244643E-02

                                INCREMENT    15


 stresses (elem, integ.pnt.,sxx,syy,szz,sxy,sxz,syz) for set E1 and time  0.3000000E+01

        32   1 -7.531309E-12 -6.830536E-12  1.097525E+01  3.714307E-13  4.245210E-12 -3.525726E-12
        32   2 -1.085887E-11 -1.197975E-11  1.097525E+01 -2.898561E-13  5.866421E-12 -9.714252E-12
        32   3 -8.196555E-12 -7.636114E-12  1.097525E+01 -7.007283E-14  2.003450E-12 -1.337242E-12
        32   4  9.842793E-12  9.983125E-12  1.097525E+01 -2.363040E-13  7.221276E-12 -4.883446E-13
        32   5 -8.651746E-12 -7.110756E-12  1.097525E+01 -2.890390E-13  3.524681E-13  4.326227E-13
        32   6 -3.888001E-12 -4.308554E-12  1.097525E+01 -4.239892E-13 -3.936337E-12 -7.555135E-13
        32   7  3.499423E-13  1.190603E-12  1.097525E+01  5.851206E-13  1.215709E-12 -1.342878E-12
        32   8  6.304735E-12  4.623413E-12  1.097525E+01 -1.990318E-13 -8.102174E-12 -5.433876E-12

 equivalent plastic strain (elem, integ.pnt.,pe)for set E1 and time  0.3000000E+01

        32   1  1.244774E-02
        32   2  1.244774E-02
        32   3  1.244774E-02
        32   4  1.244774E-02
        32   5  1.244774E-02
        32   6  1.244774E-02
        32   7  1.244774E-02
        32   8  1.244774E-02
