
                        S T E P       1


                                INCREMENT     1


 displacements (vx,vy,vz) for set NALL and time  0.1000000E+01

         1  0.000000E+00  0.000000E+00  0.000000E+00
         2  8.244526E-05 -2.575616E-16  1.738530E-04
         3  4.122784E-05 -5.733827E-17  4.343201E-05
         4  1.648948E-04 -2.074129E-15  7.005344E-04
         5  1.236867E-04 -8.584375E-16  3.924177E-04

 stresses (elem, integ.pnt.,sxx,syy,szz,sxy,sxz,syz) for set EALL and time  0.1000000E+01

         1   1  1.066275E+01 -2.461628E+00 -2.461672E+00 -2.384912E-05 -4.100116E-03 -9.308726E-10
         1   2  1.065126E+01 -2.465712E+00 -2.465815E+00  5.375356E-07  4.469131E-03  9.360935E-11
         1   3  1.064363E+01 -2.469847E+00 -2.469768E+00  2.492419E-05 -5.097882E-03  7.688777E-09
         1   4  1.370633E+01 -1.157498E+00 -1.157541E+00 -2.385002E-05 -4.063145E-03 -9.308873E-10
         1   5  1.369992E+01 -1.159405E+00 -1.159508E+00  5.375554E-07  4.770486E-03  9.333307E-11
         1   6  1.369737E+01 -1.161364E+00 -1.161285E+00  2.492513E-05 -4.532240E-03  7.688279E-09
         1   7  1.675001E+01  1.466181E-01  1.465747E-01 -2.385092E-05 -4.026173E-03 -9.308867E-10
         1   8  1.674868E+01  1.468874E-01  1.467846E-01  5.375754E-07  5.071861E-03  9.351207E-11
         1   9  1.675121E+01  1.471050E-01  1.471842E-01  2.492608E-05 -3.966561E-03  7.688726E-09
         1  10  1.066275E+01 -2.461628E+00 -2.461672E+00  1.995952E-12 -4.100116E-03  5.440606E-15
         1  11  1.065126E+01 -2.465712E+00 -2.465815E+00  1.706645E-13  4.469131E-03 -7.285189E-15
         1  12  1.064363E+01 -2.469847E+00 -2.469768E+00  1.890772E-12 -5.097882E-03 -2.505375E-14
         1  13  1.370633E+01 -1.157498E+00 -1.157541E+00  1.593456E-12 -4.063145E-03 -1.172200E-14
         1  14  1.369992E+01 -1.159405E+00 -1.159508E+00 -2.299611E-13  4.770486E-03 -9.361811E-14
         1  15  1.369737E+01 -1.161364E+00 -1.161285E+00  1.496200E-12 -4.532240E-03 -4.410734E-14
         1  16  1.675001E+01  1.466181E-01  1.465747E-01  1.204801E-12 -4.026173E-03 -2.007133E-15
         1  17  1.674868E+01  1.468874E-01  1.467846E-01 -6.190489E-13  5.071861E-03  6.411241E-15
         1  18  1.675121E+01  1.471050E-01  1.471842E-01  1.118826E-12 -3.966561E-03 -1.494384E-14
         1  19  1.066275E+01 -2.461628E+00 -2.461672E+00  2.384913E-05 -4.100116E-03  9.308688E-10
         1  20  1.065126E+01 -2.465712E+00 -2.465815E+00 -5.375352E-07  4.469131E-03 -9.345690E-11
         1  21  1.064363E+01 -2.469847E+00 -2.469768E+00 -2.492419E-05 -5.097882E-03 -7.688196E-09
         1  22  1.370633E+01 -1.157498E+00 -1.157541E+00  2.385003E-05 -4.063145E-03  9.308571E-10
         1  23  1.369992E+01 -1.159405E+00 -1.159508E+00 -5.375559E-07  4.770486E-03 -9.362697E-11
         1  24  1.369737E+01 -1.161364E+00 -1.161285E+00 -2.492513E-05 -4.532240E-03 -7.688678E-09
         1  25  1.675001E+01  1.466181E-01  1.465747E-01  2.385092E-05 -4.026173E-03  9.308470E-10
         1  26  1.674868E+01  1.468874E-01  1.467846E-01 -5.375766E-07  5.071861E-03 -9.342081E-11
         1  27  1.675121E+01  1.471050E-01  1.471842E-01 -2.492607E-05 -3.966561E-03 -7.689126E-09
         2   1  1.051287E+01 -2.525849E+00 -2.525919E+00 -2.832531E-05 -1.348041E-02 -1.098089E-08
         2   2  1.048162E+01 -2.538331E+00 -2.538529E+00  2.442444E-06  1.349983E-02  1.286859E-09
         2   3  1.045486E+01 -2.550733E+00 -2.550020E+00  3.321017E-05 -1.445661E-02  2.208579E-08
         2   4  1.363597E+01 -1.187645E+00 -1.187714E+00 -2.832641E-05 -1.280622E-02 -1.098257E-08
         2   5  1.362011E+01 -1.193534E+00 -1.193732E+00  2.442539E-06  1.443288E-02  1.286252E-09
         2   6  1.360873E+01 -1.199344E+00 -1.198631E+00  3.321147E-05 -1.326501E-02  2.208783E-08
         2   7  1.675917E+01  1.505448E-01  1.504756E-01 -2.832750E-05 -1.213199E-02 -1.098221E-08
         2   8  1.675870E+01  1.512474E-01  1.510501E-01  2.442633E-06  1.536599E-02  1.285916E-09
         2   9  1.676270E+01  1.520292E-01  1.527433E-01  3.321277E-05 -1.207333E-02  2.208917E-08
         2  10  1.051287E+01 -2.525849E+00 -2.525919E+00  2.951561E-13 -1.348041E-02  5.333796E-14
         2  11  1.048162E+01 -2.538331E+00 -2.538529E+00  1.131753E-12  1.349983E-02 -7.217972E-14
         2  12  1.045486E+01 -2.550733E+00 -2.550020E+00 -7.678611E-14 -1.445661E-02  4.412225E-14
         2  13  1.363597E+01 -1.187645E+00 -1.187714E+00 -1.332586E-13 -1.280622E-02 -1.286643E-13
         2  14  1.362011E+01 -1.193534E+00 -1.193732E+00  6.827122E-13  1.443288E-02 -1.596798E-13
         2  15  1.360873E+01 -1.199344E+00 -1.198631E+00 -4.746832E-13 -1.326501E-02  1.678181E-13
         2  16  1.675917E+01  1.505448E-01  1.504756E-01 -5.793465E-13 -1.213199E-02  7.581564E-14
         2  17  1.675870E+01  1.512474E-01  1.510501E-01  2.468981E-13  1.536599E-02 -1.854851E-13
         2  18  1.676270E+01  1.520292E-01  1.527433E-01 -8.781167E-13 -1.207333E-02  2.042783E-13
         2  19  1.051287E+01 -2.525849E+00 -2.525919E+00  2.832531E-05 -1.348041E-02  1.098125E-08
         2  20  1.048162E+01 -2.538331E+00 -2.538529E+00 -2.442442E-06  1.349983E-02 -1.286635E-09
         2  21  1.045486E+01 -2.550733E+00 -2.550020E+00 -3.321017E-05 -1.445661E-02 -2.208477E-08
         2  22  1.363597E+01 -1.187645E+00 -1.187714E+00  2.832641E-05 -1.280622E-02  1.098182E-08
         2  23  1.362011E+01 -1.193534E+00 -1.193732E+00 -2.442537E-06  1.443288E-02 -1.285696E-09
         2  24  1.360873E+01 -1.199344E+00 -1.198631E+00 -3.321147E-05 -1.326501E-02 -2.208790E-08
         2  25  1.675917E+01  1.505448E-01  1.504756E-01  2.832750E-05 -1.213199E-02  1.098174E-08
         2  26  1.675870E+01  1.512474E-01  1.510501E-01 -2.442632E-06  1.536599E-02 -1.285710E-09
         2  27  1.676270E+01  1.520292E-01  1.527433E-01 -3.321277E-05 -1.207333E-02 -2.208974E-08
         3   1  9.701711E+00  4.743581E-01  4.743354E-01 -1.249361E-05 -2.097676E-03 -4.876207E-10
         3   2  9.702561E+00  4.751626E-01  4.751088E-01  2.815932E-07  2.748568E-03  4.904885E-11
         3   3  9.705436E+00  4.759401E-01  4.759816E-01  1.305680E-05 -1.905266E-03  4.027920E-09
         3   4  1.129610E+01  1.157455E+00  1.157432E+00 -1.249409E-05 -2.078308E-03 -4.876231E-10
         3   5  1.129961E+01  1.159399E+00  1.159346E+00  2.816035E-07  2.906447E-03  4.893956E-11
         3   6  1.130515E+01  1.161317E+00  1.161358E+00  1.305730E-05 -1.608927E-03  4.027703E-09
         3   7  1.289054E+01  1.840544E+00  1.840522E+00 -1.249456E-05 -2.058939E-03 -4.876335E-10
         3   8  1.289672E+01  1.843629E+00  1.843575E+00  2.816140E-07  3.064336E-03  4.894874E-11
         3   9  1.290491E+01  1.846686E+00  1.846728E+00  1.305779E-05 -1.312569E-03  4.027981E-09
         3  10  9.701711E+00  4.743581E-01  4.743354E-01  5.047470E-13 -2.097676E-03  1.322360E-15
         3  11  9.702561E+00  4.751626E-01  4.751088E-01 -4.551432E-13  2.748568E-03 -1.361210E-14
         3  12  9.705436E+00  4.759401E-01  4.759816E-01  4.543155E-13 -1.905266E-03 -1.217440E-14
         3  13  1.129610E+01  1.157455E+00  1.157432E+00  2.950366E-13 -2.078308E-03 -1.022320E-17
         3  14  1.129961E+01  1.159399E+00  1.159346E+00 -6.655467E-13  2.906447E-03  2.039642E-15
         3  15  1.130515E+01  1.161317E+00  1.161358E+00  2.473333E-13 -1.608927E-03 -1.050634E-14
         3  16  1.289054E+01  1.840544E+00  1.840522E+00  9.421230E-14 -2.058939E-03  4.057178E-18
         3  17  1.289672E+01  1.843629E+00  1.843575E+00 -8.583507E-13  3.064336E-03 -1.314537E-14
         3  18  1.290491E+01  1.846686E+00  1.846728E+00  3.360693E-14 -1.312569E-03  5.681337E-15
         3  19  9.701711E+00  4.743581E-01  4.743354E-01  1.249362E-05 -2.097676E-03  4.876158E-10
         3  20  9.702561E+00  4.751626E-01  4.751088E-01 -2.815940E-07  2.748568E-03 -4.895991E-11
         3  21  9.705436E+00  4.759401E-01  4.759816E-01 -1.305680E-05 -1.905266E-03 -4.027470E-09
         3  22  1.129610E+01  1.157455E+00  1.157432E+00  1.249409E-05 -2.078308E-03  4.876169E-10
         3  23  1.129961E+01  1.159399E+00  1.159346E+00 -2.816049E-07  2.906447E-03 -4.907488E-11
         3  24  1.130515E+01  1.161317E+00  1.161358E+00 -1.305730E-05 -1.608927E-03 -4.027802E-09
         3  25  1.289054E+01  1.840544E+00  1.840522E+00  1.249456E-05 -2.058939E-03  4.876401E-10
         3  26  1.289672E+01  1.843629E+00  1.843575E+00 -2.816157E-07  3.064336E-03 -4.904754E-11
         3  27  1.290491E+01  1.846686E+00  1.846728E+00 -1.305779E-05 -1.312569E-03 -4.028190E-09
         4   1  9.730752E+00  4.868021E-01  4.867659E-01 -1.483855E-05 -6.149301E-03 -5.752629E-09
         4   2  9.735193E+00  4.891797E-01  4.890764E-01  1.279503E-06  8.333325E-03  6.736861E-10
         4   3  9.741980E+00  4.915988E-01  4.919730E-01  1.739756E-05 -5.960821E-03  1.157072E-08
         4   4  1.136680E+01  1.187746E+00  1.187710E+00 -1.483912E-05 -5.796095E-03 -5.753111E-09
         4   5  1.137930E+01  1.193577E+00  1.193474E+00  1.279553E-06  8.822148E-03  6.735422E-10
         4   6  1.139415E+01  1.199449E+00  1.199823E+00  1.739824E-05 -5.336541E-03  1.157067E-08
         4   7  1.300291E+01  1.888683E+00  1.888647E+00 -1.483970E-05 -5.442865E-03 -5.753364E-09
         4   8  1.302347E+01  1.897966E+00  1.897863E+00  1.279602E-06  9.311003E-03  6.738251E-10
         4   9  1.304637E+01  1.907291E+00  1.907666E+00  1.739892E-05 -4.712219E-03  1.157121E-08
         4  10  9.730752E+00  4.868021E-01  4.867659E-01 -4.378395E-13 -6.149301E-03  1.849685E-14
         4  11  9.735193E+00  4.891797E-01  4.890764E-01 -1.291122E-14  8.333325E-03 -6.114650E-14
         4  12  9.741980E+00  4.915988E-01  4.919730E-01 -5.962003E-13 -5.960821E-03  3.557374E-14
         4  13  1.136680E+01  1.187746E+00  1.187710E+00 -6.839044E-13 -5.796095E-03 -3.105765E-14
         4  14  1.137930E+01  1.193577E+00  1.193474E+00 -1.742439E-13  8.822148E-03 -6.565142E-14
         4  15  1.139415E+01  1.199449E+00  1.199823E+00 -8.125920E-13 -5.336541E-03  3.512508E-14
         4  16  1.300291E+01  1.888683E+00  1.888647E+00 -8.939037E-13 -5.442865E-03  3.944606E-14
         4  17  1.302347E+01  1.897966E+00  1.897863E+00 -3.883039E-13  9.311003E-03 -1.490246E-14
         4  18  1.304637E+01  1.907291E+00  1.907666E+00 -9.723763E-13 -4.712219E-03  1.432160E-13
         4  19  9.730752E+00  4.868021E-01  4.867659E-01  1.483855E-05 -6.149301E-03  5.752686E-09
         4  20  9.735193E+00  4.891797E-01  4.890764E-01 -1.279503E-06  8.333325E-03 -6.739455E-10
         4  21  9.741980E+00  4.915988E-01  4.919730E-01 -1.739756E-05 -5.960821E-03 -1.156993E-08
         4  22  1.136680E+01  1.187746E+00  1.187710E+00  1.483912E-05 -5.796095E-03  5.752976E-09
         4  23  1.137930E+01  1.193577E+00  1.193474E+00 -1.279553E-06  8.822148E-03 -6.737651E-10
         4  24  1.139415E+01  1.199449E+00  1.199823E+00 -1.739824E-05 -5.336541E-03 -1.157072E-08
         4  25  1.300291E+01  1.888683E+00  1.888647E+00  1.483970E-05 -5.442865E-03  5.753118E-09
         4  26  1.302347E+01  1.897966E+00  1.897863E+00 -1.279603E-06  9.311003E-03 -6.734244E-10
         4  27  1.304637E+01  1.907291E+00  1.907666E+00 -1.739892E-05 -4.712219E-03 -1.157151E-08
