
                        S T E P       1


                                INCREMENT     1


 displacements (vx,vy,vz) for set NALL and time  0.1000000E+01

         1 -6.496700E-15  0.000000E+00  6.807338E-15
         2 -1.550016E-07  2.036087E-09  3.962783E-09
         3 -7.761839E-08  5.077481E-10  9.882904E-10
         4 -3.109203E-07  8.244886E-09  1.555148E-08
         5 -2.329216E-07  4.613143E-09  8.855186E-09

 stresses (elem, integ.pnt.,sxx,syy,szz,sxy,sxz,syz) for set EALL and time  0.1000000E+01

         1   1  6.809451E-02 -3.175522E-02  1.423212E-01 -3.613843E+01 -5.819699E+01  1.442151E+00
         1   2  5.077351E-02 -3.520872E-01  4.062403E-01 -3.555151E+01 -5.855340E+01 -2.751234E-01
         1   3  3.094708E-02 -6.589429E-01  6.483378E-01 -3.496650E+01 -5.891171E+01 -3.544594E-01
         1   4 -1.166178E-02 -5.824258E-02  1.377715E-02  1.688567E-01 -5.809729E+01  1.420451E+00
         1   5 -9.243989E-03 -5.545755E-02  1.883185E-02  7.506848E-01 -5.809027E+01 -1.668042E-01
         1   6 -5.681957E-03 -3.573221E-02  1.078548E-02  1.330339E+00 -5.808340E+01 -1.103236E-01
         1   7  5.500707E-02  1.470858E-01 -2.140312E-02  3.647609E+01 -5.798642E+01  1.333732E+00
         1   8  7.576555E-02  4.771432E-01 -2.835992E-01  3.705315E+01 -5.761597E+01 -3.468928E-01
         1   9  9.460216E-02  8.208795E-01 -5.658669E-01  3.762779E+01 -5.724392E+01 -3.778377E-01
         1  10 -3.803570E-03  3.815544E-02 -2.322930E-02 -3.631105E+01 -1.054998E-01  1.374247E+00
         1  11 -6.510425E-03  4.007161E-02 -3.425966E-02 -3.630612E+01 -4.686813E-01 -3.717381E-01
         1  12 -1.001118E-02  5.888723E-02 -6.480725E-02 -3.630095E+01 -8.336122E-01 -4.738223E-01
         1  13 -7.697963E-02 -7.776789E-02 -6.991803E-02 -8.802748E-08 -2.591363E-07  1.406754E+00
         1  14 -7.899012E-02 -7.792822E-02 -7.676209E-02  3.137664E-07  1.673377E-07 -2.275349E-01
         1  15 -7.843582E-02 -5.782282E-02 -9.527495E-02  5.462797E-07 -1.069064E-06 -2.179966E-01
         1  16 -3.689972E-03  3.816089E-02 -2.319821E-02  3.631104E+01  1.054995E-01  1.374242E+00
         1  17 -6.403451E-03  4.007399E-02 -3.424701E-02  3.630612E+01  4.686819E-01 -3.717391E-01
         1  18 -9.910837E-03  5.888656E-02 -6.481311E-02  3.630095E+01  8.336103E-01 -4.738206E-01
         1  19  5.485447E-02  1.470683E-01 -2.144056E-02 -3.647609E+01  5.798642E+01  1.333744E+00
         1  20  7.562199E-02  4.771367E-01 -2.836127E-01 -3.705315E+01  5.761597E+01 -3.468879E-01
         1  21  9.446809E-02  8.208844E-01 -5.658554E-01 -3.762779E+01  5.724392E+01 -3.778399E-01
         1  22 -1.170083E-02 -5.825461E-02  1.377078E-02 -1.688568E-01  5.809729E+01  1.420460E+00
         1  23 -9.280635E-03 -5.546169E-02  1.883097E-02 -7.506841E-01  5.809027E+01 -1.668003E-01
         1  24 -5.715746E-03 -3.572797E-02  1.079113E-02 -1.330338E+00  5.808340E+01 -1.103241E-01
         1  25  6.816901E-02 -3.176181E-02  1.423459E-01  3.613843E+01  5.819699E+01  1.442155E+00
         1  26  5.084379E-02 -3.520890E-01  4.062520E-01  3.555151E+01  5.855340E+01 -2.751205E-01
         1  27  3.101359E-02 -6.589394E-01  6.483376E-01  3.496650E+01  5.891170E+01 -3.544581E-01
         2   1  2.795223E-02 -3.314298E-01  3.617148E-01 -3.463131E+01 -5.912314E+01  3.031837E-01
         2   2  1.124869E-01  1.247870E+00 -9.292598E-01 -3.404243E+01 -5.946544E+01  5.465033E-01
         2   3  2.083730E-01  3.026623E+00 -2.381805E+00 -3.343845E+01 -5.981315E+01 -8.155614E-01
         2   4 -3.244517E-03 -5.591047E-02  3.930727E-02  1.669519E+00 -5.805266E+01  3.927965E-01
         2   5 -3.926897E-03 -3.875399E-02  1.989242E-02  2.249560E+00 -5.803013E+01 -5.273598E-02
         2   6 -1.050120E-02  1.630554E-01 -2.037624E-01  2.832147E+00 -5.801536E+01 -2.131917E+00
         2   7  8.940629E-02  4.136894E-01 -2.259843E-01  3.797314E+01 -5.703842E+01  2.327130E-01
         2   8 -6.698615E-03 -1.237447E+00  1.097974E+00  3.854268E+01 -5.665114E+01  2.206283E-01
         2   9 -9.214448E-02 -2.684822E+00  2.253738E+00  3.910220E+01 -5.627397E+01 -1.455288E+00
         2  10 -1.115841E-02  2.001397E-02 -2.932681E-02 -3.628310E+01 -1.040979E+00  2.161819E-01
         2  11 -9.258694E-03 -2.569119E-02  2.260234E-02 -3.627337E+01 -1.407016E+00  5.705194E-01
         2  12 -3.583968E-03  1.133539E-01 -9.766638E-02 -3.625108E+01 -1.770700E+00 -7.102306E-01
         2  13 -7.293522E-02 -7.693334E-02 -5.777579E-02  5.214257E-07  3.290303E-07  3.410305E-01
         2  14 -6.592569E-02 -6.953540E-02 -4.172565E-02 -3.598816E-06 -1.267477E-06  1.342167E-01
         2  15 -7.201955E-02  1.057426E-01 -2.371587E-01 -6.385805E-06  4.397141E-06 -1.706725E+00
         2  16 -1.106887E-02  2.001178E-02 -2.933780E-02  3.628310E+01  1.040980E+00  2.161835E-01
         2  17 -9.165967E-03 -2.568425E-02  2.260604E-02  3.627336E+01  1.407013E+00  5.705183E-01
         2  18 -3.490405E-03  1.133642E-01 -9.765003E-02  3.625107E+01  1.770709E+00 -7.102342E-01
         2  19  8.927730E-02  4.136924E-01 -2.259724E-01 -3.797314E+01  5.703842E+01  2.327098E-01
         2  20 -6.842290E-03 -1.237469E+00  1.097952E+00 -3.854268E+01  5.665114E+01  2.206292E-01
         2  21 -9.230078E-02 -2.684864E+00  2.253684E+00 -3.910221E+01  5.627398E+01 -1.455281E+00
         2  22 -3.283909E-03 -5.590969E-02  3.930818E-02 -1.669518E+00  5.805266E+01  3.927949E-01
         2  23 -3.977791E-03 -3.876924E-02  1.987422E-02 -2.249568E+00  5.803013E+01 -5.273611E-02
         2  24 -1.056387E-02  1.630237E-01 -2.038004E-01 -2.832160E+00  5.801537E+01 -2.131915E+00
         2  25  2.800238E-02 -3.314312E-01  3.617047E-01  3.463131E+01  5.912314E+01  3.031838E-01
         2  26  1.125288E-01  1.247862E+00 -9.292743E-01  3.404243E+01  5.946543E+01  5.465021E-01
         2  27  2.084039E-01  3.026601E+00 -2.381827E+00  3.343844E+01  5.981316E+01 -8.155624E-01
