
                        S T E P       1


                                INCREMENT     1


 displacements (vx,vy,vz) for set NALL and time  0.1000000E+01

         1  1.567932E-14  0.000000E+00  5.981820E-16
         2 -6.464002E-09  1.857085E-06  2.063946E-05
         3  3.129400E-08  7.167691E-07  1.056285E-05
         4  2.720558E-15  0.000000E+00  8.046208E-16
         5 -3.811436E-08  1.140217E-06  1.007663E-05

 stresses (elem, integ.pnt.,sxx,syy,szz,sxy,sxz,syz) for set EALL and time  0.1000000E+01

         1   1 -5.271760E-01  8.767061E-03 -1.609771E-01  7.436044E-02  9.734373E-01 -5.322813E-02
         1   2  1.264488E-02 -5.114323E-02 -3.076167E-02  5.349506E-02 -2.980000E-01  1.775947E-02
         1   3  7.288928E-01  2.510595E-01  3.257464E-01  8.021394E-02  9.532367E-01  8.343935E-03
         1   4  4.475312E-02  1.043043E-02  1.110159E-02  1.763213E-03  9.748663E-01 -5.653458E-02
         1   5  3.305116E-02  9.052543E-03 -6.580842E-03 -9.662430E-04 -2.985716E-01  1.379561E-02
         1   6  4.434781E-02  1.179981E-02  4.860613E-02  2.711987E-03  9.506657E-01  6.974053E-03
         1   7  6.166886E-01  1.209562E-02  1.831809E-01 -7.083515E-02  9.762955E-01 -5.984101E-02
         1   8  5.345784E-02  6.924898E-02  1.760025E-02 -5.542754E-02 -2.991432E-01  9.831744E-03
         1   9 -6.401913E-01 -2.274598E-01 -2.285345E-01 -7.478858E-02  9.480947E-01  5.604184E-03
         1  10 -5.601837E-01 -3.609244E-03 -1.692297E-01  6.702203E-02  8.763980E-01  2.599703E-05
         1  11 -1.142487E-02 -5.933896E-02 -3.400712E-02  5.079579E-02 -3.959696E-01  6.504188E-03
         1  12  7.107020E-01  2.439937E-01  3.203851E-01  8.215415E-02  8.800712E-01 -3.494462E-03
         1  13  1.650223E-02  9.297383E-05  4.887760E-03  2.142459E-03  8.777121E-01 -3.280093E-03
         1  14  6.532878E-03 -1.925227E-04 -1.087564E-02 -1.061883E-03 -3.964928E-01  2.540515E-03
         1  15  1.650281E-02  5.964786E-04  3.910722E-02  2.141761E-03  8.777117E-01 -4.864270E-03
         1  16  5.931946E-01  3.796905E-03  1.790058E-01 -6.273817E-02  8.790262E-01 -6.586170E-03
         1  17  2.449101E-02  5.895455E-02  1.225608E-02 -5.291954E-02 -3.970160E-01 -1.423162E-03
         1  18 -6.776903E-01 -2.428008E-01 -2.421710E-01 -7.786919E-02  8.753523E-01 -6.234066E-03
         1  19 -5.931911E-01 -1.598526E-02 -1.774817E-01  5.968347E-02  7.793588E-01  5.328016E-02
         1  20 -3.549427E-02 -6.753459E-02 -3.725213E-02  4.809655E-02 -4.939392E-01 -4.751080E-03
         1  21  6.925113E-01  2.369281E-01  3.150240E-01  8.409439E-02  8.069056E-01 -1.533286E-02
         1  22 -1.174825E-02 -1.024419E-02 -1.325496E-03  2.521538E-03  7.805580E-01  4.997439E-02
         1  23 -1.998503E-02 -9.437482E-03 -1.517000E-02 -1.157486E-03 -4.944139E-01 -8.714578E-03
         1  24 -1.134199E-02 -1.060678E-02  2.960862E-02  1.571560E-03  8.047578E-01 -1.670259E-02
         1  25  5.697011E-01 -4.501509E-03  1.748313E-01 -5.464137E-02  7.817572E-01  4.666865E-02
         1  26 -4.475437E-03  4.866023E-02  6.912368E-03 -5.041151E-02 -4.948887E-01 -1.267808E-02
         1  27 -7.151890E-01 -2.581416E-01 -2.558071E-01 -8.094977E-02  8.026099E-01 -1.807231E-02
         2   1 -4.016255E-02 -1.751143E-02  1.480755E-02 -1.522226E-01 -1.168609E+00 -1.918918E-02
         2   2 -2.630458E-02  4.702925E-03 -1.323260E-02  1.066399E-01 -3.637720E-01 -1.158379E-02
         2   3  9.705422E-03  1.583285E-02  4.375023E-02 -1.225810E-01 -1.165317E+00  5.932607E-02
         2   4 -2.799177E-01 -1.249071E-01 -7.737590E-02 -1.420267E-01 -9.865205E-01 -8.883021E-03
         2   5 -1.931181E-03 -3.023028E-03 -2.194754E-03  2.313090E-02  8.932208E-03 -1.933796E-03
         2   6  2.707094E-01  9.976392E-02  7.445648E-02 -1.342262E-01 -9.946036E-01  1.242403E-02
         2   7 -5.098408E-01 -2.197685E-01 -1.644868E-01  1.073037E-01 -2.963518E-01 -2.561989E-03
         2   8  2.769958E-02  5.254288E-03 -5.224411E-03  5.643030E-01  1.625016E+00  4.112122E-03
         2   9  5.049564E-01  1.555863E-01  2.891079E-02  1.026982E-01 -3.252457E-01 -1.594587E-02
         2  10  2.528147E-01  1.008364E-01  1.309944E-01 -1.252170E-01 -9.702156E-01 -9.718116E-03
         2  11 -3.009535E-02 -1.155148E-02 -3.005906E-02  2.430238E-01  1.005674E-01 -1.144345E-03
         2  12 -2.635469E-01 -9.639464E-02 -5.354105E-02 -1.159831E-01 -9.588664E-01  2.180915E-02
         2  13  2.080460E-02  1.141522E-03  4.463012E-02 -1.426286E-01 -9.861387E-01 -6.269536E-03
         2  14  1.237271E-02 -1.954753E-04 -3.542179E-04  8.700209E-02 -5.501952E-02  1.102358E-04
         2  15  2.079132E-02  3.228974E-03  6.235922E-03 -1.426256E-01 -9.861399E-01 -8.917823E-04
         2  16 -2.117055E-01 -9.642801E-02 -4.552851E-02  4.947688E-03 -8.370859E-01 -3.156815E-03
         2  17  5.345184E-02  1.577130E-02  2.001722E-02  3.434445E-01  2.018402E-01  4.147535E-04
         2  18  3.040106E-01  1.024384E-01  6.268852E-02 -4.284742E-03 -8.484317E-01 -2.434268E-02
         2  19  5.478509E-01  2.165184E-01  2.213175E-01 -7.703481E-02 -2.988877E-01 -2.698638E-03
         2  20 -3.325389E-02 -2.741174E-02 -8.096566E-02  3.976430E-01  1.712290E+00  1.379034E-02
         2  21 -4.752614E-01 -1.538042E-01 -3.591586E-02 -7.310508E-02 -2.643687E-01  1.951224E-02
         2  22  3.196408E-01  1.241058E-01  1.634236E-01 -2.429377E-01 -8.860421E-01 -2.395442E-03
         2  23  2.215453E-02 -4.934728E-03 -6.062379E-03 -9.839788E-02  1.303103E-01  5.180235E-03
         2  24 -2.303583E-01 -9.588478E-02 -6.351592E-02 -2.507347E-01 -8.779656E-01 -1.338462E-02
         2  25  7.458664E-02  2.099019E-02  7.516459E-02 -1.528942E-01 -9.818901E-01  3.561734E-03
         2  26  5.475668E-02  3.328997E-03  2.166025E-02  1.854458E-02 -1.965629E-01  3.537902E-03
         2  27  3.314132E-02 -1.824855E-02 -3.377580E-02 -1.818845E-01 -9.908031E-01 -6.612694E-02
