
                        S T E P       1


                                INCREMENT     1


 displacements (vx,vy,vz) for set NALL and time  0.1000000E+01

         1  0.000000E+00  0.000000E+00  0.000000E+00
         2  5.339207E-04 -1.844545E-04  0.000000E+00
         3  0.000000E+00  2.641533E-04  0.000000E+00
         4  2.722468E-04  8.809855E-05  0.000000E+00
         5  5.252445E-05  6.623532E-06  0.000000E+00
         6  4.161098E-05  2.853098E-05  0.000000E+00
         7 -4.397345E-04 -1.624335E-04  0.000000E+00
         8  5.462872E-05 -3.158304E-04  0.000000E+00
         9 -2.000662E-04  1.831333E-04  0.000000E+00
        10  4.573182E-04  8.775984E-02  8.205416E-03
        11  7.568255E-05  8.778629E-02 -8.251471E-03
        12  4.782909E-04  8.732105E-02  8.187430E-03
        13  2.656298E-04  8.775107E-02 -3.585079E-05
        14  2.608363E-04  8.752811E-02 -1.355843E-06
        15  4.671045E-04  8.753453E-02  8.204722E-03
        16  4.133381E-05  8.736647E-02 -8.200160E-03
        17  5.785480E-05  8.757707E-02 -8.224329E-03
        18  2.631937E-04  8.732217E-02  1.959805E-05
        19  3.727867E-05  7.726224E-03  3.527264E-03
        20 -4.032704E-05  2.176867E-03  1.846898E-03
        21  2.345021E-04  2.132893E-03  1.848088E-03
        22  4.868304E-04  7.321297E-03  3.576340E-03
        23  2.599893E-04  7.634367E-03  3.551995E-03
        24  4.880798E-04  1.815392E-03  1.852958E-03
        25  1.957314E-04  2.752752E-02  6.109769E-03
        26  1.152157E-04  1.635279E-02  4.882459E-03
        27  3.095750E-04  1.624912E-02  4.913458E-03
        28  4.993509E-04  2.712582E-02  6.149461E-03
        29  3.511290E-04  2.740594E-02  6.137376E-03
        30  4.990885E-04  1.595207E-02  4.934889E-03
        31  3.587733E-04  5.555170E-02  7.644839E-03
        32  2.870052E-04  4.078944E-02  6.934720E-03
        33  3.988447E-04  4.063579E-02  6.972774E-03
        34  5.137090E-04  5.512630E-02  7.678334E-03
        35  4.346900E-04  5.537887E-02  7.664090E-03
        36  5.048247E-04  4.037470E-02  6.964916E-03
        37  4.084701E-04  7.138704E-02  7.997519E-03
        38  4.537712E-04  7.119821E-02  8.018057E-03
        39  4.853589E-04  7.099195E-02  7.995543E-03
        40 -3.729691E-04  7.338288E-03 -3.533761E-03
        41  4.756958E-05  1.662892E-03 -2.047956E-05
        42 -4.204095E-04  1.786514E-03 -1.847932E-03
        43  5.739612E-05  7.216996E-03  9.483547E-06
        44 -2.089953E-04  2.714106E-02 -6.117905E-03
        45  1.054424E-04  1.584046E-02  1.054940E-05
        46 -2.962107E-04  1.594342E-02 -4.880890E-03
        47  1.484106E-04  2.705335E-02  1.482874E-05
        48 -6.641336E-05  5.514692E-02 -7.677644E-03
        49  1.906913E-04  4.031736E-02  1.968211E-05
        50 -1.302944E-04  4.036842E-02 -6.954319E-03
        51  2.275283E-04  5.510025E-02  1.511707E-05
        52  2.479140E-04  7.094596E-02 -4.753403E-06
        53 -5.217129E-06  7.095737E-02 -8.009696E-03
        54  9.026956E-05  7.757994E-03 -3.595513E-03
        55 -1.573039E-04  2.111554E-03 -1.860220E-03
        56  9.572824E-05  2.182219E-03 -1.859262E-03
        57 -1.441428E-04  7.666993E-03 -3.562684E-03
        58  1.051044E-04  2.755713E-02 -6.158349E-03
        59 -1.030891E-04  1.623919E-02 -4.926909E-03
        60  1.004656E-04  1.633459E-02 -4.953967E-03
        61 -5.466412E-05  2.742014E-02 -6.147959E-03
        62  1.002964E-04  5.557005E-02 -7.670738E-03
        63 -1.763754E-05  4.063093E-02 -6.978249E-03
        64  9.801463E-05  4.077858E-02 -6.993186E-03
        65  1.954918E-05  5.540312E-02 -7.676779E-03
        66  2.948834E-05  7.118847E-02 -8.034243E-03
        67  8.649054E-05  7.136541E-02 -8.023689E-03
        68  4.486576E-05  2.041608E-03 -1.311863E-05
        69  6.322366E-05  7.625809E-03 -2.551591E-05
        70  9.801326E-05  1.625319E-02 -2.424942E-05
        71  1.489424E-04  2.746468E-02 -2.589473E-05
        72  1.894194E-04  4.073734E-02 -1.971883E-05
        73  2.262275E-04  5.551772E-02 -3.135881E-05
        74  2.369870E-04  7.135882E-02 -1.500047E-06
       149  1.475440E-04  2.733227E-02 -9.387811E-06
       150  5.616814E-05  7.533423E-03 -2.320524E-06
       151  3.884190E-05  1.986544E-03 -9.627834E-06
       152  2.567253E-04  1.604502E-02  2.459352E-03
       153  9.708958E-06  2.723557E-02 -3.058189E-03
       154  2.905126E-04  2.722595E-02  3.067120E-03
       155  6.061115E-05  4.046954E-02 -3.477744E-03
       156  3.169478E-04  4.047435E-02  3.492027E-03
       157  8.491162E-05  2.744636E-02 -3.075856E-03
       158 -4.964289E-05  1.603760E-02 -2.451625E-03
       159  1.130522E-04  4.068239E-02 -3.491313E-03
       160  2.453059E-04  7.117604E-02 -2.336866E-06
       161  2.262948E-04  5.535101E-02 -1.116046E-05
       162  1.569003E-04  1.625074E-02  2.436099E-03
       163  2.085095E-04  2.743103E-02  3.045793E-03
       164  2.692574E-04  4.068996E-02  3.471886E-03

 forces (fx,fy,fz) for set NALL and time  0.1000000E+01

         1  4.500000E+00 -9.000000E+00 -8.519444E+00
         2  3.050577E-14 -6.137723E-14 -2.079340E+01
         3 -4.500000E+00  1.990075E-14  2.116962E+01
         4 -1.253546E-13  4.415912E-14 -4.389117E+01
         5  6.827872E-15  4.596323E-14  1.841148E+00
         6  1.029732E-14 -4.662937E-15 -1.266968E+01
         7  3.555489E-14 -1.393330E-14  7.537332E+00
         8  3.985701E-14  5.040413E-14  1.323656E+01
         9 -2.498002E-16  2.081668E-14  4.208903E+01
        10 -1.848096E-12  1.000000E+00  3.761474E-13
        11 -3.974251E-13  1.000000E+00 -2.221556E-13
        12 -1.268666E-12  1.000000E+00 -1.196820E-13
        13  2.151190E-13  1.000000E+00  5.555473E-13
        14  5.013732E-12  1.000000E+00  3.708922E-12
        15  1.254247E-12  1.000000E+00 -3.114176E-13
        16  9.086065E-13  1.000000E+00 -1.922906E-13
        17 -4.819825E-12  1.000000E+00 -1.856626E-12
        18 -3.768304E-12  1.000000E+00  1.845191E-13
        19  4.173051E-13  1.219858E-14  3.328449E-13
        20  1.486231E-13  8.098575E-14 -4.410246E-14
        21 -1.393261E-13 -2.406686E-13 -1.449951E-13
        22 -4.069979E-13  1.149893E-12 -7.210327E-15
        23  4.516910E-13  5.561177E-13 -1.936229E-13
        24 -5.831982E-14  4.381310E-13  9.691650E-14
        25  1.222834E-12  3.905182E-12  9.001688E-13
        26  7.168983E-13 -1.635109E-12 -8.046896E-13
        27 -1.984515E-13 -8.363796E-13  7.611689E-13
        28 -1.971849E-12 -1.426859E-12  2.148282E-13
        29  1.747491E-12  3.680351E-12  3.026468E-13
        30  5.563606E-13  1.276741E-12  2.961775E-13
        31  1.564845E-12 -1.777249E-12  2.833106E-13
        32  2.169459E-12  2.726319E-12  1.011191E-12
        33 -1.158367E-12  6.732837E-12  1.174394E-12
        34 -1.847454E-12  6.624035E-12 -1.327383E-12
        35 -2.958151E-12  8.531301E-13 -3.278711E-12
        36  2.263004E-12 -3.689283E-12 -3.873570E-13
        37  1.719153E-12 -3.433365E-12 -2.700062E-13
        38 -6.305165E-13 -1.058975E-11  3.657630E-12
        39  2.655681E-12 -9.358847E-12 -1.171507E-12
        40  7.077672E-15 -2.167572E-13 -1.829648E-13
        41 -6.473988E-15  1.652012E-13  7.460699E-14
        42  7.624043E-14  5.773173E-14  8.496938E-14
        43  3.010370E-13  3.040623E-13 -2.331468E-14
        44 -1.516397E-12  7.307279E-12  2.671676E-13
        45  4.396483E-14 -4.688194E-13  2.715606E-13
        46 -4.221623E-14 -2.775558E-13 -9.769963E-14
        47  5.825757E-13  7.242817E-12 -1.691980E-13
        48 -8.246528E-13  3.212902E-12 -1.624811E-12
        49 -1.068957E-12 -2.297884E-13 -6.030731E-13
        50 -5.610512E-13  2.155942E-12 -6.208367E-13
        51  1.567878E-13 -1.333028E-11  1.993072E-12
        52 -4.381961E-12  2.420264E-11 -2.527534E-12
        53  1.344480E-12 -2.873479E-12  1.142642E-12
        54  1.526557E-14 -7.118750E-13 -1.953993E-14
        55  5.986878E-14  1.231237E-13  2.220446E-16
        56 -2.181588E-14 -5.312417E-14  1.265238E-13
        57  2.526868E-13  5.792866E-13 -1.385558E-13
        58  1.738633E-12 -5.155083E-14 -2.794346E-13
        59  1.232042E-12  1.595578E-12 -1.956213E-13
        60 -1.026956E-14  9.229284E-13  6.732392E-13
        61  1.481925E-12 -2.907521E-12 -1.627587E-13
        62  1.844871E-12 -2.882236E-12 -3.486100E-14
        63 -2.067897E-12  7.486650E-13  7.287504E-13
        64  8.785091E-13  7.371881E-13 -2.771117E-13
        65  3.584105E-12  5.096146E-12 -8.837375E-14
        66 -8.501949E-13 -4.311329E-12  3.204215E-12
        67  2.288253E-12  1.939060E-12 -1.444178E-12
        68 -6.773054E-14 -4.807266E-14 -7.993606E-14
        69  1.058875E-14 -3.010092E-13  1.243450E-14
        70  1.042777E-13 -3.550098E-12 -1.285638E-13
        71  1.840333E-12 -3.917144E-13  2.181033E-13
        72  4.332881E-12 -4.436992E-12  2.176037E-14
        73 -1.179651E-13 -5.521535E-12 -6.798728E-13
        74  3.416619E-12  1.300224E-12 -1.910028E-12
       149 -1.321512E-12  8.534784E-12 -1.641354E-12
       150 -1.060929E-12 -3.987366E-13  6.039613E-14
       151 -2.550737E-14  8.429368E-14  5.434542E-14
       152  7.278758E-13 -1.829752E-12  1.649869E-13
       153 -6.477388E-13  5.800360E-13  2.273515E-12
       154  1.286346E-12  1.506018E-12  7.145395E-13
       155 -7.161563E-13  1.210701E-11 -1.711964E-13
       156  2.419458E-13 -4.899442E-12  2.153000E-12
       157 -7.087386E-13  1.098088E-11  8.526513E-13
       158 -7.155387E-13 -4.584721E-12  9.183765E-13
       159 -4.849851E-12 -2.607803E-12  7.898127E-13
       160 -1.168891E-12  1.236622E-12 -4.463208E-12
       161 -5.167008E-13 -2.360377E-11 -1.637357E-12
       162 -1.451200E-12  1.672378E-12 -9.836576E-14
       163 -3.085830E-12  5.663262E-12 -1.941780E-13
       164 -3.958700E-12  1.258303E-11  1.134204E-12

 stresses (elem, integ.pnt.,sxx,syy,szz,sxy,sxz,syz) for set EALL and time  0.1000000E+01

        37   1 -1.951697E-01 -4.569469E+00  2.793137E+02 -1.806906E+00 -1.348240E+00 -4.760068E-01
        37   2  9.730286E+00  1.155801E+01  2.627915E+02 -8.467786E-01 -9.407111E-01  8.136590E+00
        37   3  1.043609E+01  1.204011E+01  2.594899E+02 -2.111011E-01  9.350170E-01  9.628503E+00
        37   4 -1.079063E+01 -8.968623E+00 -6.759725E+01 -4.963335E-01  1.671438E+00  1.503018E+01
        38   1  1.999810E+00  2.134343E+00  1.669476E+02 -3.132133E+00 -3.007423E+00  1.440398E+01
        38   2 -2.900795E+00  1.640305E+01 -1.776581E+02 -1.361220E+01  4.896653E+00  9.935523E+00
        38   3 -1.597161E+00 -1.464278E+01 -1.634757E+02  4.539403E+00 -2.917678E+00  7.437566E+00
        38   4  2.011605E+01  5.509414E+01  1.876147E+02 -1.748207E+01 -1.783833E+00  1.679930E+01
        39   1  5.730738E+00 -2.198030E+00  1.709333E+02 -3.470056E+00 -1.975700E+00  4.021045E+00
        39   2 -1.128024E+01 -1.106710E+01 -9.120271E+01 -1.184556E+00  2.116241E+00  1.596492E+01
        39   3  1.093065E+01  7.273207E+00  1.482915E+02 -8.360941E-01 -3.369393E+00  1.286303E+01
        39   4 -5.860685E+00 -3.609452E+00  2.601358E+01 -7.401267E-01 -6.148786E-01  1.472913E+01
        40   1 -3.717089E+00 -4.508353E-01  1.045221E+02 -1.331232E+00  3.166633E+00  7.114273E+00
        40   2 -9.216865E-01  7.347163E+00  8.853454E+01 -1.925859E+00 -5.737085E+00  1.193706E+01
        40   3  2.757036E+00 -1.774124E-01  3.318979E+01  1.258246E+00  9.909964E+00  3.534827E+00
        40   4 -5.682858E-01 -6.941724E+00 -5.050470E+01  1.628401E+00 -6.553338E+00  9.929148E+00
        41   1 -5.490523E+00 -4.529967E+00 -2.537227E+02 -8.027929E-01  3.450969E-01  5.542147E+00
        41   2  7.315080E-01  3.905751E-01 -2.808277E+02 -5.144240E+00  7.174470E-01  9.304347E+00
        41   3 -4.167195E+00 -4.419348E+00 -2.564170E+02  4.128451E+00 -2.695612E+00  2.463492E+00
        41   4 -4.224212E-01 -4.502461E+00  6.060813E+01 -3.167423E+00  2.154733E+00  1.145539E+01
        42   1 -9.118087E+00 -8.480336E+00 -1.697803E+02  8.775718E-01 -1.273055E-01  1.275214E+01
        42   2  4.814531E+00 -4.775610E+00  1.774165E+02  2.314355E+00  3.567110E-01  3.360240E+00
        42   3  8.137045E+00  7.259858E+00  1.566924E+02  9.186967E-01  1.680027E+00  1.182115E+01
        42   4 -8.376389E+00 -5.724070E+00 -1.630694E+02  2.372492E+00 -2.996785E-01  1.367882E+01
        43   1  1.669354E+00 -3.459153E+00 -2.383024E+02 -1.108499E+00 -3.041730E+00  3.842201E+00
        43   2 -9.840366E+00 -8.860767E+00 -2.226931E+02 -1.073447E+00  2.037726E-02  1.130166E+01
        43   3  2.671413E+00  5.461821E+00 -9.622524E+01  9.945841E-01 -2.028868E-01  1.625535E+01
        43   4 -6.542280E+00 -8.709295E+00 -2.186596E+02  2.042705E+00  5.913061E-02  9.356242E+00
        44   1  5.955987E-01 -1.692017E+00 -1.490876E+02 -4.655135E+00 -3.042228E-01  5.210544E+00
        44   2 -4.917001E+00 -5.181730E+00 -1.305467E+02 -1.391397E+00  2.207637E+00  4.195197E-01
        44   3  3.556482E+00  2.988711E+00 -6.849667E+01  2.837186E+00 -8.154840E-01  1.032744E+01
        44   4 -2.685690E+00  1.465704E+00 -1.232258E+02  2.353628E+00  1.026994E+00 -2.282890E+00
        45   1 -8.398048E-01 -7.358470E+00  6.157795E+00 -2.662067E+00  1.829609E+00  1.387095E+01
        45   2 -1.534341E+00 -2.756765E+00 -2.471248E+01 -7.012120E-01 -1.214283E-01  5.197747E+00
        45   3 -6.121027E-01 -1.918005E+00 -2.411343E+01  4.490020E+00 -1.864582E+00 -1.786286E-01
        45   4 -3.982277E-02  3.672018E+00 -4.893011E+01 -3.636346E+00  8.821563E-01  7.055084E+00
        46   1  5.425687E+00 -3.933372E+00 -1.282159E+01 -1.784984E+00  7.946792E-01  4.626970E+00
        46   2  5.945976E+00  7.417445E+00 -3.277078E+01 -5.564456E-01 -2.461149E+00  1.474828E+01
        46   3 -9.632462E+00 -1.118203E+01  2.887901E+01 -6.289320E-01 -5.495214E-01  1.273220E+01
        46   4 -1.215589E+01 -1.104246E+01  2.421282E+01 -6.577782E-02  7.698274E-01  1.170878E+01
        47   1 -4.783258E-01  4.374237E-01  1.359428E+01 -9.020446E-01 -1.184875E+00  1.629831E+01
        47   2 -5.904106E-01  8.315892E+00 -1.993354E+01  1.323198E+00 -4.463899E-01  9.990660E+00
        47   3  2.763276E+00 -9.864399E+00  3.501547E+01 -6.419359E-01  6.543240E-01  7.024147E+00
        47   4  2.691995E-01  8.203691E+00 -1.531966E+01 -1.204427E+00 -3.504012E-02  1.219977E+01
        48   1 -8.264839E+00 -7.211412E+00  1.620825E+02  1.517308E-01  2.030712E-01  1.327576E+01
        48   2 -5.988724E+00 -5.158996E+00  1.624450E+02  7.874083E-01  1.026830E+00  1.519994E+01
        48   3  7.098637E+00  8.146353E+00 -8.457599E+01  5.021760E-01  2.792026E+00  1.541849E+01
        48   4  3.228990E+00 -4.425264E+00  3.855990E+01  2.422848E+00  6.583204E-02  4.662959E+00
        49   1 -9.724225E+00  4.033662E-02 -2.920045E+02 -4.221262E+00  2.150908E+00  8.595073E+00
        49   2 -2.463776E+01  3.249452E+00 -2.953358E+02 -7.511786E+00  5.977279E+00  7.847008E+00
        49   3  4.315482E+00  2.015618E+00 -2.639150E+02 -8.525070E-01 -1.194186E+00  4.706186E+00
        49   4  6.830956E+00  4.169776E+00  6.179706E+01 -5.383152E+00 -1.926797E+00  1.231547E+01
        50   1 -3.276719E+00 -2.522985E+00  2.389245E+02  3.473797E-01 -1.230320E+00  3.405270E-01
        50   2  8.849117E+00  6.799815E+00  2.183160E+02  1.625844E+00 -7.466704E-01  7.305174E+00
        50   3  8.056543E+00  1.051201E+01  2.209472E+02 -1.103364E+00 -6.310970E-03  5.654029E+00
        50   4 -4.420915E+00 -2.738675E-01  9.823710E+01  2.557612E-01  3.399920E-01  1.084011E+01
        51   1  3.974623E+00  1.549821E+00  2.894766E+02 -9.506955E+00 -4.228351E+00  1.058133E+01
        51   2  7.046529E+00 -1.638484E+00  2.896651E+02  2.022702E+00 -4.041801E+00  1.372672E+00
        51   3 -7.825555E+00  5.646991E-01  2.543613E+02  1.014961E+00  4.119493E+00  9.639623E+00
        51   4  1.177581E+00 -4.375951E+00 -6.237114E+01  2.776502E+00 -4.931882E-01  9.669278E+00
        52   1  8.786813E-01 -2.861876E+00 -1.855790E+02 -3.387029E+00 -2.162411E+00  3.071614E+00
        52   2 -7.245408E+00 -6.741696E+00  3.727636E+01 -4.272175E-01  5.738974E-01  1.453733E+01
        52   3  7.644724E+00  1.167794E+01 -2.092105E+02  1.026578E+00  1.989024E-01  9.455214E+00
        52   4  1.079452E+01  1.281317E+01 -2.068412E+02 -4.683424E-01 -2.594617E+00  8.380743E+00
        53   1 -6.633087E+00 -9.698158E+00  1.531506E+02  1.828742E+00 -3.986305E-02  9.212208E+00
        53   2 -9.569299E+00 -8.127967E+00  1.507784E+02 -9.004276E-01  8.642407E-01  1.110014E+01
        53   3  1.503965E+00  4.642750E+00  8.301410E+01  4.582803E-01 -4.336270E-01  1.433227E+01
        53   4  5.709703E+00  2.157913E+00  1.368791E+02  1.205989E+00 -2.054477E+00  2.687804E+00
        54   1  8.782632E+00  1.184526E+01 -5.307265E+01  1.474275E-01  1.478972E-02  1.116816E+01
        54   2  9.751555E+00  9.734534E+00 -5.426276E+01  4.471671E-01  9.823737E-01  6.522918E+00
        54   3 -1.041072E+01 -6.243754E+00  3.694773E+00  7.822152E-01 -2.283977E+00  1.365840E+01
        54   4  1.738024E+00  1.947613E-01 -3.517066E+01  2.836890E-01  8.833412E-01  3.434128E+00
        55   1  3.049018E+00 -3.292155E+00 -1.983740E+01 -5.874904E-01 -3.369207E-01  4.860190E+00
        55   2 -8.144616E+00 -9.294271E+00 -9.312293E+01  2.415096E-01  1.421560E+00  1.136949E+01
        55   3  7.270816E+00  1.030515E+01  4.784925E+01  5.765576E-01 -3.212660E+00  1.434942E+01
        55   4 -9.229092E+00 -7.299094E+00 -9.220244E+01 -5.823006E-02  1.252314E+00  1.500207E+01
        56   1 -4.490027E+00 -8.770455E-01  5.710353E+01  4.420051E+00 -1.063805E+00  6.026572E-01
        56   2  1.620676E+00  1.386698E+00 -1.332177E+01 -2.989053E+00  1.805995E+00  1.378449E+01
        56   3 -3.643351E-01 -2.623740E+00  3.038104E+01 -2.365876E+00  1.773122E-01  8.673850E+00
        56   4 -4.372848E+00 -3.405858E+00  5.613814E+01 -1.758800E+00  4.246946E-01  4.847154E+00
        57   1  9.860866E-01 -2.306920E+00  2.165077E+01  3.440618E+00  1.162857E+00  7.679525E+00
        57   2 -2.228301E+00  2.977739E+00 -1.260523E+01  3.352556E+00 -3.762637E+00  1.252261E+01
        57   3  1.204020E+00  3.399148E-01  4.703012E+01 -1.736798E+00  1.304166E+00  5.590004E+00
        57   4  1.353247E+00 -8.558844E-01  2.317689E+01 -3.755479E-01  2.087279E+00  1.224185E+01
        58   1  1.116657E+01  1.100033E+01 -1.028950E+02 -3.622979E-01 -4.560031E+00  1.342140E+01
        58   2 -1.051419E+01 -1.032464E+01  4.217051E+01 -6.328852E-01  2.447549E+00  1.665724E+01
        58   3  5.543232E+00 -2.810653E+00 -7.918244E+01 -4.075993E+00 -3.528423E+00  5.329626E+00
        58   4 -3.519168E+00 -1.164462E+00 -3.217819E+01  1.759767E-01  1.043280E+00  1.603636E+01
        59   1  1.834144E+00  1.439437E+00  1.695530E+02  1.237162E+00  2.702138E+00  7.254412E+00
        59   2  1.021479E+01  1.228322E+01  1.512996E+02  6.221513E-01  3.843285E+00  1.377522E+01
        59   3 -1.014414E+01 -8.430904E+00 -9.185659E+01  8.912707E-01 -1.858896E+00  1.689387E+01
        59   4 -4.026414E+00  2.066048E-01  2.739778E+01  1.433574E+00  1.244744E+00  1.620143E+01
        60   1 -1.706090E+00  2.393233E+00  2.490727E+02  1.943824E+00 -1.187545E+00 -2.391626E+00
        60   2 -4.017299E+00 -6.072603E+00  2.446623E+02 -2.095918E+00  8.048308E-01  6.448601E-01
        60   3  3.569405E+00  9.759662E-01  1.090257E+02  2.449679E+00 -8.835603E-01  9.361670E+00
        60   4  1.495456E+00 -2.040791E+00  2.235049E+02 -4.645873E+00  8.550236E-02  5.304217E+00
        61   1 -6.597048E+00  1.406532E+00  1.053661E+02  3.666131E-01 -4.338225E+00  4.901053E+00
        61   2  1.194175E+00 -3.946801E+00 -5.103920E+01 -6.763585E-01  1.058776E+01  1.563513E+01
        61   3  4.770810E+00 -3.401089E-02  3.342681E+01 -1.055538E+00 -1.034691E+01  3.419429E+00
        61   4 -1.914919E+00  3.786115E+00  8.591587E+01 -1.228307E+00  5.253495E+00  9.005684E+00
        62   1 -7.935172E+00 -1.063695E+01  4.451091E+01  4.575961E-01 -2.085496E+00  1.585431E+01
        62   2  4.458814E+00  5.795562E-01 -8.517940E+01  2.007168E+00  7.605778E-01  3.989204E+00
        62   3 -4.963290E+00 -1.755437E+00 -3.164968E+01  5.562087E-01 -1.127487E+00  1.503117E+01
        62   4  9.842321E+00  1.101133E+01 -1.016764E+02  1.078686E-01  2.952218E+00  1.348127E+01
        63   1  2.859365E+00  4.752608E+00  1.484468E+02 -3.077013E+00  3.323354E+00  5.740862E+00
        63   2  7.115666E+00  3.457194E+00  1.301694E+02 -2.145138E+00  3.762000E-01  4.607086E+00
        63   3  3.849366E+00 -3.958934E+00  1.228131E+02  2.733151E+00  1.600684E+00 -3.378854E+00
        63   4  2.615358E+00  4.465110E+00  7.493072E+01  9.682733E-01  7.921879E-01  1.143647E+01
        64   1  1.067982E+01  1.404425E+01  9.047991E+01  1.145174E+00 -7.531095E-02  1.048382E+01
        64   2 -6.911577E+00 -3.189104E+00 -4.978795E+01  6.545063E-01 -1.140081E+00  1.666621E+01
        64   3  1.124023E+01  1.194167E+01  9.056574E+01  5.820199E-01 -2.107539E-01  9.916879E+00
        64   4 -5.044810E+00 -4.868461E+00  1.774743E+01  3.344690E+00  1.122808E-01  3.682736E+00
        65   1  7.499279E-01 -3.818082E+00  8.547988E+01 -1.869907E+00  8.472357E+00  1.163415E+01
        65   2  4.565659E+00  1.859777E-01 -2.630497E+01 -1.184402E+00 -1.159782E+01  3.418184E+00
        65   3 -5.266923E-01  5.279816E+00 -1.654048E+02 -1.295779E+00  8.290271E+00  1.372097E+01
        65   4 -6.229220E+00  2.084386E+00 -1.473915E+02  3.410090E-01 -3.618824E+00  6.217045E+00
        66   1  8.352425E+00  1.061662E+01 -1.515510E+02 -7.991087E-01 -1.205775E-01  6.228806E+00
        66   2 -4.507987E+00 -4.202629E+00 -1.311660E+02  5.287893E-02 -4.464930E-01 -8.203756E-01
        66   3 -2.506445E+00  1.561238E+00 -7.960732E+01  1.268624E+00  1.027145E+00  1.298508E+01
        66   4  9.427122E+00  8.543790E+00 -1.527045E+02  2.317132E+00 -4.665702E-01  6.259867E+00
        67   1 -2.600583E-01 -6.547101E-01 -3.559872E+01  1.668827E+00  5.916879E+00  7.639997E+00
        67   2 -3.752250E+00  5.603145E-01 -1.487355E+02 -8.228988E-01  4.221722E+00  5.115882E+00
        67   3 -4.101363E+00 -2.242931E+00  8.963996E+01  9.384546E-01 -3.475549E+00  7.822621E+00
        67   4  7.747132E+00  4.956045E-01 -1.609240E+02 -1.707610E+00 -5.589884E+00  4.161030E+00
