
                        S T E P       1


                                INCREMENT     1


 displacements (vx,vy,vz) for set NALL and time  0.1000000E+01

         1  0.000000E+00  0.000000E+00  1.355253E-20
         2  1.243034E-02  1.401161E-14 -6.058671E-15
         3  2.528089E-02  5.417999E-14 -2.349241E-14
         4  4.914651E-02  9.703910E-14 -4.567212E-14
         5  7.480466E-02  1.726858E-13 -9.085251E-14

 forces (fx,fy,fz) for set NALL and time  0.1000000E+01

         1 -5.000000E+03 -2.571121E-11  3.895106E-12
         2 -2.423295E-11  3.754330E-12  8.677503E-12
         3 -1.036824E-10  2.032034E-11 -1.432454E-11
         4 -9.301360E-11 -2.437772E-12  8.748779E-12
         5  5.000000E+03  4.345274E-12 -5.617062E-12

 stresses (elem, integ.pnt.,sxx,syy,szz,sxy,sxz,syz) for set ELALL and time  0.1000000E+01

         1   1  4.888758E+01 -6.204262E-01 -6.204262E-01 -1.084425E-01  1.084425E-01  1.510037E-12
         1   2  5.139052E+01  1.381250E+00  1.381250E+00  5.841998E-02 -5.841998E-02  1.709138E-12
         1   3  4.888758E+01 -4.960196E+00 -4.960196E+00  2.252824E-01 -2.252824E-01  5.808081E-13
         1   4  4.888758E+01 -6.204262E-01 -6.204262E-01 -1.084425E-01 -3.296098E-13  4.683286E-13
         1   5  5.139052E+01  1.381250E+00  1.381250E+00  5.841998E-02  1.842134E-13  5.142350E-13
         1   6  4.888758E+01 -4.960196E+00 -4.960196E+00  2.252824E-01 -2.861342E-13  1.734822E-13
         1   7  4.888758E+01 -6.204262E-01 -6.204262E-01 -1.084425E-01 -1.084425E-01 -5.722310E-13
         1   8  5.139052E+01  1.381250E+00  1.381250E+00  5.841998E-02  5.841998E-02 -6.774100E-13
         1   9  4.888758E+01 -4.960196E+00 -4.960196E+00  2.252824E-01  2.252824E-01 -2.365624E-13
         1  10  4.888758E+01 -6.204262E-01 -6.204262E-01  7.028951E-13  1.084425E-01  1.046780E-12
         1  11  5.139052E+01  1.381250E+00  1.381250E+00 -2.985206E-13 -5.841998E-02  1.192557E-12
         1  12  4.888758E+01 -4.960196E+00 -4.960196E+00  7.466046E-13 -2.252824E-01  4.036063E-13
         1  13  4.888758E+01 -6.204262E-01 -6.204262E-01  7.283260E-13 -2.537841E-13  7.277380E-15
         1  14  5.139052E+01  1.381250E+00  1.381250E+00 -3.567221E-13  1.935796E-13 -2.039395E-15
         1  15  4.888758E+01 -4.960196E+00 -4.960196E+00  7.030127E-13 -3.681336E-13 -1.778181E-15
         1  16  4.888758E+01 -6.204262E-01 -6.204262E-01  7.477537E-13 -1.084425E-01 -1.033020E-12
         1  17  5.139052E+01  1.381250E+00  1.381250E+00 -3.690860E-13  5.841998E-02 -1.196361E-12
         1  18  4.888758E+01 -4.960196E+00 -4.960196E+00  6.268363E-13  2.252824E-01 -4.084003E-13
         1  19  4.888758E+01 -6.204262E-01 -6.204262E-01  1.084425E-01  1.084425E-01  5.828614E-13
         1  20  5.139052E+01  1.381250E+00  1.381250E+00 -5.841998E-02 -5.841998E-02  6.815566E-13
         1  21  4.888758E+01 -4.960196E+00 -4.960196E+00 -2.252824E-01 -2.252824E-01  2.262760E-13
         1  22  4.888758E+01 -6.204262E-01 -6.204262E-01  1.084425E-01 -1.739105E-13 -4.540290E-13
         1  23  5.139052E+01  1.381250E+00  1.381250E+00 -5.841998E-02  1.945814E-13 -5.186891E-13
         1  24  4.888758E+01 -4.960196E+00 -4.960196E+00 -2.252824E-01 -3.835105E-13 -1.757305E-13
         1  25  4.888758E+01 -6.204262E-01 -6.204262E-01  1.084425E-01 -1.084425E-01 -1.492239E-12
         1  26  5.139052E+01  1.381250E+00  1.381250E+00 -5.841998E-02  5.841998E-02 -1.710790E-12
         1  27  4.888758E+01 -4.960196E+00 -4.960196E+00 -2.252824E-01  2.252824E-01 -5.757828E-13
         2   1  2.096907E+02  4.042837E+01  4.042837E+01 -8.622805E-01  8.622805E-01  3.366488E-02
         2   2  1.909598E+02 -9.302930E+00 -9.302930E+00 -1.107134E+01  1.107134E+01  1.493540E-01
         2   3  2.096136E+02  3.273675E+00  3.273675E+00 -2.128039E+01  2.128039E+01  2.650430E-01
         2   4  2.081348E+02  3.978561E+01  3.976878E+01 -8.651727E-01  1.624153E-12  3.812921E-13
         2   5  1.894473E+02 -9.844462E+00 -9.919139E+00 -1.107423E+01 -5.251604E-14  6.600791E-13
         2   6  2.081445E+02  2.833370E+00  2.700849E+00 -2.128328E+01  1.489670E-12 -6.273422E-13
         2   7  2.096907E+02  4.042837E+01  4.042837E+01 -8.622805E-01 -8.622805E-01 -3.366488E-02
         2   8  1.909598E+02 -9.302930E+00 -9.302930E+00 -1.107134E+01 -1.107134E+01 -1.493540E-01
         2   9  2.096136E+02  3.273675E+00  3.273675E+00 -2.128039E+01 -2.128039E+01 -2.650430E-01
         2  10  2.081348E+02  3.976878E+01  3.978561E+01  9.341967E-13  8.651727E-01  6.341609E-13
         2  11  1.894473E+02 -9.919139E+00 -9.844462E+00  5.430176E-14  1.107423E+01  1.120978E-12
         2  12  2.081445E+02  2.700849E+00  2.833370E+00  1.248731E-12  2.128328E+01 -1.050703E-12
         2  13  2.065790E+02  3.912602E+01  3.912602E+01  2.848701E-13  1.027874E-12 -2.257803E-14
         2  14  1.879348E+02 -1.046067E+01 -1.046067E+01 -4.330229E-13 -5.485516E-13 -3.891302E-14
         2  15  2.066754E+02  2.260544E+00  2.260544E+00  7.980826E-14  5.518420E-13  4.612230E-14
         2  16  2.081348E+02  3.976878E+01  3.978561E+01  1.094653E-13 -8.651727E-01 -6.788561E-13
         2  17  1.894473E+02 -9.919139E+00 -9.844462E+00 -8.051006E-13 -1.107423E+01 -1.198734E-12
         2  18  2.081445E+02  2.700849E+00  2.833370E+00  3.655567E-13 -2.128328E+01  1.129419E-12
         2  19  2.096907E+02  4.042837E+01  4.042837E+01  8.622805E-01  8.622805E-01 -3.366488E-02
         2  20  1.909598E+02 -9.302930E+00 -9.302930E+00  1.107134E+01  1.107134E+01 -1.493540E-01
         2  21  2.096136E+02  3.273675E+00  3.273675E+00  2.128039E+01  2.128039E+01 -2.650430E-01
         2  22  2.081348E+02  3.978561E+01  3.976878E+01  8.651727E-01  6.129749E-13 -4.228671E-13
         2  23  1.894473E+02 -9.844462E+00 -9.919139E+00  1.107423E+01 -1.447221E-12 -7.285337E-13
         2  24  2.081445E+02  2.833370E+00  2.700849E+00  2.128328E+01 -3.652992E-13  7.314799E-13
         2  25  2.096907E+02  4.042837E+01  4.042837E+01  8.622805E-01 -8.622805E-01  3.366488E-02
         2  26  1.909598E+02 -9.302930E+00 -9.302930E+00  1.107134E+01 -1.107134E+01  1.493540E-01
         2  27  2.096136E+02  3.273675E+00  3.273675E+00  2.128039E+01 -2.128039E+01  2.650430E-01
