
                        S T E P       1


                                INCREMENT     1


 displacements (vx,vy,vz) for set GLOBAL and time  0.1000000E+01

         1  0.000000E+00  0.000000E+00  0.000000E+00
         2  0.000000E+00  5.517241E-07 -2.488159E-21
         3  1.724138E-06  5.517241E-07  6.871961E-22
         4  3.448276E-06  5.517241E-07  9.274349E-21
         5  5.172414E-06  5.517241E-07  1.911780E-20
         6  5.172414E-06 -1.980932E-20  2.308165E-20
         7  3.448276E-06 -1.291725E-20  1.308931E-20
         8  1.724138E-06 -4.953278E-21  4.824117E-21
         9  0.000000E+00  0.000000E+00 -5.517241E-07
        10  0.000000E+00  5.517241E-07 -5.517241E-07
        11  1.724138E-06  5.517241E-07 -5.517241E-07
        12  3.448276E-06  5.517241E-07 -5.517241E-07
        13  5.172414E-06  5.517241E-07 -5.517241E-07
        14  5.172414E-06 -2.613559E-20 -5.517241E-07
        15  3.448276E-06 -1.518042E-20 -5.517241E-07
        16  1.724138E-06 -7.510800E-21 -5.517241E-07

 forces (fx,fy,fz) for set GLOBAL and time  0.1000000E+01

         1 -6.250000E+00  5.246921E-15 -2.439473E-15
         2 -6.250000E+00 -6.155379E-16 -4.053528E-16
         3 -2.744754E-16  3.763249E-15  2.153444E-15
         4 -6.055599E-15 -4.999781E-16  6.733641E-16
         5  6.250000E+00 -8.179280E-15 -4.369173E-15
         6  6.250000E+00  2.495722E-15 -4.109382E-15
         7 -1.886759E-14  1.774725E-15  1.766030E-15
         8  1.103740E-14 -2.765215E-15  2.289651E-15
         9 -6.250000E+00  6.372301E-15 -3.228087E-16
        10 -6.250000E+00 -4.677750E-16  4.235257E-16
        11  1.606743E-15  1.449902E-15 -2.516902E-15
        12 -7.253932E-15 -1.372889E-15  7.198921E-16
        13  6.250000E+00 -7.400368E-15  4.541808E-15
        14  6.250000E+00  3.356428E-16  1.047255E-15
        15 -1.825039E-14  7.388911E-16  2.547007E-15
        16  4.557665E-15 -8.763113E-16 -1.998885E-15

 stresses (elem, integ.pnt.,sxx,syy,szz,sxy,sxz,syz) for set OUT_CONT and time  0.1000000E+01

         7   1  1.000000E+02  2.131628E-14  7.105427E-14  2.589062E-15  9.595295E-15  2.902819E-14
         7   2  1.000000E+02 -7.105427E-15 -1.421085E-14 -3.217721E-14  1.163066E-15  1.361757E-14
         8   1  1.000000E+02  8.526513E-14  3.552714E-14 -5.524564E-14  2.035366E-14 -9.013762E-15
         8   2  1.000000E+02  7.105427E-14 -3.552714E-14 -8.374076E-14  1.279373E-14 -2.442439E-14
         9   1  1.000000E+02 -9.947598E-14 -4.973799E-14 -5.031448E-14  2.209826E-14  1.240604E-14
         9   2  1.000000E+02 -4.263256E-14 -6.394885E-14 -4.890694E-14  3.605505E-14 -3.004587E-15
        10   1  1.000000E+02 -3.552714E-14 -1.421085E-14 -5.728100E-14 -4.943031E-15 -3.876887E-15
        10   2  1.000000E+02 -2.842171E-14 -6.394885E-14 -3.721811E-14 -8.141463E-15 -3.586120E-15
        11   1  1.000000E+02  9.237056E-14  6.394885E-14 -5.397400E-14 -1.744599E-14 -1.286636E-14
        11   2  1.000000E+02  4.263256E-14  4.973799E-14 -3.572729E-14 -6.978396E-15 -1.170329E-14
        12   1  1.000000E+02  4.973799E-14  6.394885E-14 -6.077020E-14 -1.599216E-14 -3.779965E-15
        12   2  1.000000E+02  6.394885E-14  2.842171E-14 -5.350104E-14 -5.815330E-15 -2.326132E-15
