
                        S T E P       1


                                INCREMENT     1


 displacements (vx,vy,vz) for set NALL and time  0.1000000E+01

         1  0.000000E+00  0.000000E+00  0.000000E+00
         2  0.000000E+00  0.000000E+00  0.000000E+00
         3  0.000000E+00  0.000000E+00 -1.414996E-05
         4  0.000000E+00  0.000000E+00 -1.414996E-05
         5  0.000000E+00  0.000000E+00  0.000000E+00
         6  0.000000E+00  0.000000E+00  0.000000E+00
         7  0.000000E+00  0.000000E+00 -1.414996E-05
         8  0.000000E+00  0.000000E+00 -1.414996E-05
         9  0.000000E+00  0.000000E+00  8.571368E-05
        10  0.000000E+00  0.000000E+00  8.571368E-05
        11  2.627485E-05  9.716924E-21 -1.011036E-06
        12  9.409808E-20  2.627485E-05 -1.011036E-06
        13  0.000000E+00  0.000000E+00  8.571368E-05
        14  0.000000E+00  0.000000E+00  8.571368E-05
        15  1.504282E-20 -2.627485E-05 -1.011036E-06
        16 -2.627485E-05  7.504581E-20 -1.011036E-06

 stresses (elem, integ.pnt.,sxx,syy,szz,sxy,sxz,syz) for set EALL and time  0.1000000E+01

         1   1 -1.714334E+00 -1.714334E+00 -4.000000E+00  0.000000E+00  0.000000E+00  0.000000E+00
         1   2 -1.714334E+00 -1.714334E+00 -4.000000E+00  0.000000E+00  8.551472E-18  0.000000E+00
         1   3 -1.714334E+00 -1.714334E+00 -4.000000E+00  0.000000E+00  1.368236E-16  0.000000E+00
         1   4 -1.714334E+00 -1.714334E+00 -4.000000E+00  0.000000E+00  2.052353E-16  0.000000E+00
         1   5 -1.714334E+00 -1.714334E+00 -4.000000E+00  0.000000E+00  0.000000E+00  0.000000E+00
         1   6 -1.714334E+00 -1.714334E+00 -4.000000E+00  0.000000E+00  8.551472E-18  0.000000E+00
         1   7 -1.714334E+00 -1.714334E+00 -4.000000E+00  0.000000E+00  0.000000E+00  0.000000E+00
         1   8 -1.714334E+00 -1.714334E+00 -4.000000E+00  0.000000E+00  6.841178E-17  0.000000E+00
         2   1 -3.668305E+01 -3.668212E+01 -1.129830E+02  2.400680E-15  1.434726E-14  6.117689E+00
         2   2 -3.668212E+01 -3.668305E+01 -1.129830E+02  2.214903E-15  6.117689E+00 -6.990433E-16
         2   3  6.659094E+00  6.660024E+00 -8.698364E+01 -6.405845E-16 -4.969556E-16  6.119662E+00
         2   4  6.660024E+00  6.659094E+00 -8.698364E+01  1.761347E-15  6.119662E+00  4.589532E-15
         2   5 -3.668212E+01 -3.668305E+01 -1.129830E+02  6.140182E-16 -6.117689E+00  1.017413E-14
         2   6 -3.668305E+01 -3.668212E+01 -1.129830E+02  4.920089E-16  1.898647E-15 -6.117689E+00
         2   7  6.660024E+00  6.659094E+00 -8.698364E+01 -2.146132E-15 -6.119662E+00  4.051265E-15
         2   8  6.659094E+00  6.660024E+00 -8.698364E+01  5.373050E-15  4.016234E-16 -6.119662E+00
