
                        S T E P       1


 velocities (vx,vy,vz) for set NALL and time  0.1000000E+01

         1  1.000000E+00  0.000000E+00  0.000000E+00
         2  8.075001E-01 -5.978034E-18  0.000000E+00
         3  8.075001E-01 -8.009094E-17  0.000000E+00
         4  1.000000E+00  0.000000E+00  0.000000E+00
         5  1.000000E+00  0.000000E+00  0.000000E+00
         6  8.075001E-01 -5.978034E-18  0.000000E+00
         7  8.075001E-01 -8.009094E-17  0.000000E+00
         8  1.000000E+00  0.000000E+00  0.000000E+00
         9  6.300002E-01 -1.126394E-16  0.000000E+00
        10  6.300002E-01  3.293442E-17  0.000000E+00
        11  6.300002E-01 -1.126394E-16  0.000000E+00
        12  6.300002E-01  3.293442E-17  0.000000E+00
        13  4.675002E-01 -1.867156E-16  0.000000E+00
        14  4.675002E-01  1.109219E-16  0.000000E+00
        15  4.675002E-01 -1.867156E-16  0.000000E+00
        16  4.675002E-01  1.109219E-16  0.000000E+00
        17  3.200003E-01 -2.300755E-16  0.000000E+00
        18  3.200003E-01  1.257168E-16  0.000000E+00
        19  3.200003E-01 -2.300755E-16  0.000000E+00
        20  3.200003E-01  1.257168E-16  0.000000E+00
        21  1.875004E-01 -1.348867E-16  0.000000E+00
        22  1.875004E-01  3.964791E-17  0.000000E+00
        23  1.875004E-01 -1.348867E-16  0.000000E+00
        24  1.875004E-01  3.964791E-17  0.000000E+00
        25  7.000043E-02 -1.139076E-16  0.000000E+00
        26  7.000043E-02 -3.112627E-17  0.000000E+00
        27  7.000043E-02 -1.139076E-16  0.000000E+00
        28  7.000043E-02 -3.112627E-17  0.000000E+00
        29 -3.249953E-02 -7.856517E-17  0.000000E+00
        30 -3.249953E-02 -8.051936E-17  0.000000E+00
        31 -3.249953E-02 -7.856517E-17  0.000000E+00
        32 -3.249953E-02 -8.051936E-17  0.000000E+00
        33 -1.199995E-01 -7.783810E-17  0.000000E+00
        34 -1.199995E-01 -2.755714E-17  0.000000E+00
        35 -1.199995E-01 -7.783810E-17  0.000000E+00
        36 -1.199995E-01 -2.755714E-17  0.000000E+00
        37 -1.924995E-01 -5.824431E-17  0.000000E+00
        38 -1.924995E-01 -2.522035E-17  0.000000E+00
        39 -1.924995E-01 -5.824431E-17  0.000000E+00
        40 -1.924995E-01 -2.522035E-17  0.000000E+00
        41 -2.499995E-01 -5.728084E-17  0.000000E+00
        42 -2.499995E-01 -3.474052E-17  0.000000E+00
        43 -2.499995E-01 -5.728084E-17  0.000000E+00
        44 -2.499995E-01 -3.474052E-17  0.000000E+00
        45 -2.924995E-01 -4.997083E-17  0.000000E+00
        46 -2.924995E-01 -2.736390E-17  0.000000E+00
        47 -2.924995E-01 -4.997083E-17  0.000000E+00
        48 -2.924995E-01 -2.736390E-17  0.000000E+00
        49 -3.199995E-01 -4.458698E-17  0.000000E+00
        50 -3.199995E-01 -1.473283E-17  0.000000E+00
        51 -3.199995E-01 -4.458698E-17  0.000000E+00
        52 -3.199995E-01 -1.473283E-17  0.000000E+00
        53 -3.324995E-01 -2.761120E-17  0.000000E+00
        54 -3.324995E-01 -1.357852E-17  0.000000E+00
        55 -3.324995E-01 -2.761120E-17  0.000000E+00
        56 -3.324995E-01 -1.357852E-17  0.000000E+00
        57 -3.299996E-01 -1.107541E-17  0.000000E+00
        58 -3.299996E-01 -8.470597E-18  0.000000E+00
        59 -3.299996E-01 -1.107541E-17  0.000000E+00
        60 -3.299996E-01 -8.470597E-18  0.000000E+00
        61 -3.124996E-01  9.887770E-18  0.000000E+00
        62 -3.124996E-01  1.169814E-17  0.000000E+00
        63 -3.124996E-01  9.887770E-18  0.000000E+00
        64 -3.124996E-01  1.169814E-17  0.000000E+00
        65 -2.799997E-01  1.216386E-17  0.000000E+00
        66 -2.799997E-01  1.482853E-17  0.000000E+00
        67 -2.799997E-01  1.216386E-17  0.000000E+00
        68 -2.799997E-01  1.482853E-17  0.000000E+00
        69 -2.324998E-01  2.174947E-17  0.000000E+00
        70 -2.324998E-01  2.242321E-17  0.000000E+00
        71 -2.324998E-01  2.174947E-17  0.000000E+00
        72 -2.324998E-01  2.242321E-17  0.000000E+00
        73 -1.699998E-01  2.177263E-17  0.000000E+00
        74 -1.699998E-01  2.436254E-17  0.000000E+00
        75 -1.699998E-01  2.177263E-17  0.000000E+00
        76 -1.699998E-01  2.436254E-17  0.000000E+00
        77 -9.249992E-02  1.402991E-17  0.000000E+00
        78 -9.249992E-02  1.061066E-17  0.000000E+00
        79 -9.249992E-02  1.402991E-17  0.000000E+00
        80 -9.249992E-02  1.061066E-17  0.000000E+00
        81  0.000000E+00  0.000000E+00  0.000000E+00
        82  0.000000E+00  0.000000E+00  0.000000E+00
        83  0.000000E+00  0.000000E+00  0.000000E+00
        84  0.000000E+00  0.000000E+00  0.000000E+00

 static temperatures for set NALL and time  0.1000000E+01

         1  1.000000E+00
         2  1.130947E+00
         3  1.130947E+00
         4  1.000000E+00
         5  1.000000E+00
         6  1.130947E+00
         7  1.130947E+00
         8  1.000000E+00
         9  1.227590E+00
        10  1.227590E+00
        11  1.227590E+00
        12  1.227590E+00
        13  1.295276E+00
        14  1.295276E+00
        15  1.295276E+00
        16  1.295276E+00
        17  1.338897E+00
        18  1.338897E+00
        19  1.338897E+00
        20  1.338897E+00
        21  1.362890E+00
        22  1.362890E+00
        23  1.362890E+00
        24  1.362890E+00
        25  1.371236E+00
        26  1.371236E+00
        27  1.371236E+00
        28  1.371236E+00
        29  1.367462E+00
        30  1.367462E+00
        31  1.367462E+00
        32  1.367462E+00
        33  1.354645E+00
        34  1.354645E+00
        35  1.354645E+00
        36  1.354645E+00
        37  1.335408E+00
        38  1.335408E+00
        39  1.335408E+00
        40  1.335408E+00
        41  1.311923E+00
        42  1.311923E+00
        43  1.311923E+00
        44  1.311923E+00
        45  1.285914E+00
        46  1.285914E+00
        47  1.285914E+00
        48  1.285914E+00
        49  1.258654E+00
        50  1.258654E+00
        51  1.258654E+00
        52  1.258654E+00
        53  1.230966E+00
        54  1.230966E+00
        55  1.230966E+00
        56  1.230966E+00
        57  1.203223E+00
        58  1.203223E+00
        59  1.203223E+00
        60  1.203223E+00
        61  1.175353E+00
        62  1.175353E+00
        63  1.175353E+00
        64  1.175353E+00
        65  1.146830E+00
        66  1.146830E+00
        67  1.146830E+00
        68  1.146830E+00
        69  1.116680E+00
        70  1.116680E+00
        71  1.116680E+00
        72  1.116680E+00
        73  1.083483E+00
        74  1.083483E+00
        75  1.083483E+00
        76  1.083483E+00
        77  1.045364E+00
        78  1.045364E+00
        79  1.045364E+00
        80  1.045364E+00
        81  1.000000E+00
        82  1.000000E+00
        83  1.000000E+00
        84  1.000000E+00

 viscous stresses (elem, integ.pnt.,sxx,syy,sz    z,sxy,sxz,syz) for set EALL and time  0.1000000E+01

         1   1  8.881784E-15  8.655973E-16  0.000000E+00  3.849998E+00  0.000000E+00 -1.566190E-16
         1   2 -2.886580E-15  8.655973E-16  0.000000E+00  3.849998E+00  4.773959E-15 -5.845100E-16
         1   3  0.000000E+00  2.577161E-15  0.000000E+00  3.849998E+00  0.000000E+00 -1.566190E-16
         1   4 -1.110223E-14  2.577161E-15  0.000000E+00  3.849998E+00  4.440892E-15 -5.845100E-16
         1   5  6.217249E-15  8.655973E-16  0.000000E+00  3.849998E+00  8.881784E-16 -1.566190E-16
         1   6 -4.551914E-15  8.655973E-16  0.000000E+00  3.849998E+00  4.440892E-15 -5.845100E-16
         1   7  0.000000E+00  2.577161E-15  0.000000E+00  3.849998E+00  8.881784E-16 -1.566190E-16
         1   8 -1.154632E-14  2.577161E-15  0.000000E+00  3.849998E+00  4.440892E-15 -5.845100E-16
         2   1 -4.884981E-15  2.409443E-15  0.000000E+00  3.549998E+00  4.662937E-15 -2.768764E-16
         2   2  5.329071E-15  2.409443E-15  0.000000E+00  3.549998E+00  2.664535E-15  9.914853E-16
         2   3  7.105427E-15 -2.664004E-15  0.000000E+00  3.549998E+00  4.662937E-15 -2.768764E-16
         2   4  4.440892E-15 -2.664004E-15  0.000000E+00  3.549998E+00  3.219647E-15  9.914853E-16
         2   5 -5.773160E-15  2.409443E-15  0.000000E+00  3.549998E+00  4.440892E-15 -2.768764E-16
         2   6  5.107026E-15  2.409443E-15  0.000000E+00  3.549998E+00  3.996803E-15  9.914853E-16
         2   7  7.105427E-15 -2.664004E-15  0.000000E+00  3.549998E+00  5.329071E-15 -2.768764E-16
         2   8  4.884981E-15 -2.664004E-15  0.000000E+00  3.549998E+00  2.886580E-15  9.914853E-16
         3   1  4.440892E-16  1.677655E-15  0.000000E+00  3.249998E+00  5.773160E-15  1.777086E-15
         3   2 -4.107825E-15  1.677655E-15  0.000000E+00  3.249998E+00  5.218048E-15  2.655027E-15
         3   3 -1.776357E-15 -1.834107E-15  0.000000E+00  3.249998E+00  5.773160E-15  1.777086E-15
         3   4  7.549517E-15 -1.834107E-15  0.000000E+00  3.249998E+00  5.329071E-15  2.655027E-15
         3   5  4.440892E-16  1.677655E-15  0.000000E+00  3.249998E+00  5.329071E-15  1.777086E-15
         3   6 -2.664535E-15  1.677655E-15  0.000000E+00  3.249998E+00  5.107026E-15  2.655027E-15
         3   7 -1.776357E-15 -1.834107E-15  0.000000E+00  3.249998E+00  5.329071E-15  1.777086E-15
         3   8  8.437695E-15 -1.834107E-15  0.000000E+00  3.249998E+00  5.773160E-15  2.655027E-15
         4   1 -8.881784E-16  1.242815E-15  0.000000E+00  2.949999E+00  7.327472E-15  3.099271E-15
         4   2 -2.442491E-15  1.242815E-15  0.000000E+00  2.949999E+00  8.298917E-15  3.435027E-15
         4   3  0.000000E+00 -1.002120E-16  0.000000E+00  2.949999E+00  7.216450E-15  3.099271E-15
         4   4  8.881784E-16 -1.002120E-16  0.000000E+00  2.949999E+00  7.771561E-15  3.435027E-15
         4   5 -1.776357E-15  1.242815E-15  0.000000E+00  2.949999E+00  7.549517E-15  3.099271E-15
         4   6 -3.719247E-15  1.242815E-15  0.000000E+00  2.949999E+00  8.437695E-15  3.435027E-15
         4   7  0.000000E+00 -1.002120E-16  0.000000E+00  2.949999E+00  7.105427E-15  3.099271E-15
         4   8  8.881784E-16 -1.002120E-16  0.000000E+00  2.949999E+00  7.993606E-15  3.435027E-15
         5   1  1.776357E-15 -2.275382E-15  0.000000E+00  2.649999E+00  7.327472E-15  3.174880E-15
         5   2  5.107026E-15 -2.275382E-15  0.000000E+00  2.649999E+00  7.355228E-15  2.128389E-15
         5   3 -3.108624E-15  1.910585E-15  0.000000E+00  2.649999E+00  7.549517E-15  3.174880E-15
         5   4 -4.884981E-15  1.910585E-15  0.000000E+00  2.649999E+00  7.438494E-15  2.128389E-15
         5   5  1.776357E-15 -2.275382E-15  0.000000E+00  2.649999E+00  6.883383E-15  3.174880E-15
         5   6  5.440093E-15 -2.275382E-15  0.000000E+00  2.649999E+00  7.216450E-15  2.128389E-15
         5   7 -3.996803E-15  1.910585E-15  0.000000E+00  2.649999E+00  6.661338E-15  3.174880E-15
         5   8 -4.440892E-15  1.910585E-15  0.000000E+00  2.649999E+00  7.327472E-15  2.128389E-15
         6   1 -2.886580E-15 -6.357593E-17  0.000000E+00  2.349999E+00  9.547918E-15  1.551449E-15
         6   2  1.776357E-15 -6.357593E-17  0.000000E+00  2.349999E+00  1.081080E-14  1.021710E-15
         6   3 -2.220446E-15  2.055377E-15  0.000000E+00  2.349999E+00  9.547918E-15  1.551449E-15
         6   4 -2.664535E-15  2.055377E-15  0.000000E+00  2.349999E+00  1.083855E-14  1.021710E-15
         6   5 -2.775558E-15 -6.357593E-17  0.000000E+00  2.349999E+00  9.325873E-15  1.551449E-15
         6   6  1.693090E-15 -6.357593E-17  0.000000E+00  2.349999E+00  1.043610E-14  1.021710E-15
         6   7 -3.108624E-15  2.055377E-15  0.000000E+00  2.349999E+00  9.547918E-15  1.551449E-15
         6   8 -2.442491E-15  2.055377E-15  0.000000E+00  2.349999E+00  1.043610E-14  1.021710E-15
         7   1 -1.137979E-15 -6.974268E-16  0.000000E+00  2.049999E+00  9.520162E-15  6.487457E-16
         7   2  1.956768E-15 -6.974268E-16  0.000000E+00  2.049999E+00  9.145462E-15  1.595252E-16
         7   3  1.110223E-16  1.259455E-15  0.000000E+00  2.049999E+00  9.520162E-15  6.487457E-16
         7   4 -3.469447E-15  1.259455E-15  0.000000E+00  2.049999E+00  9.138523E-15  1.595252E-16
         7   5 -1.110223E-15 -6.974268E-16  0.000000E+00  2.049999E+00  9.547918E-15  6.487457E-16
         7   6  2.053913E-15 -6.974268E-16  0.000000E+00  2.049999E+00  8.992806E-15  1.595252E-16
         7   7  0.000000E+00  1.259455E-15  0.000000E+00  2.049999E+00  9.547918E-15  6.487457E-16
         7   8 -3.386180E-15  1.259455E-15  0.000000E+00  2.049999E+00  8.992806E-15  1.595252E-16
         8   1 -5.134781E-16 -4.706261E-16  0.000000E+00  1.749999E+00  8.985868E-15  9.084392E-17
         8   2 -6.522560E-16 -4.706261E-16  0.000000E+00  1.749999E+00  7.967585E-15  3.924238E-16
         8   3  3.885781E-15 -1.676946E-15  0.000000E+00  1.749999E+00  9.013623E-15  9.084392E-17
         8   4  2.706169E-15 -1.676946E-15  0.000000E+00  1.749999E+00  7.898196E-15  3.924238E-16
         8   5 -3.608225E-16 -4.706261E-16  0.000000E+00  1.749999E+00  9.214851E-15  9.084392E-17
         8   6 -4.683753E-16 -4.706261E-16  0.000000E+00  1.749999E+00  9.083012E-15  3.924238E-16
         8   7  3.885781E-15 -1.676946E-15  0.000000E+00  1.749999E+00  9.214851E-15  9.084392E-17
         8   8  2.067790E-15 -1.676946E-15  0.000000E+00  1.749999E+00  9.069134E-15  3.924238E-16
         9   1 -2.220446E-16 -6.378783E-16  0.000000E+00  1.450000E+00  7.605028E-15  4.663413E-16
         9   2 -9.714451E-17 -6.378783E-16  0.000000E+00  1.450000E+00  6.709910E-15  3.667080E-16
         9   3  0.000000E+00 -2.393450E-16  0.000000E+00  1.450000E+00  7.605028E-15  4.663413E-16
         9   4  2.220446E-16 -2.393450E-16  0.000000E+00  1.450000E+00  6.945833E-15  3.667080E-16
         9   5 -1.110223E-16 -6.378783E-16  0.000000E+00  1.450000E+00  7.549517E-15  4.663413E-16
         9   6 -9.853229E-16 -6.378783E-16  0.000000E+00  1.450000E+00  6.772360E-15  3.667080E-16
         9   7  0.000000E+00 -2.393450E-16  0.000000E+00  1.450000E+00  7.549517E-15  4.663413E-16
         9   8 -7.771561E-16 -2.393450E-16  0.000000E+00  1.450000E+00  6.827872E-15  3.667080E-16
        10   1 -4.440892E-16  5.007917E-17  0.000000E+00  1.150000E+00  5.884182E-15  3.080851E-16
        10   2 -4.996004E-16  5.007917E-17  0.000000E+00  1.150000E+00  5.537237E-15  2.475578E-16
        10   3 -1.776357E-15  2.921886E-16  0.000000E+00  1.150000E+00  5.884182E-15  3.080851E-16
        10   4  1.221245E-15  2.921886E-16  0.000000E+00  1.150000E+00  5.342948E-15  2.475578E-16
        10   5 -2.220446E-16  5.007917E-17  0.000000E+00  1.150000E+00  5.995204E-15  3.080851E-16
        10   6 -4.718448E-16  5.007917E-17  0.000000E+00  1.150000E+00  5.162537E-15  2.475578E-16
        10   7 -8.881784E-16  2.921886E-16  0.000000E+00  1.150000E+00  5.995204E-15  3.080851E-16
        10   8  2.220446E-16  2.921886E-16  0.000000E+00  1.150000E+00  5.218048E-15  2.475578E-16
        11   1  1.110223E-16 -2.929633E-16  0.000000E+00  8.500001E-01  5.107026E-15  2.255440E-16
        11   2 -5.551115E-16 -2.929633E-16  0.000000E+00  8.500001E-01  4.621303E-15  2.259285E-16
        11   3  0.000000E+00 -2.945014E-16  0.000000E+00  8.500001E-01  5.107026E-15  2.255440E-16
        11   4 -4.440892E-16 -2.945014E-16  0.000000E+00  8.500001E-01  4.371503E-15  2.259285E-16
        11   5 -1.221245E-15 -2.929633E-16  0.000000E+00  8.500001E-01  5.329071E-15  2.255440E-16
        11   6 -3.885781E-16 -2.929633E-16  0.000000E+00  8.500001E-01  4.440892E-15  2.259285E-16
        11   7  0.000000E+00 -2.945014E-16  0.000000E+00  8.500001E-01  5.329071E-15  2.255440E-16
        11   8  2.220446E-16 -2.945014E-16  0.000000E+00  8.500001E-01  4.329870E-15  2.259285E-16
        12   1  8.881784E-16 -2.766148E-16  0.000000E+00  5.500004E-01  3.441691E-15  2.413844E-16
        12   2 -1.110223E-16 -2.766148E-16  0.000000E+00  5.500004E-01  2.969847E-15  2.832263E-16
        12   3  4.440892E-16 -4.439821E-16  0.000000E+00  5.500004E-01  3.663736E-15  2.413844E-16
        12   4  9.992007E-16 -4.439821E-16  0.000000E+00  5.500004E-01  2.969847E-15  2.832263E-16
        12   5  8.881784E-16 -2.766148E-16  0.000000E+00  5.500004E-01  3.774758E-15  2.413844E-16
        12   6  7.216450E-16 -2.766148E-16  0.000000E+00  5.500004E-01  2.775558E-15  2.832263E-16
        12   7  4.440892E-16 -4.439821E-16  0.000000E+00  5.500004E-01  3.774758E-15  2.413844E-16
        12   8  1.221245E-15 -4.439821E-16  0.000000E+00  5.500004E-01  2.720046E-15  2.832263E-16
        13   1  0.000000E+00 -5.452922E-16  0.000000E+00  2.500006E-01  2.775558E-15  2.651067E-16
        13   2 -6.661338E-16 -5.452922E-16  0.000000E+00  2.500006E-01  1.915135E-15  1.737615E-16
        13   3 -8.881784E-16 -1.799112E-16  0.000000E+00  2.500006E-01  2.775558E-15  2.651067E-16
        13   4 -2.220446E-16 -1.799112E-16  0.000000E+00  2.500006E-01  1.804112E-15  1.737615E-16
        13   5 -8.881784E-16 -5.452922E-16  0.000000E+00  2.500006E-01  2.664535E-15  2.651067E-16
        13   6 -1.276756E-15 -5.452922E-16  0.000000E+00  2.500006E-01  1.887379E-15  1.737615E-16
        13   7 -8.881784E-16 -1.799112E-16  0.000000E+00  2.500006E-01  2.664535E-15  2.651067E-16
        13   8  4.440892E-16 -1.799112E-16  0.000000E+00  2.500006E-01  1.998401E-15  1.737615E-16
        14   1  4.440892E-16 -5.648320E-16  0.000000E+00 -4.999913E-02  1.776357E-15  1.161769E-16
        14   2 -6.661338E-16 -5.648320E-16  0.000000E+00 -4.999913E-02  9.992007E-16  5.019805E-17
        14   3  0.000000E+00 -3.009168E-16  0.000000E+00 -4.999913E-02  1.221245E-15  1.161769E-16
        14   4  0.000000E+00 -3.009168E-16  0.000000E+00 -4.999913E-02  5.828671E-16  5.019805E-17
        14   5 -2.220446E-16 -5.648320E-16  0.000000E+00 -4.999913E-02  1.332268E-15  1.161769E-16
        14   6  0.000000E+00 -5.648320E-16  0.000000E+00 -4.999913E-02  8.881784E-16  5.019805E-17
        14   7  0.000000E+00 -3.009168E-16  0.000000E+00 -4.999913E-02  1.776357E-15  1.161769E-16
        14   8 -4.440892E-16 -3.009168E-16  0.000000E+00 -4.999913E-02  1.110223E-15  5.019805E-17
        15   1 -1.110223E-15 -8.318118E-16  0.000000E+00 -3.499989E-01  0.000000E+00  2.436927E-17
        15   2 -6.106227E-16 -8.318118E-16  0.000000E+00 -3.499989E-01  4.718448E-16  1.978252E-17
        15   3 -8.881784E-16 -8.134648E-16  0.000000E+00 -3.499989E-01  0.000000E+00  2.436927E-17
        15   4 -6.661338E-16 -8.134648E-16  0.000000E+00 -3.499989E-01  3.053113E-16  1.978252E-17
        15   5  0.000000E+00 -8.318118E-16  0.000000E+00 -3.499989E-01  0.000000E+00  2.436927E-17
        15   6  4.440892E-16 -8.318118E-16  0.000000E+00 -3.499989E-01  3.330669E-16  1.978252E-17
        15   7 -8.881784E-16 -8.134648E-16  0.000000E+00 -3.499989E-01  0.000000E+00  2.436927E-17
        15   8 -6.661338E-16 -8.134648E-16  0.000000E+00 -3.499989E-01  3.330669E-16  1.978252E-17
        16   1  1.332268E-15 -9.826491E-17  0.000000E+00 -6.499987E-01  3.330669E-16  1.990903E-17
        16   2  7.771561E-16 -9.826491E-17  0.000000E+00 -6.499987E-01  3.885781E-16  2.484139E-17
        16   3  4.440892E-16 -1.179944E-16  0.000000E+00 -6.499987E-01  3.330669E-16  1.990903E-17
        16   4  4.440892E-16 -1.179944E-16  0.000000E+00 -6.499987E-01  6.106227E-16  2.484139E-17
        16   5  2.220446E-16 -9.826491E-17  0.000000E+00 -6.499987E-01  2.220446E-16  1.990903E-17
        16   6 -1.110223E-16 -9.826491E-17  0.000000E+00 -6.499987E-01  2.220446E-16  2.484139E-17
        16   7  4.440892E-16 -1.179944E-16  0.000000E+00 -6.499987E-01  2.220446E-16  1.990903E-17
        16   8 -8.881784E-16 -1.179944E-16  0.000000E+00 -6.499987E-01  4.440892E-16  2.484139E-17
        17   1  6.661338E-16 -3.665953E-16  0.000000E+00 -9.499986E-01  3.330669E-16  2.243941E-17
        17   2 -3.885781E-16 -3.665953E-16  0.000000E+00 -9.499986E-01  5.273559E-16  1.094473E-17
        17   3 -4.440892E-16 -3.206166E-16  0.000000E+00 -9.499986E-01  3.330669E-16  2.243941E-17
        17   4 -2.220446E-16 -3.206166E-16  0.000000E+00 -9.499986E-01  3.608225E-16  1.094473E-17
        17   5  6.661338E-16 -3.665953E-16  0.000000E+00 -9.499986E-01  2.220446E-16  2.243941E-17
        17   6 -2.775558E-16 -3.665953E-16  0.000000E+00 -9.499986E-01  3.330669E-16  1.094473E-17
        17   7 -4.440892E-16 -3.206166E-16  0.000000E+00 -9.499986E-01  2.220446E-16  2.243941E-17
        17   8 -2.220446E-16 -3.206166E-16  0.000000E+00 -9.499986E-01  3.330669E-16  1.094473E-17
        18   1  0.000000E+00 -1.712377E-17  0.000000E+00 -1.249998E+00  5.551115E-17  1.078672E-17
        18   2  1.110223E-16 -1.712377E-17  0.000000E+00 -1.249998E+00  9.714451E-17  2.184969E-17
        18   3  0.000000E+00 -6.137567E-17  0.000000E+00 -1.249998E+00  5.551115E-17  1.078672E-17
        18   4 -1.110223E-16 -6.137567E-17  0.000000E+00 -1.249998E+00  2.498002E-16  2.184969E-17
        18   5  2.220446E-16 -1.712377E-17  0.000000E+00 -1.249998E+00  0.000000E+00  1.078672E-17
        18   6 -2.498002E-16 -1.712377E-17  0.000000E+00 -1.249998E+00  5.551115E-17  2.184969E-17
        18   7  0.000000E+00 -6.137567E-17  0.000000E+00 -1.249998E+00  0.000000E+00  1.078672E-17
        18   8  4.440892E-16 -6.137567E-17  0.000000E+00 -1.249998E+00  0.000000E+00  2.184969E-17
        19   1 -1.110223E-16  3.605042E-16  0.000000E+00 -1.549998E+00  0.000000E+00  1.320018E-17
        19   2 -2.775558E-17  3.605042E-16  0.000000E+00 -1.549998E+00  1.249001E-16 -2.149370E-17
        19   3 -4.440892E-16  4.992797E-16  0.000000E+00 -1.549998E+00  0.000000E+00  1.320018E-17
        19   4  0.000000E+00  4.992797E-16  0.000000E+00 -1.549998E+00 -1.387779E-17 -2.149370E-17
        19   5 -2.220446E-16  3.605042E-16  0.000000E+00 -1.549998E+00  0.000000E+00  1.320018E-17
        19   6  2.498002E-16  3.605042E-16  0.000000E+00 -1.549998E+00  5.551115E-17 -2.149370E-17
        19   7 -4.440892E-16  4.992797E-16  0.000000E+00 -1.549998E+00  0.000000E+00  1.320018E-17
        19   8  1.110223E-16  4.992797E-16  0.000000E+00 -1.549998E+00  5.551115E-17 -2.149370E-17
        20   1 -1.110223E-16  5.322936E-16  0.000000E+00 -1.849998E+00  0.000000E+00 -2.696681E-17
        20   2  2.775558E-17  5.322936E-16  0.000000E+00 -1.849998E+00  6.938894E-18 -7.225735E-18
        20   3 -2.220446E-16  4.533293E-16  0.000000E+00 -1.849998E+00  0.000000E+00 -2.696681E-17
        20   4  0.000000E+00  4.533293E-16  0.000000E+00 -1.849998E+00  6.938894E-18 -7.225735E-18
        20   5 -1.110223E-16  5.322936E-16  0.000000E+00 -1.849998E+00  0.000000E+00 -2.696681E-17
        20   6 -1.387779E-17  5.322936E-16  0.000000E+00 -1.849998E+00  0.000000E+00 -7.225735E-18
        20   7 -2.220446E-16  4.533293E-16  0.000000E+00 -1.849998E+00  0.000000E+00 -2.696681E-17
        20   8 -5.551115E-17  4.533293E-16  0.000000E+00 -1.849998E+00  0.000000E+00 -7.225735E-18

                                INCREMENT     1

