
                        S T E P       1


                                INCREMENT     1


 displacements (vx,vy,vz) for set NALL and time  0.1000000E-03

         1 -1.861264E-19 -2.986597E-17 -4.905000E-05
         2  1.867111E-17 -2.987578E-17 -4.905000E-05
         3  1.178854E-17  4.300217E-17 -4.905000E-05
         4 -7.069396E-18  4.300883E-17 -4.905000E-05
         5 -1.840071E-19 -4.872896E-17 -4.905000E-05
         6  1.866981E-17 -4.872649E-17 -4.905000E-05
         7  1.178877E-17  2.415066E-17 -4.905000E-05
         8 -7.062729E-18  2.414727E-17 -4.905000E-05
         9  9.241957E-18 -2.987084E-17 -4.905000E-05
        10  1.523147E-17  6.568446E-18 -4.905000E-05
        11  2.360656E-18  4.300558E-17 -4.905000E-05
        12 -3.624067E-18  6.565368E-18 -4.905000E-05
        13 -1.847176E-19 -3.929842E-17 -4.905000E-05
        14  1.866964E-17 -3.929952E-17 -4.905000E-05
        15  1.178937E-17  3.357584E-17 -4.905000E-05
        16 -7.066298E-18  3.357796E-17 -4.905000E-05
        17  9.244099E-18 -4.872712E-17 -4.905000E-05
        18  1.523228E-17 -1.229010E-17 -4.905000E-05
        19  2.361278E-18  2.414824E-17 -4.905000E-05
        20 -3.625718E-18 -1.228760E-17 -4.905000E-05
        21  7.215425E-18  6.102844E-18  4.905000E-05
        22 -5.182381E-19  6.105761E-18  4.905000E-05
        23 -1.252671E-17 -5.826486E-18  4.905000E-05
        24 -4.767607E-18 -5.814349E-18  4.905000E-05
        25  7.228408E-18  1.383884E-17  4.905000E-05
        26 -5.210658E-19  1.385451E-17  4.905000E-05
        27 -1.252678E-17  1.932680E-18  4.905000E-05
        28 -4.763789E-18  1.947912E-18  4.905000E-05
        29  3.352723E-18  6.104171E-18  4.905000E-05
        30 -6.522361E-18  1.413318E-19  4.905000E-05
        31 -8.649911E-18 -5.820303E-18  4.905000E-05
        32  1.227747E-18  1.396139E-19  4.905000E-05
        33  7.221947E-18  9.977442E-18  4.905000E-05
        34 -5.213037E-19  9.970090E-18  4.905000E-05
        35 -1.252507E-17 -1.936269E-18  4.905000E-05
        36 -4.765746E-18 -1.940406E-18  4.905000E-05
        37  3.354021E-18  1.384741E-17  4.905000E-05
        38 -6.520261E-18  7.887618E-18  4.905000E-05
        39 -8.647010E-18  1.939581E-18  4.905000E-05
        40  1.224923E-18  7.888315E-18  4.905000E-05

 stresses (elem, integ.pnt.,sxx,syy,szz,sxy,sxz,syz) for set EALL and time  0.1000000E-03

         1   1  2.106236E-15  2.804451E-15  5.030744E-15  3.911578E-16 -1.833509E-15 -2.449930E-15
         1   2 -1.972316E-15 -1.341536E-15 -4.907448E-15 -6.561178E-17 -8.172812E-17  6.652419E-16
         1   3 -2.147554E-15 -1.820889E-15 -6.526840E-15 -4.818287E-16 -1.413177E-15  9.187560E-16
         1   4  4.805410E-17 -6.717679E-16 -1.871141E-16 -1.239095E-16  2.372694E-15 -1.084850E-15
         1   5  1.567286E-15  9.489192E-16  3.600892E-15  8.181616E-18 -1.367228E-15  8.772896E-16
         1   6  1.464986E-15  1.053694E-15  3.957388E-15  1.293051E-16 -2.477793E-15 -1.527341E-15
         1   7  1.286987E-15  1.986364E-15  3.828036E-15 -3.749997E-17 -5.361803E-16  2.640519E-15
         1   8 -2.938666E-15 -2.524308E-15 -6.975200E-15  5.471747E-17  2.957237E-15  1.315385E-16
         1   9  2.211332E-15  2.788590E-15  5.591146E-15  8.444703E-17 -6.381598E-15 -1.818390E-15
         1  10 -2.626272E-16 -2.834138E-16 -1.638123E-16  1.925150E-16 -3.651860E-16  7.430443E-16
         1  11  2.176195E-15  2.349914E-15  5.626879E-15  6.950091E-17 -1.017844E-15  6.907784E-16
         1  12  6.164923E-16  7.480354E-16  1.298743E-15 -1.296051E-17  4.458605E-16  3.027854E-15
         1  13  1.110194E-15  6.388140E-16  1.947718E-15 -2.436009E-16 -8.534267E-16 -7.666625E-16
         1  14  1.116747E-16 -2.582490E-16 -4.397231E-17 -6.346834E-17  7.974063E-16 -9.148880E-18
         1  15  8.781263E-16  7.152782E-16  2.434667E-15  1.056966E-16 -1.045362E-15  2.453565E-15
         1  16 -4.604131E-15 -3.946338E-15 -9.680217E-15  1.994419E-16 -7.943538E-16 -3.234168E-15
         1  17 -3.142283E-15 -3.031446E-15 -7.544180E-15  5.398674E-17 -6.712246E-16 -2.985910E-16
         1  18  2.358908E-15  2.370708E-15  5.510054E-15 -1.539563E-16 -2.105011E-16 -5.836365E-16
         1  19 -5.592249E-15 -5.901205E-15 -1.269764E-14 -9.654496E-17 -1.873493E-15 -1.844623E-16
         1  20 -7.409034E-16 -5.934156E-16 -7.560495E-16  1.141964E-16  1.420895E-15  4.389725E-16
         1  21 -5.038117E-16 -1.365593E-16 -3.699882E-16  3.654905E-16  9.823468E-16 -2.448766E-15
         1  22 -9.602712E-16 -9.815068E-16 -3.428564E-15 -3.742605E-16  1.427184E-15 -2.277080E-15
         1  23  4.492806E-16  5.295025E-16  2.936349E-16 -1.460865E-16  2.368873E-15  2.637684E-16
         1  24 -5.323593E-16 -2.450607E-16 -1.211549E-15  7.111992E-17 -3.432600E-15  1.277455E-15
         1  25  2.619707E-15  3.208491E-15  7.440521E-15  5.048645E-16 -1.566246E-15  2.608551E-15
         1  26  1.559352E-15  1.339242E-15  3.359855E-15  1.217368E-16 -1.061659E-15  1.569785E-16
         1  27 -2.029423E-15 -2.610507E-15 -5.127394E-15 -3.238788E-16  7.726428E-16  2.198694E-15
         2   1  3.629007E-15  4.492299E-15  1.097448E-14 -1.687946E-15 -1.353208E-15  1.293829E-15
         2   2 -2.014586E-16 -4.530173E-16 -1.619358E-15  1.190373E-17  1.943829E-15  9.483963E-16
         2   3  7.902784E-15  7.163916E-15  1.572626E-14  1.776894E-15 -6.835350E-15 -1.625781E-15
         2   4 -6.296810E-16 -1.356661E-15 -2.730426E-15  1.330193E-17  2.576299E-15  3.602266E-16
         2   5  2.876131E-16 -2.645589E-16  6.916249E-18  1.644317E-16 -8.414670E-17  2.673679E-16
         2   6 -4.418745E-16 -5.525892E-16 -2.094006E-16  3.172098E-16 -4.729713E-15  4.547735E-15
         2   7 -7.623164E-16 -1.580509E-16 -1.699126E-15  1.394254E-15  8.958409E-16 -2.317938E-15
         2   8 -2.391954E-15 -1.432494E-15 -4.349119E-15 -2.753267E-16 -5.396004E-15  3.388957E-16
         2   9 -5.395989E-15 -4.175575E-15 -1.052018E-14 -2.006751E-15 -5.374422E-16  2.169477E-15
         2  10  4.792081E-15  6.319504E-15  1.329458E-14 -1.406193E-16 -1.234446E-16 -2.564270E-15
         2  11 -3.075792E-15 -2.281083E-15 -8.010632E-15  8.516956E-18 -1.583297E-15  2.174872E-16
         2  12  1.298907E-15  1.988444E-15  1.341959E-15  2.227930E-16 -7.275847E-16  2.920624E-15
         2  13 -9.777638E-16 -1.610560E-15 -3.622528E-15 -6.518638E-17 -3.300191E-16 -8.802545E-16
         2  14 -5.222748E-17 -5.102162E-16 -8.802408E-16  9.542067E-18  5.918571E-16 -2.636718E-18
         2  15  3.040508E-16  2.875189E-16  1.422609E-15  8.591881E-17 -9.254896E-16  9.331899E-16
         2  16 -1.387601E-15 -1.803080E-15 -2.380220E-15  2.445865E-16  8.316903E-16  2.564470E-16
         2  17 -2.862956E-15 -3.305379E-15 -5.408039E-15 -2.708343E-17 -1.611498E-15  3.245530E-16
         2  18 -2.634069E-15 -3.197677E-15 -4.773431E-15 -3.605966E-16 -1.362844E-15 -6.437595E-16
         2  19  4.053727E-16  1.230409E-16  5.139078E-15  1.280779E-15  1.076767E-15 -4.641564E-15
         2  20 -4.521659E-15 -5.154568E-15 -8.594930E-15 -1.207985E-16 -3.078297E-15 -3.685548E-16
         2  21 -1.308261E-16 -4.867706E-16  1.504552E-15 -1.457236E-15 -4.003615E-15  5.804924E-15
         2  22  1.632935E-15  1.208170E-15  2.275347E-15 -1.420262E-16 -1.076635E-15  1.438838E-15
         2  23  1.038023E-16 -1.461563E-16 -7.242139E-16 -1.436991E-16 -3.267777E-15  6.247820E-16
         2  24  1.802400E-15  1.993898E-15  4.696428E-15 -1.437237E-16  2.457199E-15  4.174106E-15
         2  25  4.237850E-16  1.690141E-15 -7.732990E-17 -7.758556E-16 -4.187835E-15 -8.614987E-16
         2  26  1.155138E-15  2.012413E-15  1.306019E-15  3.503856E-16  3.110506E-15  1.891776E-15
         2  27  1.640929E-15  1.994881E-15  1.802251E-15  1.414783E-15  8.109291E-16  2.577496E-15

                                INCREMENT     2


 displacements (vx,vy,vz) for set NALL and time  0.2000000E-03

         1 -5.884921E-19 -8.973232E-17 -1.962000E-04
         2  5.611933E-17 -8.981098E-17 -1.962000E-04
         3  3.546113E-17  1.292498E-16 -1.962000E-04
         4 -2.126597E-17  1.292726E-16 -1.962000E-04
         5 -5.377987E-19 -1.464172E-16 -1.962000E-04
         6  5.607245E-17 -1.464254E-16 -1.962000E-04
         7  3.542206E-17  7.259831E-17 -1.962000E-04
         8 -2.123142E-17  7.254366E-17 -1.962000E-04
         9  2.776792E-17 -8.976938E-17 -1.962000E-04
        10  4.577085E-17  1.974579E-17 -1.962000E-04
        11  7.096969E-18  1.292586E-16 -1.962000E-04
        12 -1.088031E-17  1.972324E-17 -1.962000E-04
        13 -5.659634E-19 -1.181022E-16 -1.962000E-04
        14  5.609398E-17 -1.180983E-16 -1.962000E-04
        15  3.544384E-17  1.009070E-16 -1.962000E-04
        16 -2.124621E-17  1.009328E-16 -1.962000E-04
        17  2.776481E-17 -1.464263E-16 -1.962000E-04
        18  4.579423E-17 -3.694829E-17 -1.962000E-04
        19  7.095946E-18  7.257630E-17 -1.962000E-04
        20 -1.089973E-17 -3.693387E-17 -1.962000E-04
        21  2.169105E-17  1.837922E-17  1.962000E-04
        22 -1.596809E-18  1.834547E-17  1.962000E-04
        23 -3.762484E-17 -1.748760E-17  1.962000E-04
        24 -1.428942E-17 -1.749478E-17  1.962000E-04
        25  2.168089E-17  4.159274E-17  1.962000E-04
        26 -1.573846E-18  4.164006E-17  1.962000E-04
        27 -3.758106E-17  5.775289E-18  1.962000E-04
        28 -1.432253E-17  5.792831E-18  1.962000E-04
        29  1.006317E-17  1.836322E-17  1.962000E-04
        30 -1.959788E-17  4.202284E-19  1.962000E-04
        31 -2.597160E-17 -1.749066E-17  1.962000E-04
        32  3.679500E-18  4.137610E-19  1.962000E-04
        33  2.168683E-17  2.998319E-17  1.962000E-04
        34 -1.585518E-18  2.998117E-17  1.962000E-04
        35 -3.760417E-17 -5.844391E-18  1.962000E-04
        36 -1.430544E-17 -5.848357E-18  1.962000E-04
        37  1.006719E-17  4.161216E-17  1.962000E-04
        38 -1.961299E-17  2.371686E-17  1.962000E-04
        39 -2.596705E-17  5.786894E-18  1.962000E-04
        40  3.691897E-18  2.372448E-17  1.962000E-04

 stresses (elem, integ.pnt.,sxx,syy,szz,sxy,sxz,syz) for set EALL and time  0.2000000E-03

         1   1  4.498451E-15  9.753781E-15  1.281376E-14  3.142709E-15 -3.618115E-15 -3.735053E-15
         1   2  2.327533E-14  2.608851E-14  4.611549E-14 -6.286040E-16 -1.903168E-14 -1.990710E-15
         1   3  2.334953E-14  2.455616E-14  3.856297E-14 -4.936522E-15 -2.545475E-14 -4.592116E-15
         1   4  7.066762E-15  1.434209E-15  1.108838E-14  4.956541E-16 -1.926368E-14  2.699498E-15
         1   5  9.104439E-15  5.966512E-15  2.444350E-14  1.545678E-15 -1.213948E-14  3.203599E-15
         1   6 -3.455063E-15 -3.732261E-15  4.958880E-15  2.628600E-15 -5.329131E-15  7.302342E-16
         1   7 -2.590856E-15  1.895649E-15 -2.085620E-16 -3.559121E-15 -1.028013E-14  4.208226E-15
         1   8 -5.348846E-15 -3.070573E-15 -1.106392E-14 -1.851063E-15  4.057039E-15  1.009173E-15
         1   9 -5.052511E-15 -5.085857E-15 -1.513714E-14  4.593962E-16 -3.264861E-15  1.234669E-14
         1  10  2.080837E-14  2.290903E-14  5.865171E-14  5.335976E-16  9.833605E-16  3.763748E-15
         1  11  2.426707E-14  2.270140E-14  5.678100E-14 -3.883932E-17  8.013162E-17 -5.038740E-16
         1  12  9.433584E-15  5.037178E-15  1.501384E-14 -1.147881E-15 -8.243691E-16 -9.139435E-15
         1  13 -3.061393E-15 -6.654048E-15 -1.429876E-14 -9.496322E-16 -1.841437E-15 -1.353750E-15
         1  14  7.827195E-16 -3.153118E-16  2.986253E-15  1.903914E-16  8.952826E-15  2.227512E-15
         1  15  2.754693E-15  4.517390E-15  1.712329E-14  1.363313E-15 -2.967697E-15  3.356431E-15
         1  16 -3.390846E-14 -3.051409E-14 -7.624738E-14  9.792326E-16 -2.476980E-15 -1.276535E-14
         1  17  3.259449E-16  2.736262E-15 -1.927369E-15 -3.315864E-16 -1.877768E-15 -4.345434E-15
         1  18  5.186343E-15  6.509219E-15  3.508669E-15 -1.040004E-15 -1.963971E-15 -7.134873E-15
         1  19  1.134644E-14  1.752576E-14  3.712197E-14 -2.000028E-15  5.083874E-15 -3.487360E-15
         1  20  3.232578E-14  3.361459E-14  7.670273E-14  6.264108E-16  7.239981E-15 -1.529479E-15
         1  21 -4.393652E-15 -7.159746E-15 -1.556165E-14  2.716245E-15  2.024317E-14 -2.161259E-14
         1  22  1.997498E-15  9.908442E-16 -4.795559E-15 -2.362020E-15 -1.556972E-14 -2.916528E-15
         1  23  2.722223E-15  4.210192E-15  4.925755E-15 -1.131996E-15 -1.419832E-14  2.707008E-15
         1  24 -1.298588E-15  3.050109E-15  4.794502E-15  1.309253E-16 -1.196832E-14  5.308699E-15
         1  25 -2.549951E-14 -2.933842E-14 -5.344978E-14  5.507898E-15 -1.049957E-14  1.872588E-14
         1  26 -1.338259E-14 -1.698137E-14 -3.187743E-14  1.178203E-15 -1.374409E-14 -5.820678E-16
         1  27  1.985002E-14  1.638797E-14  3.862020E-14 -2.549091E-15 -1.558268E-14 -2.181723E-14
         2   1 -3.588160E-16  2.822103E-15 -2.107045E-15  9.351875E-18  1.073268E-14 -1.245146E-15
         2   2 -8.415363E-16  2.399467E-15 -3.801667E-15  2.332416E-15  5.960722E-15  1.773747E-15
         2   3 -1.212745E-14 -8.399901E-15 -2.928220E-14  4.241021E-15  5.086867E-15  6.387311E-15
         2   4 -1.193878E-14 -1.133854E-14 -2.121335E-14 -2.359859E-15  2.151729E-14 -2.673953E-15
         2   5 -3.875065E-15 -5.148601E-15 -9.822176E-15 -1.715069E-15  1.651561E-14 -3.160218E-15
         2   6  5.500001E-15  2.658878E-15  5.649448E-15 -1.206230E-15  6.791846E-15  1.053640E-14
         2   7  1.003763E-14  6.168312E-15  1.909193E-14  3.058580E-15  7.672780E-15 -6.976156E-15
         2   8  3.492934E-15  2.010431E-15  1.018910E-14  4.388864E-16  1.119840E-14 -7.054502E-16
         2   9  5.448309E-15  6.538539E-15  2.173950E-14 -2.038251E-15  1.766433E-14  3.328730E-15
         2  10  5.603673E-16  1.607350E-15  6.503152E-16 -6.176892E-16 -2.180935E-17 -3.467176E-15
         2  11 -1.160164E-14 -1.110350E-14 -2.673376E-14  8.355106E-16 -3.512414E-15 -1.061418E-15
         2  12 -1.112302E-15 -7.365408E-16  1.568547E-16  1.874252E-15 -5.901614E-15  4.712487E-16
         2  13 -2.401077E-15 -9.365030E-16 -1.001274E-15 -1.295342E-15  1.250545E-15  5.744262E-15
         2  14 -7.639101E-16 -1.173114E-15 -3.427138E-15 -7.867524E-16 -4.298373E-15 -4.735196E-16
         2  15  2.800333E-15  8.235421E-16 -3.358530E-16 -4.141138E-16 -1.767639E-15 -9.206334E-15
         2  16  1.267901E-14  9.499875E-15  2.372985E-14  2.717429E-15 -7.609816E-16 -9.542435E-17
         2  17  1.070730E-14  1.052390E-14  2.629158E-14  6.951984E-16 -1.253138E-15  2.577289E-15
         2  18 -2.262390E-15  7.358709E-16  3.811090E-15 -1.184476E-15  1.545365E-15 -1.643538E-15
         2  19 -1.147341E-15 -3.547563E-15 -1.408471E-15 -1.354726E-15  1.662897E-14  3.442039E-15
         2  20  4.566293E-15  1.008305E-15  1.447952E-14 -7.713910E-16 -1.620389E-14  2.508706E-15
         2  21 -7.706757E-15 -1.199605E-14 -1.017989E-14 -6.025144E-16 -1.488300E-14  4.665455E-15
         2  22  5.942082E-16  2.956904E-15  3.911364E-15 -3.667772E-16 -1.021959E-14 -3.524645E-15
         2  23  3.193558E-15  3.682476E-15  4.908841E-15  5.612266E-18 -2.723607E-14 -1.370005E-15
         2  24  3.615131E-15  2.536464E-15  1.845478E-15  2.420503E-16  1.713005E-14 -9.142786E-16
         2  25 -1.705315E-15 -2.813423E-15 -1.273974E-14  2.214370E-15 -2.587392E-15 -5.975992E-15
         2  26  8.959550E-16  3.392510E-15  1.286540E-15  7.896032E-16 -4.882114E-15 -4.290918E-15
         2  27 -2.145725E-14 -1.517011E-14 -4.229455E-14 -4.926078E-16  7.136789E-15 -5.399385E-15

                                INCREMENT     3


 displacements (vx,vy,vz) for set NALL and time  0.3500000E-03

         1 -1.132318E-18 -1.796154E-16 -6.008625E-04
         2  1.122217E-16 -1.796291E-16 -6.008625E-04
         3  7.089779E-17  2.586554E-16 -6.008625E-04
         4 -4.244700E-17  2.586586E-16 -6.008625E-04
         5 -1.072302E-18 -2.930784E-16 -6.008625E-04
         6  1.123015E-16 -2.930928E-16 -6.008625E-04
         7  7.088809E-17  1.453146E-16 -6.008625E-04
         8 -4.242351E-17  1.451736E-16 -6.008625E-04
         9  5.554936E-17 -1.796183E-16 -6.008625E-04
        10  9.162073E-17  3.947963E-17 -6.008625E-04
        11  1.422174E-17  2.586596E-16 -6.008625E-04
        12 -2.181044E-17  3.947820E-17 -6.008625E-04
        13 -1.098379E-18 -2.363747E-16 -6.008625E-04
        14  1.122600E-16 -2.363237E-16 -6.008625E-04
        15  7.088789E-17  2.019506E-16 -6.008625E-04
        16 -4.243256E-17  2.019411E-16 -6.008625E-04
        17  5.557099E-17 -2.930783E-16 -6.008625E-04
        18  9.160421E-17 -7.391185E-17 -6.008625E-04
        19  1.427489E-17  1.452302E-16 -6.008625E-04
        20 -2.183030E-17 -7.387742E-17 -6.008625E-04
        21  4.333494E-17  3.671269E-17  6.008625E-04
        22 -3.262438E-18  3.671207E-17  6.008625E-04
        23 -7.519567E-17 -3.506360E-17  6.008625E-04
        24 -2.856041E-17 -3.498456E-17  6.008625E-04
        25  4.333729E-17  8.324987E-17  6.008625E-04
        26 -3.136519E-18  8.338105E-17  6.008625E-04
        27 -7.522029E-17  1.162075E-17  6.008625E-04
        28 -2.866510E-17  1.161817E-17  6.008625E-04
        29  2.009577E-17  3.671561E-17  6.008625E-04
        30 -3.922296E-17  8.656592E-19  6.008625E-04
        31 -5.193406E-17 -3.503148E-17  6.008625E-04
        32  7.374622E-18  8.374730E-19  6.008625E-04
        33  4.333031E-17  6.003190E-17  6.008625E-04
        34 -3.204089E-18  6.001127E-17  6.008625E-04
        35 -7.519920E-17 -1.169441E-17  6.008625E-04
        36 -2.861112E-17 -1.172554E-17  6.008625E-04
        37  2.005981E-17  8.331146E-17  6.008625E-04
        38 -3.924479E-17  4.742473E-17  6.008625E-04
        39 -5.190562E-17  1.162763E-17  6.008625E-04
        40  7.403707E-18  4.744990E-17  6.008625E-04

 stresses (elem, integ.pnt.,sxx,syy,szz,sxy,sxz,syz) for set EALL and time  0.3500000E-03

         1   1 -6.955175E-14 -6.842473E-14 -1.438500E-13  7.015002E-15 -1.652131E-14 -8.416411E-15
         1   2 -1.078533E-14 -1.133032E-14 -2.086485E-14  2.753276E-15  6.774676E-14  4.977013E-15
         1   3  3.972820E-14  4.480733E-14  1.071840E-13 -1.407120E-15  8.857351E-14 -1.808291E-15
         1   4 -1.382802E-14 -1.679823E-14 -3.764818E-14 -5.207552E-15  3.405307E-14 -5.483870E-15
         1   5  3.969259E-15  1.109198E-15 -1.322494E-15 -3.934999E-15  3.013392E-15  2.383821E-15
         1   6  1.608407E-14  1.353197E-14  2.240346E-14 -3.304964E-15 -9.644229E-15 -3.647192E-14
         1   7 -4.463020E-14 -4.041594E-14 -9.381858E-14  9.020231E-16  2.989609E-14  5.384718E-15
         1   8 -2.379455E-14 -1.844058E-14 -4.397688E-14  3.671228E-15  5.649976E-14 -6.229820E-15
         1   9  4.852360E-14  4.811675E-14  1.029889E-13  5.054063E-15  4.063660E-15 -8.741809E-15
         1  10  2.874515E-15 -9.997891E-16  2.333066E-14  6.356218E-15  3.669475E-15  6.345780E-15
         1  11 -3.703696E-14 -4.126325E-14 -8.041067E-14  3.387225E-15 -3.639080E-15  1.447487E-14
         1  12  2.850307E-14  3.122093E-14  8.622194E-14  5.195623E-16  1.154765E-14 -2.884876E-14
         1  13 -1.898659E-14 -1.998285E-14 -5.722732E-14 -5.161091E-15 -1.193356E-15  1.443391E-15
         1  14 -1.261161E-14 -1.349772E-14 -4.198517E-14 -3.718267E-15  8.263925E-15  8.358035E-15
         1  15  4.910789E-15  4.332639E-15 -7.300233E-17 -2.917963E-15 -2.473971E-15 -1.151974E-15
         1  16 -2.074784E-15  3.013439E-15  2.815964E-16  2.030032E-15 -3.866933E-15  1.186578E-14
         1  17 -5.318051E-14 -4.827260E-14 -1.101248E-13  3.847043E-15  8.126031E-15  5.525080E-15
         1  18 -1.011328E-14 -1.228621E-14 -2.379603E-14  4.277685E-15 -7.618230E-17  2.737610E-16
         1  19 -4.207552E-14 -4.106954E-14 -9.324825E-14  5.138752E-15 -1.102396E-14 -3.738175E-14
         1  20 -5.139459E-17  1.922620E-15 -2.284663E-15  3.462492E-15  1.605682E-14  1.667629E-14
         1  21 -1.061258E-14 -3.743898E-16 -9.699660E-15  1.887563E-15 -1.016167E-14  3.261367E-14
         1  22  1.894906E-14  2.046510E-14  2.320837E-14 -5.757148E-15 -2.753892E-14 -1.180712E-14
         1  23 -5.801554E-15 -4.175364E-15 -2.860735E-14 -4.144055E-15 -8.150397E-15 -7.926521E-17
         1  24 -5.858732E-15 -3.924582E-15 -2.214570E-14 -3.173481E-15 -2.892563E-14 -4.032215E-15
         1  25 -1.209740E-14 -1.494012E-14 -1.949538E-14  2.431684E-15 -1.121506E-14  1.458848E-14
         1  26 -6.946687E-14 -7.380993E-14 -1.369021E-13  3.296501E-15 -9.370447E-15  1.162548E-14
         1  27 -4.949329E-14 -6.223720E-14 -9.684333E-14  2.774948E-15 -1.922928E-14 -4.829063E-15
         2   1  2.431021E-14  2.120264E-14  4.780622E-14 -1.591036E-14 -1.915344E-14 -2.560311E-14
         2   2  1.316433E-14  7.183524E-15  8.950386E-15 -1.569968E-15 -3.138199E-14  3.065575E-15
         2   3  1.075125E-14  1.707946E-14  4.107857E-14  1.231846E-14  2.705069E-14  1.637005E-14
         2   4  9.835090E-17  5.964218E-16  1.159255E-14 -1.660058E-15 -4.018872E-14 -2.126540E-15
         2   5  9.171367E-15  6.145089E-15  2.451715E-14  9.479043E-16  1.092369E-14 -4.298950E-15
         2   6  1.458784E-15 -4.413465E-15  5.366109E-16  3.959951E-15 -6.593978E-15 -1.311307E-15
         2   7 -5.313627E-15 -3.743085E-15 -3.117732E-14  1.510557E-14 -1.306041E-14 -1.230976E-14
         2   8  4.167642E-14  5.053807E-14  1.130453E-13 -2.749749E-17 -1.025900E-14  5.850560E-15
         2   9 -9.053053E-15 -6.725767E-15 -1.682928E-14 -1.390043E-14 -2.464021E-14  2.479242E-14
         2  10  2.944948E-14  3.236858E-14  6.408191E-14 -2.094004E-15  5.968295E-15  5.642511E-15
         2  11  2.318330E-14  2.196418E-14  3.631249E-14 -1.974954E-15 -1.316120E-14 -2.623138E-15
         2  12 -6.367916E-15  3.456980E-15  4.818781E-15 -2.307873E-15 -1.841328E-14  1.202388E-14
         2  13 -5.384935E-15 -7.469924E-16 -1.839578E-15  8.714287E-16 -5.852488E-15 -1.128713E-14
         2  14  7.826799E-16  1.896273E-15  8.036860E-16  2.338443E-15  3.071843E-16 -5.252347E-15
         2  15  1.561478E-14  1.388240E-14  2.592534E-14  4.209541E-15 -4.536495E-16  5.086438E-15
         2  16  7.136796E-14  6.317437E-14  1.542039E-13  6.188999E-16  8.597782E-15  2.979847E-14
         2  17  1.736075E-14  1.772326E-14  5.606169E-14 -2.574725E-15  7.207803E-15 -2.408420E-15
         2  18  1.053530E-14  5.628437E-15  2.192531E-14 -4.508211E-15  7.654335E-15  5.288036E-14
         2  19  4.434670E-14  4.003202E-14  1.163866E-13  1.190288E-14  5.219696E-14 -2.147480E-14
         2  20  1.012141E-14  4.035175E-16  2.307969E-14 -2.199415E-15 -2.222063E-14 -4.089048E-15
         2  21 -3.712679E-14 -3.706565E-14 -5.000653E-14 -1.675368E-14 -2.406146E-14 -7.063488E-15
         2  22 -8.786978E-15 -1.612681E-15 -8.811959E-15  3.806999E-15  2.769813E-14 -2.845780E-14
         2  23 -1.209253E-14 -8.442579E-15 -3.177481E-14  4.133065E-15 -1.569701E-14  4.037508E-15
         2  24  2.446537E-16  1.048631E-15 -1.597669E-14  4.863215E-15  9.927082E-15 -5.993576E-15
         2  25 -4.472718E-14 -5.263148E-14 -1.202806E-13 -1.324013E-14  2.509185E-14 -2.148431E-14
         2  26  1.043679E-14  1.235357E-14  2.960535E-14 -4.494308E-15  1.772892E-15  6.143615E-15
         2  27  1.631849E-14  1.423089E-14  1.841441E-14  5.511653E-15 -7.258196E-15  1.970545E-14

                                INCREMENT     4


 displacements (vx,vy,vz) for set NALL and time  0.5750000E-03

         1 -2.081397E-18 -3.142449E-16 -1.621716E-03
         2  1.966160E-16 -3.145415E-16 -1.621716E-03
         3  1.242038E-16  4.522850E-16 -1.621716E-03
         4 -7.453791E-17  4.531161E-16 -1.621716E-03
         5 -2.077397E-18 -5.132242E-16 -1.621716E-03
         6  1.963018E-16 -5.126179E-16 -1.621716E-03
         7  1.242656E-16  2.544542E-16 -1.621716E-03
         8 -7.423646E-17  2.539685E-16 -1.621716E-03
         9  9.707609E-17 -3.144171E-16 -1.621716E-03
        10  1.602874E-16  6.925394E-17 -1.621716E-03
        11  2.502207E-17  4.527193E-16 -1.621716E-03
        12 -3.808044E-17  6.898182E-17 -1.621716E-03
        13 -2.116236E-18 -4.136290E-16 -1.621716E-03
        14  1.964905E-16 -4.137100E-16 -1.621716E-03
        15  1.242083E-16  3.535097E-16 -1.621716E-03
        16 -7.435551E-17  3.534269E-16 -1.621716E-03
        17  9.717565E-17 -5.129113E-16 -1.621716E-03
        18  1.603484E-16 -1.295072E-16 -1.621716E-03
        19  2.495326E-17  2.542068E-16 -1.621716E-03
        20 -3.815891E-17 -1.292244E-16 -1.621716E-03
        21  7.546305E-17  6.441942E-17  1.621716E-03
        22 -5.793299E-18  6.420089E-17  1.621716E-03
        23 -1.313704E-16 -6.124996E-17  1.621716E-03
        24 -4.988090E-17 -6.116371E-17  1.621716E-03
        25  7.567481E-17  1.455524E-16  1.621716E-03
        26 -5.546534E-18  1.454968E-16  1.621716E-03
        27 -1.317450E-16  2.038101E-17  1.621716E-03
        28 -4.977585E-17  2.058756E-17  1.621716E-03
        29  3.502496E-17  6.430493E-17  1.621716E-03
        30 -6.870320E-17  1.469471E-18  1.621716E-03
        31 -9.078436E-17 -6.119935E-17  1.621716E-03
        32  1.296066E-17  1.427303E-18  1.621716E-03
        33  7.559500E-17  1.050507E-16  1.621716E-03
        34 -5.694305E-18  1.049407E-16  1.621716E-03
        35 -1.315356E-16 -2.049224E-17  1.621716E-03
        36 -4.985219E-17 -2.038688E-17  1.621716E-03
        37  3.494982E-17  1.455550E-16  1.621716E-03
        38 -6.863986E-17  8.309258E-17  1.621716E-03
        39 -9.067749E-17  2.045170E-17  1.621716E-03
        40  1.291285E-17  8.306107E-17  1.621716E-03

 stresses (elem, integ.pnt.,sxx,syy,szz,sxy,sxz,syz) for set EALL and time  0.5750000E-03

         1   1  5.188868E-15  1.312316E-14 -4.004288E-14  2.010180E-14  5.507356E-14  5.147138E-14
         1   2  7.446197E-14  9.516391E-14  1.988814E-13 -4.141904E-15 -5.940397E-14  7.339013E-15
         1   3 -5.354129E-14 -5.840092E-14 -1.502699E-13 -2.575377E-14 -1.056164E-13  4.617486E-14
         1   4  7.270033E-15 -3.721941E-14  1.378343E-14 -8.450941E-15  8.288003E-14 -2.192360E-14
         1   5  4.825444E-14  1.269450E-14  1.435100E-13  7.504556E-15 -5.899352E-14  2.325924E-14
         1   6  2.263483E-14 -4.404497E-15  1.164643E-13  2.395982E-14 -9.210073E-14 -3.139244E-14
         1   7 -9.018153E-14 -2.574198E-14 -1.713865E-13 -1.629470E-15  1.457146E-13  1.414413E-14
         1   8  5.629518E-14  9.441591E-14  5.659745E-14 -7.965340E-15  8.590772E-14 -2.102502E-14
         1   9  2.060884E-13  2.554017E-13  4.173581E-13 -1.593351E-14 -4.903017E-14 -3.343046E-14
         1  10 -7.164415E-14 -5.770582E-14 -1.754145E-13  1.784886E-14  8.098295E-15  6.442539E-14
         1  11 -2.602156E-14 -4.552539E-15 -3.194048E-14 -4.725319E-15 -3.152167E-14  1.147382E-14
         1  12 -1.103558E-13 -1.196853E-13 -3.194630E-13 -2.466767E-14  8.421258E-15 -1.107199E-13
         1  13 -9.309159E-15 -2.003029E-14 -5.433833E-14 -1.421646E-14  1.871511E-14 -7.824690E-14
         1  14 -1.180025E-14 -1.359188E-14 -3.038589E-14  2.892144E-15  3.232121E-14  6.377160E-15
         1  15  1.926303E-14  2.599201E-14  7.049713E-14  2.050052E-14  1.821674E-14  1.956981E-14
         1  16 -3.515853E-14 -3.416750E-14 -2.079781E-14  4.797519E-15 -4.948124E-14 -7.204988E-14
         1  17 -5.706651E-14 -7.715736E-14 -1.541084E-13 -9.016487E-16 -1.631102E-16 -1.404428E-14
         1  18  2.942625E-14  2.576493E-14  9.055415E-14 -8.233115E-15  3.457998E-14  2.507201E-14
         1  19 -2.535330E-13 -2.685808E-13 -5.209260E-13  2.084624E-14 -1.229491E-13  1.132616E-14
         1  20  1.801411E-14  5.260061E-15  1.094394E-13 -5.842612E-17 -7.858250E-14  3.510123E-14
         1  21  3.153302E-14 -1.725649E-14  9.975018E-15 -1.833126E-14  7.415883E-14 -2.027469E-14
         1  22  2.807675E-14  5.302126E-14  1.561158E-15 -1.948221E-14 -1.568077E-14 -9.225534E-14
         1  23 -1.788985E-14  1.598417E-14 -8.026056E-14 -1.220500E-15 -6.952693E-14  1.336618E-14
         1  24  1.567228E-14  5.806690E-14  2.212175E-14  1.754098E-14  3.207056E-14  5.844537E-14
         1  25 -5.613111E-14 -7.980379E-14 -8.631696E-14  6.973737E-15 -9.230976E-14  1.292674E-13
         1  26 -5.595866E-14 -9.547628E-14 -1.365035E-13  1.911272E-15 -9.549944E-14  3.432159E-14
         1  27 -2.619863E-14 -4.404977E-14  7.385790E-15 -4.783492E-15 -3.081562E-14 -9.489554E-14
         2   1  1.863550E-13  2.163083E-13  4.623227E-13 -3.529568E-14 -3.804852E-14  6.486231E-15
         2   2  3.814707E-14  4.341759E-14  3.585352E-14 -1.219437E-14 -1.436836E-14 -4.326751E-15
         2   3 -1.497580E-13 -1.220917E-13 -3.263135E-13  1.352700E-14 -1.084340E-13 -8.977933E-15
         2   4 -2.045058E-14 -3.699550E-14 -6.277031E-14  1.917196E-15  9.009959E-14  1.195202E-14
         2   5 -6.501017E-15 -1.913406E-14 -1.907465E-14  2.103977E-15  3.324928E-14 -6.422872E-15
         2   6  3.368113E-15  7.316346E-16  3.538229E-14  2.072346E-15  4.802365E-14  1.280441E-13
         2   7 -4.653342E-14 -3.986999E-14 -9.422576E-14  3.279995E-14 -9.434767E-15  6.448678E-14
         2   8  1.575887E-14  2.989372E-14  7.061639E-14  8.871686E-15 -4.173133E-14 -3.045857E-15
         2   9  2.393008E-13  2.259978E-13  4.953434E-13 -1.811346E-14 -8.121636E-14 -5.347042E-14
         2  10  4.430842E-14  5.085217E-14  1.196212E-13 -8.878708E-16  2.420858E-14  9.078265E-15
         2  11 -1.199682E-13 -1.251923E-13 -3.239988E-13  1.446378E-15 -2.134074E-14 -2.722631E-14
         2  12 -8.421857E-14 -5.413193E-14 -1.439623E-13  6.400683E-15 -2.670864E-14 -1.512405E-14
         2  13  3.121012E-14  1.203390E-14  5.850970E-14 -1.706610E-15  3.734657E-14  6.090344E-14
         2  14 -1.504225E-14 -3.030659E-14 -3.637290E-14 -1.263928E-15 -3.119468E-14 -1.897987E-14
         2  15 -3.253624E-14 -3.780401E-14 -4.387032E-14 -1.039660E-15 -3.766196E-14 -3.513155E-14
         2  16  6.567847E-14  8.808794E-14  1.827394E-13  3.662130E-15  6.699467E-15  1.171071E-13
         2  17 -8.144861E-14 -6.448271E-14 -1.576206E-13  1.012734E-15 -1.915607E-14 -6.354916E-15
         2  18  3.277416E-15 -2.010954E-14 -7.335437E-14 -4.693543E-15  3.457639E-14 -9.235637E-14
         2  19 -9.357971E-14 -1.049011E-13 -2.189220E-13  2.968250E-14  1.165186E-13 -8.099657E-14
         2  20 -2.434999E-14 -3.452425E-14 -9.735113E-14  1.124969E-14  2.439185E-14  1.321297E-14
         2  21  7.742794E-14  1.154794E-13  2.570944E-13 -4.563072E-15  4.389820E-14  1.089315E-14
         2  22  6.154712E-14  4.633610E-14  1.234379E-13 -5.548828E-15  5.843157E-14  5.549993E-14
         2  23  7.634923E-15 -3.664221E-15  1.257533E-14 -4.850247E-15 -6.044770E-14  1.152415E-15
         2  24  5.424589E-16 -7.601212E-16  3.124104E-14 -4.370078E-15  3.082258E-14 -1.289606E-14
         2  25 -1.340620E-14  3.239773E-14  5.697457E-15 -2.207508E-14 -4.344055E-14  1.241296E-13
         2  26  5.038417E-14  7.782957E-14  1.409212E-13 -3.445610E-15 -5.771708E-14  2.302531E-14
         2  27 -5.460589E-14 -8.042833E-14 -2.340404E-13  1.212698E-14  2.422188E-15 -1.078360E-13

                                INCREMENT     5


 displacements (vx,vy,vz) for set NALL and time  0.9125000E-03

         1 -3.463729E-18 -5.162091E-16 -4.084179E-03
         2  3.224074E-16 -5.166556E-16 -4.084179E-03
         3  2.040296E-16  7.433919E-16 -4.084179E-03
         4 -1.220721E-16  7.439834E-16 -4.084179E-03
         5 -3.907630E-18 -8.430539E-16 -4.084179E-03
         6  3.224257E-16 -8.426005E-16 -4.084179E-03
         7  2.049209E-16  4.176789E-16 -4.084179E-03
         8 -1.212443E-16  4.170364E-16 -4.084179E-03
         9  1.590580E-16 -5.164560E-16 -4.084179E-03
        10  2.635171E-16  1.136444E-16 -4.084179E-03
        11  4.143421E-17  7.437289E-16 -4.084179E-03
        12 -6.269172E-17  1.134502E-16 -4.084179E-03
        13 -3.639863E-18 -6.796151E-16 -4.084179E-03
        14  3.225004E-16 -6.795298E-16 -4.084179E-03
        15  2.043737E-16  5.805025E-16 -4.084179E-03
        16 -1.216864E-16  5.804282E-16 -4.084179E-03
        17  1.596078E-16 -8.428521E-16 -4.084179E-03
        18  2.633313E-16 -2.126079E-16 -4.084179E-03
        19  4.144786E-17  4.173649E-16 -4.084179E-03
        20 -6.274604E-17 -2.122686E-16 -4.084179E-03
        21  1.240478E-16  1.056708E-16  4.084179E-03
        22 -9.444546E-18  1.055429E-16  4.084179E-03
        23 -2.163478E-16 -1.012728E-16  4.084179E-03
        24 -8.193614E-17 -1.005411E-16  4.084179E-03
        25  1.240216E-16  2.391127E-16  4.084179E-03
        26 -9.473466E-18  2.395503E-16  4.084179E-03
        27 -2.158785E-16  3.341006E-17  4.084179E-03
        28 -8.173391E-17  3.401021E-17  4.084179E-03
        29  5.728461E-17  1.055097E-16  4.084179E-03
        30 -1.128138E-16  2.579704E-18  4.084179E-03
        31 -1.490194E-16 -1.008303E-16  4.084179E-03
        32  2.126166E-17  2.401056E-18  4.084179E-03
        33  1.240196E-16  1.726506E-16  4.084179E-03
        34 -9.474548E-18  1.722262E-16  4.084179E-03
        35 -2.160771E-16 -3.357465E-17  4.084179E-03
        36 -8.184046E-17 -3.356057E-17  4.084179E-03
        37  5.742401E-17  2.393568E-16  4.084179E-03
        38 -1.128184E-16  1.364176E-16  4.084179E-03
        39 -1.490617E-16  3.370531E-17  4.084179E-03
        40  2.132321E-17  1.364133E-16  4.084179E-03

 stresses (elem, integ.pnt.,sxx,syy,szz,sxy,sxz,syz) for set EALL and time  0.9125000E-03

         1   1  1.811066E-13  2.058034E-13  3.892919E-13  8.562888E-14 -2.476301E-13  1.117960E-15
         1   2 -3.241381E-16  9.344376E-14  2.328501E-13  6.351087E-15  6.305346E-13  1.911849E-14
         1   3 -2.899496E-13 -2.397999E-13 -5.516771E-13 -7.340449E-14  1.087588E-13 -1.330119E-13
         1   4 -3.690411E-15 -4.342814E-14 -1.413557E-14 -3.009422E-14 -1.957469E-14  7.755866E-14
         1   5  9.197606E-14  3.997872E-14  1.534277E-13 -1.484311E-14 -8.690277E-14  5.924087E-14
         1   6  1.570970E-13  1.009121E-13  2.766249E-13 -1.298909E-15  2.256924E-13 -6.134095E-14
         1   7 -1.833643E-13 -1.279003E-13 -3.210618E-13 -3.196272E-14 -4.570526E-13  3.838711E-13
         1   8  6.235588E-15 -2.285878E-15 -1.581928E-13  1.773928E-14  1.939598E-13 -7.139858E-14
         1   9  4.268365E-13  4.831630E-13  9.731234E-13  6.450525E-14 -1.149281E-13 -1.122682E-13
         1  10  3.991135E-14  1.919626E-14  1.773228E-14  2.347488E-14  1.760978E-13  5.314038E-14
         1  11 -5.670491E-13 -5.245968E-13 -1.147151E-12  8.106383E-15  3.032061E-14  6.422948E-14
         1  12 -2.806203E-13 -2.876901E-13 -6.030898E-13 -7.739906E-15 -3.540787E-15 -3.009485E-14
         1  13  2.513162E-14  1.244384E-14  1.127264E-14 -2.741966E-14  2.950539E-14  1.765063E-14
         1  14 -5.956171E-15 -3.090356E-14 -1.021309E-13 -9.877871E-15  6.517911E-14  5.468868E-14
         1  15  5.391412E-14  2.477919E-14  2.360799E-14  5.957014E-15 -3.680641E-14 -2.282336E-13
         1  16 -1.534552E-13 -1.186354E-13 -1.727002E-13  2.073796E-14  5.511257E-15  1.573012E-13
         1  17  1.818948E-13  1.586329E-13  3.753773E-13  1.111202E-14  8.252358E-14 -7.394220E-15
         1  18  1.604310E-13  2.079209E-13  5.203340E-13 -1.449933E-15  1.488534E-13  1.384552E-13
         1  19 -1.687500E-13 -2.197477E-13 -5.263777E-13 -3.620501E-14  4.776760E-14 -3.602227E-14
         1  20 -2.686178E-13 -2.623519E-13 -5.235828E-13  1.233578E-14 -7.568532E-14  2.232157E-15
         1  21 -1.253049E-13 -1.744648E-13 -3.289975E-13  6.039879E-14  3.445730E-14 -1.096721E-13
         1  22  1.685279E-13  1.955436E-13  2.913674E-13 -2.645201E-14 -1.231919E-13 -2.162813E-13
         1  23  8.949904E-14  1.042550E-13  8.089447E-14 -6.619535E-15 -5.039147E-14 -2.632226E-14
         1  24 -6.933361E-14 -5.876514E-14 -2.888803E-13  1.150603E-14 -1.424398E-13  3.440555E-13
         1  25  6.798447E-14  9.233755E-14  4.123885E-13  6.755072E-14  5.612938E-14  1.157452E-13
         1  26 -1.602339E-13 -1.880587E-13 -3.094020E-13 -1.403146E-15 -1.039108E-13  1.517946E-14
         1  27 -3.840390E-13 -3.352082E-13 -5.914502E-13 -7.329303E-14 -2.624163E-13 -2.640053E-13
         2   1  7.240474E-13  7.697986E-13  1.632103E-12 -3.922899E-14 -7.780874E-14  1.242421E-14
         2   2  3.307678E-13  3.511367E-13  7.737775E-13 -8.319219E-15 -8.040560E-14 -2.177522E-14
         2   3  3.378127E-13  3.123343E-13  7.813264E-13  3.223663E-14 -1.176715E-14 -1.121900E-13
         2   4  1.183200E-14 -1.427644E-14  4.480316E-14 -7.393219E-16  1.732846E-13 -1.705000E-13
         2   5  9.270646E-14  5.223302E-14  2.028596E-13  1.043279E-14  2.548765E-13 -1.156600E-13
         2   6 -3.626483E-14 -7.064611E-14 -6.053359E-14  2.359328E-14  1.625073E-13  1.609999E-13
         2   7 -3.280098E-14 -1.479050E-14 -5.981393E-14  1.942086E-14 -1.347300E-14 -1.542021E-13
         2   8  1.940510E-13  2.236049E-13  3.985157E-13 -8.770917E-15 -2.283254E-14 -6.505408E-14
         2   9 -2.743255E-13 -1.718489E-13 -5.607569E-13 -4.263200E-14 -1.448541E-13 -6.058171E-14
         2  10  8.483445E-14  1.415190E-13  1.589790E-13 -1.132400E-14 -1.050386E-14  4.281019E-14
         2  11 -1.480379E-13 -9.827056E-14 -3.471115E-13 -1.288351E-14 -8.802089E-14  2.270859E-14
         2  12  2.657054E-13  2.880906E-13  5.873513E-13 -4.796946E-15  5.930796E-16 -7.878948E-14
         2  13 -1.239231E-13 -1.426421E-13 -2.621155E-13  7.049268E-15 -6.993606E-14  2.389832E-14
         2  14  5.884195E-14  2.575797E-14  1.164530E-13  1.150680E-14 -6.457571E-14 -2.983919E-14
         2  15 -3.063248E-14 -5.762431E-14 -7.201353E-14  1.795272E-14 -2.006112E-14 -2.656789E-13
         2  16  1.648088E-14 -9.155696E-16  9.574257E-14 -3.525106E-16 -6.770010E-15 -1.690609E-14
         2  17 -3.569340E-13 -3.812521E-13 -8.589667E-13 -9.504151E-15 -7.615861E-14 -6.925145E-14
         2  18  2.393506E-13  2.694901E-13  6.535536E-13 -2.432509E-14  3.371932E-14 -1.285586E-13
         2  19 -9.301011E-14 -1.107957E-13 -1.522147E-13  1.699455E-14  1.079500E-13 -5.075270E-14
         2  20 -2.705593E-13 -2.767971E-13 -5.512671E-13 -1.703424E-14 -1.103401E-14  4.808631E-14
         2  21 -8.719059E-14 -1.023455E-13 -1.763941E-13 -4.141697E-14  8.065587E-14 -2.004703E-13
         2  22 -1.493230E-13 -1.536245E-13 -3.185667E-13  1.682624E-14 -3.432529E-14  2.210240E-14
         2  23  6.965504E-14  5.098852E-14  1.272660E-13  1.456921E-14 -3.519679E-13  1.498303E-14
         2  24  4.923240E-14  3.665804E-14  8.268774E-14  1.430055E-14  6.429512E-14  6.110165E-14
         2  25 -4.638768E-13 -4.172207E-13 -1.083986E-12 -1.656267E-14 -1.460184E-15 -5.224122E-13
         2  26  2.569243E-13  2.781937E-13  5.020591E-13 -6.674166E-15 -1.499667E-13 -2.687726E-14
         2  27 -1.148528E-13 -5.759074E-14 -2.566473E-13 -2.454966E-15 -7.247462E-14  4.901675E-14

                                INCREMENT     6


 displacements (vx,vy,vz) for set NALL and time  0.1418750E-02

         1 -5.375283E-18 -8.186663E-16 -9.873037E-03
         2  5.116571E-16 -8.214393E-16 -9.873037E-03
         3  3.238813E-16  1.180135E-15 -9.873037E-03
         4 -1.925776E-16  1.181912E-15 -9.873037E-03
         5 -6.464414E-18 -1.338280E-15 -9.873037E-03
         6  5.105616E-16 -1.335890E-15 -9.873037E-03
         7  3.243408E-16  6.635695E-16 -9.873037E-03
         8 -1.944106E-16  6.610233E-16 -9.873037E-03
         9  2.531309E-16 -8.196674E-16 -9.873037E-03
        10  4.183030E-16  1.807964E-16 -9.873037E-03
        11  6.552446E-17  1.180678E-15 -9.873037E-03
        12 -9.972230E-17  1.794550E-16 -9.873037E-03
        13 -5.664266E-18 -1.078943E-15 -9.873037E-03
        14  5.110747E-16 -1.078906E-15 -9.873037E-03
        15  3.241052E-16  9.218898E-16 -9.873037E-03
        16 -1.937092E-16  9.221413E-16 -9.873037E-03
        17  2.524801E-16 -1.337329E-15 -9.873037E-03
        18  4.183246E-16 -3.377668E-16 -9.873037E-03
        19  6.467093E-17  6.625005E-16 -9.873037E-03
        20 -9.912914E-17 -3.367368E-16 -9.873037E-03
        21  1.974188E-16  1.663152E-16  9.873037E-03
        22 -1.617629E-17  1.674367E-16  9.873037E-03
        23 -3.420552E-16 -1.602104E-16  9.873037E-03
        24 -1.296749E-16 -1.580996E-16  9.873037E-03
        25  1.969518E-16  3.795330E-16  9.873037E-03
        26 -1.695902E-17  3.807048E-16  9.873037E-03
        27 -3.409902E-16  5.252840E-17  9.873037E-03
        28 -1.287957E-16  5.365198E-17  9.873037E-03
        29  8.980752E-17  1.669090E-16  9.873037E-03
        30 -1.789750E-16  3.918558E-18  9.873037E-03
        31 -2.350093E-16 -1.591683E-16  9.873037E-03
        32  3.355883E-17  3.770752E-18  9.873037E-03
        33  1.969213E-16  2.738715E-16  9.873037E-03
        34 -1.639313E-17  2.730448E-16  9.873037E-03
        35 -3.417171E-16 -5.271555E-17  9.873037E-03
        36 -1.289514E-16 -5.327078E-17  9.873037E-03
        37  9.033835E-17  3.800246E-16  9.873037E-03
        38 -1.790035E-16  2.164842E-16  9.873037E-03
        39 -2.352769E-16  5.316466E-17  9.873037E-03
        40  3.349781E-17  2.165958E-16  9.873037E-03

 stresses (elem, integ.pnt.,sxx,syy,szz,sxy,sxz,syz) for set EALL and time  0.1418750E-02

         1   1 -1.315807E-14  5.806518E-14  1.045451E-13  1.370663E-13  6.904771E-13  4.407677E-14
         1   2  3.799877E-14  1.965825E-13 -2.069859E-14  8.366642E-14  1.010863E-12  2.177299E-13
         1   3  7.673642E-13  9.410133E-13  1.195561E-12 -1.791243E-14  1.670790E-13 -2.994407E-13
         1   4 -2.523331E-13 -3.183772E-13 -8.014012E-14 -1.251407E-13  5.433604E-13  8.180745E-14
         1   5  2.794376E-13  1.909500E-13  1.051846E-12 -4.254421E-14 -2.398565E-13  3.504671E-13
         1   6  2.535772E-13  1.160157E-13  7.939252E-13  3.612915E-14 -3.395122E-13 -7.240947E-13
         1   7 -2.391440E-13 -2.576296E-13 -1.424054E-12  3.365172E-14 -1.992335E-13  1.501877E-13
         1   8  8.632136E-13  8.412117E-13  1.604203E-12 -1.481105E-14  1.032014E-13  2.161153E-13
         1   9 -1.628556E-13 -1.693394E-13 -2.704203E-13 -2.294115E-14 -8.373463E-13  5.150845E-13
         1  10  6.775909E-13  6.052727E-13  1.477735E-12  4.415720E-14  4.076554E-13  3.692525E-13
         1  11  5.771342E-13  5.411588E-13  1.246218E-12  3.958654E-14  4.146478E-14  2.638184E-14
         1  12  1.565862E-13  8.465829E-14  2.683685E-14 -1.316305E-14  1.277143E-13 -2.853293E-13
         1  13  5.100795E-14  1.530960E-13  4.255231E-13 -9.884701E-14  8.016342E-14  2.095060E-13
         1  14  1.953683E-13  2.750129E-13  6.875523E-13 -2.270332E-14  1.634288E-13  1.936695E-13
         1  15  3.337896E-13  3.643604E-13  8.469559E-13  4.951725E-14 -6.272616E-14 -3.689707E-13
         1  16  4.846741E-13  4.118830E-13  6.332591E-13  1.147826E-13 -1.772724E-13  2.424140E-13
         1  17  2.282350E-13  2.029454E-13  3.115001E-13  4.585014E-15  5.168330E-15  8.073262E-14
         1  18  8.054303E-13  8.466767E-13  1.998336E-12 -6.527993E-14 -1.218114E-13  4.931459E-13
         1  19 -1.082117E-12 -1.272613E-12 -2.892170E-12 -7.142197E-14 -4.655063E-13  1.858145E-13
         1  20  2.420764E-13  3.690512E-14  4.479864E-13 -2.716337E-14  3.194676E-13 -6.246566E-15
         1  21 -3.038141E-13 -5.959556E-13 -8.163688E-13 -3.108369E-14 -3.380728E-13 -9.732644E-13
         1  22  1.145286E-13  3.452130E-13  4.111415E-13 -7.647644E-14  7.746857E-14  3.408764E-13
         1  23  8.164708E-14  2.898880E-13  2.936065E-13 -6.785544E-15 -4.237274E-14  1.430495E-13
         1  24 -7.539325E-14  8.377380E-14 -2.024000E-13  5.898223E-14 -1.095117E-14  2.648929E-13
         1  25  9.725395E-13  7.410077E-13  2.244451E-12  2.107373E-13 -3.253144E-13  4.784243E-13
         1  26  2.505195E-13  1.175070E-13  6.568458E-13  3.880486E-14 -1.415025E-13  1.215836E-13
         1  27  8.087418E-13  7.932830E-13  2.119921E-12 -9.279493E-14  3.161704E-13 -8.613445E-13
         2   1  1.163777E-13 -5.271980E-14  1.909738E-14 -3.777229E-15  3.529629E-13  2.676443E-13
         2   2 -1.698819E-13 -1.938086E-13 -2.001801E-13  2.049246E-14  9.845327E-13  1.167820E-13
         2   3 -5.431853E-13 -5.936294E-13 -1.194854E-12  3.475972E-14  4.383742E-13  5.562944E-14
         2   4 -1.129369E-13 -1.505032E-13 -2.611780E-13 -1.460141E-14  5.658582E-13 -3.037666E-13
         2   5 -9.973208E-14 -1.393394E-13 -2.538674E-13 -1.109684E-14  3.116940E-13 -2.456864E-13
         2   6  6.341295E-14  2.990970E-14  1.304539E-13 -9.518884E-15  6.574761E-13 -8.038232E-14
         2   7  1.769315E-13  4.280837E-13  7.279425E-13  4.411898E-14 -4.822571E-13 -2.096443E-13
         2   8  5.549415E-13  6.495274E-13  1.089925E-12 -2.352196E-15 -1.086399E-14  1.099206E-13
         2   9 -4.140138E-13 -2.880159E-13 -1.064418E-12 -4.267416E-14 -3.406475E-13  2.564849E-13
         2  10  9.447725E-13  1.033697E-12  2.050708E-12  3.939550E-14 -2.172574E-14 -8.446061E-14
         2  11 -4.512504E-13 -3.021367E-13 -9.546000E-13  3.529655E-15  1.020487E-13 -1.538184E-13
         2  12  8.701177E-13  9.077327E-13  1.808377E-12 -4.233863E-14  1.231759E-13 -5.793930E-13
         2  13  2.168859E-13  1.859024E-13  4.851284E-13 -2.022667E-14  4.085487E-14  1.428038E-13
         2  14  2.204577E-13  1.874331E-13  4.866592E-13 -1.114930E-14  8.088419E-14 -2.313358E-13
         2  15  2.097755E-13  1.828551E-13  4.820811E-13 -3.998542E-15  2.678413E-13 -5.096248E-14
         2  16  1.330461E-12  1.278336E-12  3.332683E-12 -6.647512E-15  2.085197E-13  3.875822E-13
         2  17  8.549104E-13  7.312002E-13  1.933001E-12  1.816245E-14  5.971969E-14 -1.512270E-13
         2  18 -1.597706E-13 -1.670876E-13 -9.805746E-14  4.912162E-14  4.909040E-14 -2.756355E-13
         2  19 -1.271494E-13 -7.216272E-14 -5.979364E-14  1.150564E-13 -4.745281E-13  1.011368E-13
         2  20 -5.312515E-13 -5.010566E-13 -9.472033E-13  1.905505E-14  1.916798E-13 -1.036403E-13
         2  21 -6.874415E-13 -8.537265E-13 -1.828445E-12 -8.694878E-14 -2.616617E-14 -4.231352E-13
         2  22  1.408399E-13  1.357298E-13  2.651169E-13 -2.777854E-14 -9.475709E-13  2.820244E-13
         2  23  1.347786E-13  1.276275E-13  2.608678E-13 -1.312837E-14 -1.585965E-13 -1.895670E-13
         2  24 -4.973070E-14 -5.077769E-14 -1.326096E-13 -4.048124E-16  1.270045E-12 -3.248897E-13
         2  25  2.624171E-13  2.375551E-13  4.232106E-13 -9.375544E-14 -1.245752E-13  8.198173E-14
         2  26  4.570268E-13  4.455611E-13  8.172143E-13  2.335667E-15  4.018571E-13  3.538048E-14
         2  27 -3.341017E-13 -1.441929E-13 -4.622438E-13  1.045760E-13  4.470583E-13  9.795304E-15

                                INCREMENT     7


 displacements (vx,vy,vz) for set NALL and time  0.2178125E-02

         1 -5.600574E-18 -1.273828E-15 -2.327044E-02
         2  7.942342E-16 -1.278450E-15 -2.327044E-02
         3  5.078991E-16  1.836958E-15 -2.327044E-02
         4 -3.030433E-16  1.840029E-15 -2.327044E-02
         5 -2.342952E-18 -2.076658E-15 -2.327044E-02
         6  7.960771E-16 -2.078623E-15 -2.327044E-02
         7  5.043947E-16  1.029726E-15 -2.327044E-02
         8 -3.033842E-16  1.026167E-15 -2.327044E-02
         9  3.954900E-16 -1.275886E-15 -2.327044E-02
        10  6.495523E-16  2.806036E-16 -2.327044E-02
        11  1.014314E-16  1.838369E-15 -2.327044E-02
        12 -1.551452E-16  2.791401E-16 -2.327044E-02
        13 -4.809489E-18 -1.676596E-15 -2.327044E-02
        14  7.953469E-16 -1.676776E-15 -2.327044E-02
        15  5.058275E-16  1.432042E-15 -2.327044E-02
        16 -3.022479E-16  1.433991E-15 -2.327044E-02
        17  3.945089E-16 -2.077782E-15 -2.327044E-02
        18  6.501444E-16 -5.246804E-16 -2.327044E-02
        19  1.026867E-16  1.027960E-15 -2.327044E-02
        20 -1.556976E-16 -5.238224E-16 -2.327044E-02
        21  3.015240E-16  2.597410E-16  2.327044E-02
        22 -2.727051E-17  2.577547E-16  2.327044E-02
        23 -5.272746E-16 -2.483845E-16  2.327044E-02
        24 -2.010147E-16 -2.473657E-16  2.327044E-02
        25  3.071302E-16  5.925841E-16  2.327044E-02
        26 -2.034688E-17  5.869628E-16  2.327044E-02
        27 -5.347347E-16  8.506199E-17  2.327044E-02
        28 -2.004345E-16  8.542025E-17  2.327044E-02
        29  1.406623E-16  2.584874E-16  2.327044E-02
        30 -2.794073E-16  6.406797E-18  2.327044E-02
        31 -3.669410E-16 -2.478207E-16  2.327044E-02
        32  5.329424E-17  6.182706E-18  2.327044E-02
        33  3.044761E-16  4.261082E-16  2.327044E-02
        34 -2.359447E-17  4.251680E-16  2.327044E-02
        35 -5.310127E-16 -8.394332E-17  2.327044E-02
        36 -2.010798E-16 -8.144549E-17  2.327044E-02
        37  1.389093E-16  5.898198E-16  2.327044E-02
        38 -2.785339E-16  3.367960E-16  2.327044E-02
        39 -3.638415E-16  8.540086E-17  2.327044E-02
        40  5.248689E-17  3.358283E-16  2.327044E-02

 stresses (elem, integ.pnt.,sxx,syy,szz,sxy,sxz,syz) for set EALL and time  0.2178125E-02

         1   1 -1.998860E-12 -2.005191E-12 -5.208426E-12  1.250535E-13 -6.158721E-13 -5.559886E-13
         1   2  1.349526E-12  1.294453E-12  2.068215E-12  4.164632E-14 -2.012799E-12  1.260754E-13
         1   3  8.140942E-13  1.248256E-12  2.075873E-12 -7.416256E-14 -1.354935E-12  5.411059E-13
         1   4 -3.004740E-13 -6.041348E-13 -6.356746E-13 -9.370918E-14  1.458267E-13 -5.273763E-13
         1   5  5.069812E-13  2.577990E-13  1.322310E-12 -4.230517E-14  6.698927E-13  3.641555E-13
         1   6  8.341486E-13  6.737026E-13  2.273815E-12 -3.324971E-15  3.501766E-13  5.157749E-13
         1   7 -2.067974E-12 -1.477090E-12 -3.977855E-12  1.037399E-13 -1.824664E-12 -4.462220E-13
         1   8 -4.079648E-13  8.283148E-14 -2.796860E-13  2.852672E-14  6.904511E-13 -6.329780E-14
         1   9  1.075302E-12  9.965496E-13  1.441212E-12 -3.913243E-14 -2.012475E-14 -7.705667E-13
         1  10  9.449272E-13  1.013897E-12  2.773399E-12  1.599968E-13 -8.033280E-13  1.904468E-12
         1  11  1.668010E-12  1.474535E-12  3.492807E-12  5.135933E-14 -6.089333E-13  5.146865E-13
         1  12 -8.622200E-13 -7.801619E-13 -1.585590E-12 -8.967982E-14  4.856884E-14  5.717831E-13
         1  13 -3.730116E-13 -5.759902E-13 -1.013284E-12 -1.507279E-13  1.858127E-13 -8.419751E-13
         1  14  1.621561E-13  1.365611E-14  4.170356E-13 -7.189698E-14  2.107350E-13  3.583377E-13
         1  15  7.424571E-13  6.826934E-13  2.066859E-12 -5.489876E-15  3.659981E-13 -8.125309E-13
         1  16 -2.947685E-13 -1.006778E-13 -8.472178E-13  8.365256E-14 -5.063939E-13 -1.837015E-12
         1  17 -1.598073E-12 -1.290368E-12 -3.416576E-12  8.852345E-14  6.100665E-13  1.669608E-13
         1  18  1.965922E-12  1.917781E-12  3.806227E-12  1.009484E-13  1.559129E-12  1.621215E-12
         1  19 -2.260870E-12 -1.629083E-12 -4.081321E-12  2.693895E-13 -7.199812E-13 -4.710424E-13
         1  20 -5.902271E-13 -4.345868E-13 -1.582466E-12  1.355218E-13 -1.019132E-12 -5.551983E-14
         1  21  2.177689E-13  4.352397E-13  6.968040E-13 -3.074764E-14 -3.714455E-13 -2.447250E-13
         1  22  2.517897E-13  2.386048E-13  1.471184E-13 -2.201704E-13  2.878510E-12 -1.386350E-12
         1  23  3.045015E-13  3.457953E-13  5.593810E-13 -1.139126E-13  2.491162E-12  4.172175E-14
         1  24 -5.171402E-13 -3.871102E-13 -9.543225E-13 -2.007859E-14 -1.625596E-12  4.097009E-13
         1  25  1.036299E-12  5.243031E-13  1.561056E-12 -3.573184E-14  1.018927E-13 -2.483307E-14
         1  26  2.549312E-12  2.364633E-12  6.209979E-12  4.922314E-14  1.447807E-12  2.965896E-13
         1  27 -5.016829E-13 -8.285063E-13 -1.355323E-12  1.417321E-13 -7.255206E-13  1.884250E-13
         2   1  1.179469E-12  1.600979E-12  3.384178E-12 -6.593503E-13 -5.461842E-13 -1.437647E-12
         2   2  1.472663E-14 -1.170241E-13 -7.592731E-13 -3.026369E-13 -3.995306E-13 -1.064177E-13
         2   3 -8.964508E-13 -3.452499E-13 -1.903642E-13  8.161629E-14  2.893878E-13  2.857740E-13
         2   4 -5.453511E-13 -7.767411E-13 -1.853795E-12  1.908845E-13 -4.364352E-13  3.661033E-13
         2   5  1.367985E-13 -6.109014E-14  2.271252E-14  1.781874E-13  1.627839E-12 -6.135894E-13
         2   6 -1.165723E-12 -1.186807E-12 -2.254000E-12  1.854697E-13  3.376190E-12  1.671049E-12
         2   7 -3.113012E-12 -2.967898E-12 -7.288652E-12  3.119081E-13 -9.571915E-13 -3.522208E-12
         2   8 -1.497768E-12 -1.110942E-12 -2.786219E-12  1.354109E-14 -1.278234E-13 -3.501435E-13
         2   9 -2.187644E-12 -2.508712E-12 -6.827749E-12 -2.724069E-13 -2.448834E-13 -2.888562E-13
         2  10 -1.567600E-12 -1.338004E-12 -3.057433E-12 -7.675816E-14  1.060999E-14  8.191847E-13
         2  11  1.124891E-12  8.375096E-13  1.681596E-12 -1.116370E-13  5.116846E-13 -6.460292E-14
         2  12  7.082520E-13  1.140106E-12  3.286697E-12 -1.189760E-13  6.758030E-13 -1.284638E-13
         2  13 -7.184634E-13 -1.047474E-12 -1.986949E-12  1.488721E-13 -4.673920E-13  1.732264E-12
         2  14  2.737515E-13 -2.175786E-14  4.398900E-13  1.156211E-13  3.609043E-13 -4.077735E-13
         2  15 -8.819980E-14 -2.069039E-13  1.846878E-13  1.023495E-13 -1.285416E-13 -1.866490E-13
         2  16 -5.865571E-13 -2.772884E-13 -9.877375E-13 -1.654330E-13 -3.849449E-13  5.086309E-13
         2  17  1.469532E-12  1.984228E-12  4.314755E-12 -1.133155E-13 -1.401568E-13 -6.458598E-13
         2  18  1.141687E-12  9.122060E-13  8.893867E-13 -4.877907E-14 -3.724371E-13  7.009236E-13
         2  19 -2.083381E-12 -1.592673E-12 -4.745735E-12  5.152317E-13 -1.558545E-12 -1.075143E-13
         2  20  2.364658E-12  2.374674E-12  3.971843E-12  8.876061E-14 -6.435752E-13  6.295310E-13
         2  21  1.523071E-12  2.288606E-12  4.467667E-12 -3.101707E-13  2.409155E-12 -5.731541E-13
         2  22 -3.945916E-13 -7.190267E-13 -1.062669E-12  1.268390E-13 -1.573456E-12  9.482225E-13
         2  23  6.975200E-13  4.065862E-13  1.424108E-12  7.303416E-14  8.105263E-13  2.051651E-13
         2  24  1.039700E-12  9.255711E-13  2.638723E-12  3.920867E-14  1.435396E-12  9.370297E-15
         2  25 -3.482634E-13 -1.234755E-13  2.227703E-13 -6.122131E-13 -8.878057E-13 -1.327530E-13
         2  26  1.623249E-12  2.017180E-12  5.099340E-12 -2.096111E-13  4.431681E-13 -1.141166E-13
         2  27  1.394725E-12  1.008195E-12  1.677142E-12  2.054098E-13  6.455349E-13  5.918947E-13

                                INCREMENT     8


 displacements (vx,vy,vz) for set NALL and time  0.3317188E-02

         1 -4.816088E-18 -1.951036E-15 -5.397331E-02
         2  1.226968E-15 -1.954819E-15 -5.397331E-02
         3  7.672271E-16  2.817190E-15 -5.397331E-02
         4 -4.613947E-16  2.810862E-15 -5.397331E-02
         5 -1.652874E-17 -3.184555E-15 -5.397331E-02
         6  1.231091E-15 -3.197547E-15 -5.397331E-02
         7  7.727797E-16  1.578330E-15 -5.397331E-02
         8 -4.635363E-16  1.584512E-15 -5.397331E-02
         9  6.102312E-16 -1.952628E-15 -5.397331E-02
        10  9.971207E-16  4.291249E-16 -5.397331E-02
        11  1.543377E-16  2.813675E-15 -5.397331E-02
        12 -2.397491E-16  4.302621E-16 -5.397331E-02
        13 -9.938731E-18 -2.570188E-15 -5.397331E-02
        14  1.228052E-15 -2.571729E-15 -5.397331E-02
        15  7.710328E-16  2.193807E-15 -5.397331E-02
        16 -4.632511E-16  2.199579E-15 -5.397331E-02
        17  6.099850E-16 -3.190223E-15 -5.397331E-02
        18  9.952783E-16 -8.025530E-16 -5.397331E-02
        19  1.513413E-16  1.580645E-15 -5.397331E-02
        20 -2.357089E-16 -8.068458E-16 -5.397331E-02
        21  4.516458E-16  4.020267E-16  5.397331E-02
        22 -4.125459E-17  4.019541E-16  5.397331E-02
        23 -8.139894E-16 -3.915538E-16  5.397331E-02
        24 -3.106901E-16 -3.800284E-16  5.397331E-02
        25  4.739348E-16  9.104637E-16  5.397331E-02
        26 -3.002196E-17  8.883518E-16  5.397331E-02
        27 -8.188005E-16  1.207197E-16  5.397331E-02
        28 -2.974710E-16  1.353184E-16  5.397331E-02
        29  2.092350E-16  4.007775E-16  5.397331E-02
        30 -4.279311E-16  9.425691E-18  5.397331E-02
        31 -5.626514E-16 -3.845956E-16  5.397331E-02
        32  8.401240E-17  1.060755E-17  5.397331E-02
        33  4.624873E-16  6.561360E-16  5.397331E-02
        34 -3.695068E-17  6.476477E-16  5.397331E-02
        35 -8.150651E-16 -1.338305E-16  5.397331E-02
        36 -3.037950E-16 -1.263271E-16  5.397331E-02
        37  2.128505E-16  9.011194E-16  5.397331E-02
        38 -4.258088E-16  5.207165E-16  5.397331E-02
        39 -5.527575E-16  1.263249E-16  5.397331E-02
        40  7.886308E-17  5.156202E-16  5.397331E-02

 stresses (elem, integ.pnt.,sxx,syy,szz,sxy,sxz,syz) for set EALL and time  0.3317188E-02

         1   1  3.912606E-12  3.574818E-12  7.346314E-12  5.040521E-13 -2.453423E-12 -4.283398E-13
         1   2  8.444605E-13  1.134473E-12  1.686556E-12 -1.908832E-14 -2.859457E-12  4.549807E-14
         1   3  3.288409E-12  3.698571E-12  7.196181E-12 -5.014286E-13 -6.278121E-13 -8.433110E-13
         1   4 -1.245326E-12 -6.845647E-13 -1.307551E-12  1.266234E-14  1.289956E-12  1.629379E-12
         1   5 -9.489807E-13 -8.121299E-13 -1.985501E-12 -1.523756E-13 -2.651933E-12  7.577061E-13
         1   6  8.331211E-13  6.578274E-13  1.175868E-12 -3.123813E-13 -3.921114E-12 -3.206876E-13
         1   7 -4.701940E-12 -5.094279E-12 -1.168187E-11 -5.426640E-13 -4.214076E-12 -6.213544E-13
         1   8 -3.359677E-12 -3.902739E-12 -8.371688E-12  2.618829E-13 -3.565307E-12 -4.566297E-13
         1   9  1.957225E-12  1.994624E-12  6.649934E-12  1.035694E-12 -4.447198E-12 -1.059075E-12
         1  10  2.703467E-12  1.743478E-12  4.248419E-12 -2.571608E-13  7.716785E-13  1.109719E-12
         1  11  1.562716E-12  1.566790E-12  3.853187E-12 -1.497888E-15  7.633549E-14  1.475457E-13
         1  12 -8.964146E-13 -4.359289E-13 -1.310433E-12  2.949652E-13 -1.349568E-12 -7.053561E-13
         1  13 -1.141347E-12 -9.688466E-13 -6.330581E-13  2.014944E-13  1.403047E-12 -6.937498E-13
         1  14 -3.995030E-13 -6.509134E-13 -3.151249E-13  2.912206E-14 -4.843530E-13  2.401711E-13
         1  15  1.197592E-12  6.340370E-13  2.370948E-12 -1.382180E-13 -2.191584E-12  7.229146E-13
         1  16 -1.106608E-12 -4.303042E-13 -3.375409E-12 -6.623669E-14 -7.678297E-13 -1.446377E-12
         1  17 -2.482091E-12 -2.292772E-12 -7.261130E-12 -5.516200E-14 -7.648170E-13  5.257197E-14
         1  18  4.323189E-13  8.658365E-13  1.300176E-12 -7.482283E-14  4.692075E-13 -1.141453E-12
         1  19 -4.863931E-12 -5.396164E-12 -1.473537E-11 -1.145705E-12 -9.785152E-14 -8.084414E-14
         1  20  2.017597E-12  2.785688E-12  4.355321E-12 -1.112384E-13 -2.475877E-12 -6.715330E-13
         1  21  1.958740E-12  3.519505E-12  5.559612E-12  9.640280E-13 -6.860778E-13  2.770933E-12
         1  22 -5.442076E-13 -6.628707E-13  1.095044E-12  3.953588E-13 -6.169209E-13  7.697199E-13
         1  23  1.063472E-12  5.208976E-13  3.389646E-12  2.156520E-13 -3.384442E-12 -3.578166E-13
         1  24 -4.142562E-13 -1.268975E-12 -1.142480E-12  4.097758E-14  7.830800E-13 -1.340314E-12
         1  25  3.107913E-12  3.997099E-12  7.231591E-12  5.475862E-13  1.105806E-12  5.298231E-12
         1  26  1.116370E-12  1.182309E-12  1.053895E-12 -2.348113E-13  1.451597E-12  7.615455E-13
         1  27 -3.157710E-13 -3.418958E-13 -1.381249E-12 -1.047944E-12  3.968613E-12 -1.668529E-12
         2   1  9.550276E-13  2.279713E-12  5.341925E-12 -9.846664E-13  2.445715E-14 -1.277486E-12
         2   2  3.592675E-12  3.160042E-12  7.125902E-12 -4.151297E-13 -5.714567E-12  9.576854E-13
         2   3  2.018240E-12  1.964977E-12  6.203979E-12  3.743496E-13  4.595071E-12 -9.352238E-13
         2   4  1.093309E-12 -3.408772E-14 -4.108175E-13  4.696117E-13 -1.274651E-12 -7.552119E-13
         2   5  1.761661E-12  7.279039E-13  1.475453E-12  2.380995E-13  7.820812E-12 -1.064799E-12
         2   6 -4.633524E-13 -6.808642E-13 -9.807759E-13  8.277695E-15  4.101807E-12 -2.832842E-13
         2   7  2.842002E-12  4.532160E-12  9.498087E-12  3.593805E-13 -1.452861E-12 -2.614847E-12
         2   8  2.038282E-13  2.200790E-12  2.907137E-12  3.383249E-14 -7.815495E-13 -3.550939E-13
         2   9 -2.432732E-12 -8.204414E-13 -5.984966E-12 -5.082772E-13 -2.136061E-12  8.940765E-13
         2  10 -6.017517E-12 -4.481255E-12 -1.043547E-11  1.654144E-13 -2.843748E-14 -4.383020E-13
         2  11 -3.313862E-12 -2.944229E-12 -8.434682E-12 -4.872798E-14  6.832774E-13  3.681419E-13
         2  12 -2.142642E-12 -8.029502E-13 -2.887283E-12 -4.292773E-14 -7.774221E-13  2.063603E-12
         2  13  9.139215E-13 -1.001838E-12 -2.637486E-14  2.070208E-13 -1.866434E-13  2.926907E-12
         2  14  2.011063E-12  1.889432E-13  2.845753E-12  9.783003E-15  1.089883E-12 -1.489262E-13
         2  15 -1.203798E-12 -2.209673E-12 -1.934771E-12 -1.857643E-13 -1.617346E-14 -2.896191E-12
         2  16  4.282068E-13  1.744090E-12  3.566024E-12 -4.969857E-13 -3.448494E-13 -9.937232E-13
         2  17  2.629513E-13  1.294949E-12  2.653122E-12  2.969422E-14  5.157025E-13 -1.055451E-13
         2  18  7.823571E-13  8.389941E-13  1.032843E-12  3.398125E-13 -4.108511E-13  2.705273E-13
         2  19 -5.417337E-12 -3.100169E-12 -9.112507E-12  1.240093E-12 -1.842156E-12  4.981406E-12
         2  20 -3.488349E-12 -1.747121E-12 -8.856479E-12  2.422719E-13 -1.482185E-12  1.340880E-12
         2  21 -4.300264E-12 -9.982876E-13 -7.873601E-12 -5.356069E-13 -3.406191E-12  1.434729E-12
         2  22  1.327900E-12 -5.850665E-13  9.514340E-13 -5.387968E-14 -2.990111E-13 -8.951349E-13
         2  23  2.433494E-12  6.141668E-13  3.828634E-12 -2.168430E-13 -7.535734E-13  4.377124E-13
         2  24 -1.508504E-12 -2.511586E-12 -2.663195E-12 -3.781158E-13  3.478472E-12 -9.052026E-13
         2  25 -4.168211E-12 -2.213623E-12 -8.471805E-12 -1.274569E-12  2.365032E-12 -4.915188E-12
         2  26  7.386862E-12  8.466876E-12  1.787063E-11  1.043388E-13  8.157116E-13 -7.456798E-13
         2  27 -2.493629E-12 -2.979665E-12 -8.108170E-12  1.266685E-12 -2.211942E-12  3.129975E-12

                                INCREMENT     9


 displacements (vx,vy,vz) for set NALL and time  0.5025781E-02

         1 -1.556203E-17 -2.929544E-15 -1.238928E-01
         2  1.850917E-15 -2.947146E-15 -1.238928E-01
         3  1.192899E-15  4.249349E-15 -1.238928E-01
         4 -6.970488E-16  4.239406E-15 -1.238928E-01
         5 -3.604956E-17 -4.799329E-15 -1.238928E-01
         6  1.811779E-15 -4.795614E-15 -1.238928E-01
         7  1.170779E-15  2.381049E-15 -1.238928E-01
         8 -6.788889E-16  2.371736E-15 -1.238928E-01
         9  9.081067E-16 -2.937066E-15 -1.238928E-01
        10  1.496120E-15  6.554374E-16 -1.238928E-01
        11  2.550339E-16  4.243105E-15 -1.238928E-01
        12 -3.596535E-16  6.500175E-16 -1.238928E-01
        13 -2.559531E-17 -3.866056E-15 -1.238928E-01
        14  1.832662E-15 -3.864076E-15 -1.238928E-01
        15  1.180520E-15  3.304390E-15 -1.238928E-01
        16 -6.881739E-16  3.310696E-15 -1.238928E-01
        17  9.016306E-16 -4.794460E-15 -1.238928E-01
        18  1.508972E-15 -1.210240E-15 -1.238928E-01
        19  2.346416E-16  2.373376E-15 -1.238928E-01
        20 -3.615336E-16 -1.210488E-15 -1.238928E-01
        21  6.730003E-16  6.372212E-16  1.238928E-01
        22 -9.351878E-17  6.533936E-16  1.238928E-01
        23 -1.212856E-15 -6.010434E-16  1.238928E-01
        24 -4.535702E-16 -5.626440E-16  1.238928E-01
        25  6.987019E-16  1.396490E-15  1.238928E-01
        26 -6.406055E-17  1.404351E-15  1.238928E-01
        27 -1.221213E-15  1.695160E-16  1.238928E-01
        28 -4.499955E-16  2.023993E-16  1.238928E-01
        29  3.014275E-16  6.433349E-16  1.238928E-01
        30 -6.383427E-16  2.651228E-17  1.238928E-01
        31 -8.402134E-16 -5.796200E-16  1.238928E-01
        32  1.289420E-16  2.471732E-17  1.238928E-01
        33  6.817147E-16  1.035272E-15  1.238928E-01
        34 -7.942307E-17  1.015307E-15  1.238928E-01
        35 -1.216653E-15 -1.984365E-16  1.238928E-01
        36 -4.473952E-16 -2.023005E-16  1.238928E-01
        37  3.018424E-16  1.403500E-15  1.238928E-01
        38 -6.389313E-16  7.953715E-16  1.238928E-01
        39 -8.248129E-16  1.826268E-16  1.238928E-01
        40  1.263097E-16  7.928777E-16  1.238928E-01

 stresses (elem, integ.pnt.,sxx,syy,szz,sxy,sxz,syz) for set EALL and time  0.5025781E-02

         1   1  5.347872E-12  4.514536E-12  7.330226E-12  1.780274E-12  3.362100E-12  8.127018E-12
         1   2 -7.388027E-12 -5.891714E-12 -1.709843E-11 -6.725990E-13  1.464979E-11  4.276100E-13
         1   3 -3.085067E-12 -2.870687E-12 -1.380836E-11 -2.995494E-12  2.036338E-11 -8.387627E-12
         1   4  2.056314E-13 -2.256628E-13  1.451158E-12  1.944315E-13  8.635743E-12  4.849988E-12
         1   5 -1.822360E-12 -1.093312E-12  5.824662E-13  4.575769E-13  8.789954E-13  1.537679E-12
         1   6 -5.747333E-12 -4.335204E-12 -6.303389E-12  7.202006E-13  5.972917E-12 -6.253154E-12
         1   7  9.370075E-12  9.968106E-12  2.474463E-11 -2.456155E-12 -7.948131E-12  8.438460E-12
         1   8 -4.726129E-12 -7.455226E-12 -1.676892E-11 -5.941967E-14  8.405271E-12  1.316681E-12
         1   9 -7.919725E-12 -1.131889E-11 -2.398618E-11  2.206295E-12  5.663742E-12  8.468693E-14
         1  10 -1.542224E-12 -4.149603E-12 -7.536219E-12 -2.724212E-15  1.551273E-12  1.113265E-11
         1  11 -2.024125E-12 -2.207384E-12 -4.183788E-12 -5.644267E-14 -8.806816E-13  1.282502E-12
         1  12 -3.751819E-12 -5.122541E-12 -1.577682E-11  1.981684E-14  4.029524E-12 -1.286357E-12
         1  13  1.546389E-12  1.778396E-12  3.911771E-12 -1.650648E-13  1.367515E-12  4.425939E-12
         1  14  2.878484E-12  4.270833E-12  1.088780E-11 -3.018279E-15  2.051134E-12  5.961554E-13
         1  15 -1.259265E-12  8.161648E-13  3.509989E-12  1.585066E-13  7.594454E-13 -5.620081E-12
         1  16  1.134265E-11  1.387647E-11  2.796609E-11  2.669321E-13  2.304656E-12 -7.745156E-12
         1  17  8.526099E-12  7.638320E-12  1.359233E-11  6.231508E-14  3.862051E-12 -5.105277E-13
         1  18  1.072744E-11  9.075119E-12  1.978386E-11 -2.733231E-13  3.654307E-12  7.139893E-12
         1  19 -1.931171E-11 -2.250640E-11 -4.897463E-11 -1.702980E-12  3.167649E-12  4.999080E-12
         1  20 -6.698936E-12 -7.375041E-12 -1.587953E-11  6.424564E-13 -1.093911E-11  1.847619E-12
         1  21 -3.633610E-12 -5.402708E-12 -1.710043E-11  3.117871E-12  2.708554E-12 -4.260357E-12
         1  22 -2.666490E-12 -2.450642E-12 -5.906643E-12 -5.250826E-13 -1.352610E-12  5.301044E-12
         1  23 -2.177677E-12 -8.014855E-13 -8.937486E-13 -4.641350E-13  8.350482E-15  1.046205E-12
         1  24 -5.162108E-12 -3.102836E-12 -5.575965E-12 -4.037090E-13 -7.865908E-12 -6.025036E-12
         1  25  4.680610E-12  6.604571E-12  1.358573E-11  2.906233E-12 -3.070624E-12 -7.721012E-13
         1  26  1.230303E-11  1.071092E-11  2.439020E-11  1.002638E-13 -3.335642E-12  1.015409E-12
         1  27  3.611248E-12  1.160133E-12  5.985063E-12 -2.836727E-12  3.977594E-12 -7.299323E-12
         2   1  1.183845E-11  1.141839E-11  2.737740E-11 -4.345670E-12  2.556409E-12 -1.256162E-11
         2   2 -4.920203E-13 -2.794071E-12 -5.357331E-12 -2.543121E-13  4.417846E-12 -9.072127E-13
         2   3 -3.925798E-12 -3.826157E-12 -3.054170E-12  4.210852E-12  1.047169E-11  3.590844E-12
         2   4 -1.003403E-12 -2.240004E-12 -3.887358E-12 -1.691076E-13  2.819567E-12  2.584369E-12
         2   5 -1.151159E-12 -2.714147E-12 -5.531095E-12 -8.914568E-14 -1.126187E-12  2.845887E-13
         2   6  1.104406E-12  1.235333E-13  1.461257E-12 -3.353195E-14 -3.891388E-13  4.699574E-12
         2   7 -1.587716E-11 -1.216837E-11 -3.172834E-11  4.254547E-12 -1.036805E-11 -9.746319E-13
         2   8 -1.480608E-11 -1.032839E-11 -2.939786E-11  4.018148E-13  6.156176E-13 -6.484506E-14
         2   9 -1.919116E-11 -1.641124E-11 -4.802064E-11 -3.873420E-12 -8.377669E-12  1.114543E-12
         2  10 -4.357023E-12 -1.396164E-12 -7.554627E-12  3.175488E-13  1.136596E-12 -4.399704E-12
         2  11  9.994688E-12  1.130616E-11  1.950476E-11 -5.181950E-14  9.807057E-14  1.007478E-12
         2  12 -1.855031E-12  2.090739E-12 -2.935794E-13 -4.738164E-14  1.494310E-12  3.159272E-12
         2  13 -2.869253E-12 -4.514179E-12 -8.043701E-12 -1.312165E-13  7.648963E-13  2.785548E-12
         2  14  1.905292E-12 -6.602089E-14  2.008949E-12 -1.409039E-13 -1.547159E-12 -1.566734E-12
         2  15  2.988274E-12  1.599076E-12  6.476292E-12 -1.749396E-13 -5.837759E-13  1.100176E-11
         2  16 -4.976680E-12 -5.308058E-12 -8.914092E-12 -1.027327E-13 -2.409049E-12  8.635022E-13
         2  17  9.521068E-12  9.725988E-12  2.763163E-11  3.259621E-13 -5.714410E-12 -9.183629E-13
         2  18 -6.677455E-13 -2.393202E-12 -1.646868E-12  3.321544E-13  2.804959E-13  1.890671E-12
         2  19 -4.919659E-13  1.212044E-12  8.959030E-12  5.238272E-12  4.016668E-12 -4.993678E-12
         2  20  6.074309E-12  6.361538E-12  1.538810E-11  4.081775E-13  5.964524E-12  1.290652E-12
         2  21 -4.943940E-12 -1.789813E-12 -4.934461E-12 -4.048110E-12 -6.752794E-12 -1.161268E-13
         2  22 -2.506853E-12 -3.830900E-12 -7.729997E-12 -1.176736E-13  2.449662E-12 -1.705906E-12
         2  23 -3.760700E-13 -2.026504E-12 -3.635108E-12 -2.170104E-13  1.102034E-11 -7.060927E-13
         2  24 -4.353787E-12 -5.422106E-12 -1.076504E-11 -3.406954E-13 -4.601784E-12  2.760753E-12
         2  25 -3.795516E-12 -2.070885E-12 -1.487443E-11 -4.766213E-12  5.926699E-12 -7.035039E-12
         2  26 -2.772657E-12 -7.443306E-13 -6.883767E-12 -5.609150E-14  2.064936E-12  1.500531E-12
         2  27 -4.263590E-12 -4.398244E-12 -1.298087E-11  4.231528E-12  1.632427E-11  7.178868E-12

                                INCREMENT    10


 displacements (vx,vy,vz) for set NALL and time  0.7588672E-02

         1  2.513520E-17 -4.153087E-15 -2.824688E-01
         2  2.569704E-15 -4.252924E-15 -2.824688E-01
         3  1.671002E-15  6.084496E-15 -2.824688E-01
         4 -9.048906E-16  6.051287E-15 -2.824688E-01
         5 -3.267076E-17 -6.802590E-15 -2.824688E-01
         6  2.541435E-15 -6.788417E-15 -2.824688E-01
         7  1.695736E-15  3.443703E-15 -2.824688E-01
         8 -9.508863E-16  3.440033E-15 -2.824688E-01
         9  1.303586E-15 -4.204891E-15 -2.824688E-01
        10  2.126882E-15  9.414024E-16 -2.824688E-01
        11  3.737854E-16  6.071503E-15 -2.824688E-01
        12 -4.836248E-16  9.227826E-16 -2.824688E-01
        13 -7.682430E-18 -5.506198E-15 -2.824688E-01
        14  2.560916E-15 -5.505039E-15 -2.824688E-01
        15  1.676297E-15  4.746505E-15 -2.824688E-01
        16 -9.222484E-16  4.775982E-15 -2.824688E-01
        17  1.287957E-15 -6.796306E-15 -2.824688E-01
        18  2.124662E-15 -1.651698E-15 -2.824688E-01
        19  3.419538E-16  3.440944E-15 -2.824688E-01
        20 -4.607785E-16 -1.649200E-15 -2.824688E-01
        21  9.610524E-16  1.008238E-15  2.824688E-01
        22 -2.907727E-16  9.588753E-16  2.824688E-01
        23 -1.733116E-15 -8.701508E-16  2.824688E-01
        24 -4.232997E-16 -9.274457E-16  2.824688E-01
        25  1.054503E-15  2.259172E-15  2.824688E-01
        26 -1.839703E-16  2.208851E-15  2.824688E-01
        27 -1.755256E-15  4.049301E-16  2.824688E-01
        28 -4.991953E-16  3.969576E-16  2.824688E-01
        29  4.001758E-16  9.798715E-16  2.824688E-01
        30 -9.931150E-16  3.568651E-17  2.824688E-01
        31 -1.138709E-15 -8.959091E-16  2.824688E-01
        32  2.846299E-16  4.495899E-17  2.824688E-01
        33  1.006342E-15  1.596174E-15  2.824688E-01
        34 -2.374021E-16  1.615478E-15  2.824688E-01
        35 -1.743359E-15 -2.569362E-16  2.824688E-01
        36 -4.606074E-16 -2.350025E-16  2.824688E-01
        37  3.839093E-16  2.239136E-15  2.824688E-01
        38 -1.009746E-15  1.320986E-15  2.824688E-01
        39 -1.080403E-15  3.966146E-16  2.824688E-01
        40  2.847758E-16  1.317688E-15  2.824688E-01

 stresses (elem, integ.pnt.,sxx,syy,szz,sxy,sxz,syz) for set EALL and time  0.7588672E-02

         1   1  1.063565E-11  1.426166E-11  4.554858E-12  6.167450E-12 -8.811061E-12  1.100292E-11
         1   2  2.892940E-11  3.564440E-11  6.017283E-11  2.344414E-12  1.301142E-11  1.132417E-12
         1   3  6.494633E-13  6.202253E-12 -7.051783E-12 -1.434967E-12  2.439100E-11 -1.523428E-11
         1   4 -1.040074E-11 -9.462490E-12 -8.873303E-12 -2.469089E-12 -7.875689E-12 -1.574463E-12
         1   5 -2.302592E-12 -2.631751E-12  4.348368E-12 -1.835505E-12 -2.373168E-11  5.650659E-12
         1   6 -8.699081E-14 -2.285278E-12  1.838363E-12 -1.369150E-12  1.792390E-11 -2.167271E-12
         1   7 -5.806000E-12 -1.171896E-11 -1.400050E-11 -2.086216E-12  1.323585E-11  6.024327E-12
         1   8 -2.366825E-11 -2.955926E-11 -6.114045E-11  6.258407E-13  9.020923E-12 -2.301092E-12
         1   9  7.149202E-12  4.327916E-12  1.546477E-11  2.959785E-12 -2.791475E-11 -6.614293E-12
         1  10 -2.136054E-12 -5.354804E-12 -1.390460E-11 -9.086291E-13  4.587057E-12  1.276783E-11
         1  11 -3.332720E-12 -4.690380E-12 -8.235601E-12  6.537352E-13 -1.030556E-11  3.815057E-12
         1  12 -1.474393E-11 -1.849170E-11 -4.057121E-11  2.259755E-12  5.134880E-12 -1.884898E-11
         1  13 -2.428585E-14  2.425388E-12  1.237767E-11 -1.711969E-12  5.824539E-12  7.552434E-12
         1  14 -1.169022E-12  1.324705E-14  5.481938E-12 -9.677579E-13 -6.373571E-12  2.240743E-12
         1  15  7.145995E-12  6.459135E-12  1.865322E-11 -3.907758E-13 -5.192209E-12  1.684473E-11
         1  16 -6.112870E-12 -6.914508E-12 -2.722290E-11  3.681224E-12 -5.267860E-12  4.018387E-12
         1  17 -1.036037E-11 -9.912144E-12 -3.522511E-11  1.229135E-12 -8.046073E-12 -3.256715E-12
         1  18  1.704821E-11  2.179405E-11  4.079603E-11 -1.601068E-12  1.434287E-12 -6.308714E-12
         1  19 -1.001806E-11 -1.356197E-11 -2.747436E-11 -7.327103E-12 -1.296512E-11 -1.144800E-11
         1  20 -2.566109E-11 -2.857182E-11 -5.998491E-11 -3.793381E-13 -2.659045E-12  4.703608E-12
         1  21  7.118315E-12  5.895785E-13  6.319579E-12  6.612083E-12  4.636647E-12  2.290730E-11
         1  22  3.341423E-12  6.922056E-12  1.765072E-11 -1.122077E-12 -8.062837E-12 -1.455124E-12
         1  23 -3.208030E-13  1.992424E-12  6.330157E-12 -2.672390E-13  2.156137E-12 -1.842364E-12
         1  24 -1.038498E-12 -5.943992E-13 -1.255772E-13  4.203702E-13 -4.926727E-12 -6.762804E-12
         1  25  4.024162E-11  3.727078E-11  7.571176E-11  8.456603E-12 -2.669941E-11  1.302135E-11
         1  26  9.141145E-15 -4.839492E-13 -8.885449E-12  8.403659E-13 -1.264440E-11 -3.204182E-12
         1  27 -2.643159E-11 -2.139917E-11 -5.114271E-11 -7.153984E-12  8.208088E-12 -7.149437E-12
         2   1 -2.193838E-12  7.040170E-12  7.282571E-12 -4.250941E-12  6.542217E-12 -5.976140E-12
         2   2  5.551058E-12  4.975606E-12 -2.670672E-12 -4.899461E-14 -6.983574E-12  1.867156E-12
         2   3 -1.452073E-12  5.837869E-12  1.188020E-11  4.831786E-12  1.404108E-12 -4.762886E-12
         2   4  3.089146E-13  5.320415E-13 -2.662049E-12  6.589922E-13  3.093896E-11 -4.183210E-13
         2   5  4.210515E-12  2.944514E-12  2.146509E-12 -3.979683E-14 -2.941288E-11 -1.932021E-12
         2   6  6.783977E-12  4.907880E-12  6.786184E-12 -6.614417E-13 -7.182627E-12  8.982499E-12
         2   7 -1.007290E-11 -1.783027E-11 -3.168563E-11  4.281167E-12 -4.071913E-12 -1.545701E-11
         2   8 -9.901761E-12 -7.049322E-12  7.433458E-13  9.724059E-14 -1.485255E-11 -4.069313E-13
         2   9 -2.033706E-11 -2.279161E-11 -4.463200E-11 -4.611231E-12 -1.030498E-11  1.642283E-11
         2  10 -5.197026E-12 -2.683788E-12  9.293098E-12 -1.329149E-12  1.773173E-12  2.427562E-12
         2  11 -2.290528E-11 -2.908964E-11 -6.222784E-11 -6.141403E-13  4.474445E-12  1.612176E-12
         2  12  4.956771E-12  7.749673E-12  3.149812E-11  7.797024E-13 -3.688258E-12  3.759209E-13
         2  13  4.848244E-13 -7.850032E-13 -9.005363E-14  8.782309E-13 -2.707948E-12  1.875733E-12
         2  14  9.816189E-12  7.057232E-12  1.671937E-11  4.464370E-13  4.376103E-12 -1.725848E-12
         2  15  3.317793E-12 -5.125916E-14 -4.772077E-13  9.178728E-14  4.560664E-13 -1.415503E-11
         2  16  2.903245E-11  2.784114E-11  5.203410E-11 -9.144930E-14 -1.055176E-11  1.813738E-11
         2  17  4.987765E-12  1.329440E-11  2.879933E-11 -2.544476E-13 -5.249874E-12 -1.701177E-12
         2  18 -1.894477E-11 -1.705699E-11 -4.722972E-11 -9.419915E-13  1.097584E-12  5.501407E-12
         2  19  3.188215E-12  9.681663E-12  2.717565E-11  1.715544E-12  2.420703E-12  2.531457E-12
         2  20  1.382992E-11  1.273764E-11  1.962761E-11 -1.056385E-12  6.823118E-12  1.624511E-12
         2  21  1.392697E-11  2.292381E-11  4.639155E-11 -3.149479E-12  9.617793E-12  4.961642E-12
         2  22  6.764544E-12  5.414785E-12  1.531114E-11  1.174614E-12 -9.641210E-12  2.024952E-11
         2  23  1.059691E-11  7.758026E-12  1.862099E-11  1.009815E-12  4.395980E-12  1.269662E-12
         2  24  6.165586E-12  2.716602E-12  5.578992E-12  9.221606E-13  8.558806E-12  6.569940E-12
         2  25  6.747142E-12  4.246955E-12  3.838936E-13 -4.432678E-12  2.956638E-12 -8.409590E-12
         2  26 -2.842382E-12  3.043508E-12  1.171768E-11 -5.747486E-13 -3.635650E-12  4.277507E-12
         2  27 -1.757397E-11 -1.921879E-11 -4.200264E-11  2.758635E-12  9.601503E-12 -2.470296E-12

                                INCREMENT    11


 displacements (vx,vy,vz) for set NALL and time  0.1000000E-01

         1 -2.891843E-17 -5.432503E-15 -4.905000E-01
         2  2.945779E-15 -5.488172E-15 -4.905000E-01
         3  2.075993E-15  7.601553E-15 -4.905000E-01
         4 -9.167524E-16  7.774296E-15 -4.905000E-01
         5 -5.433877E-17 -8.487956E-15 -4.905000E-01
         6  2.888842E-15 -8.346897E-15 -4.905000E-01
         7  2.061775E-15  4.714386E-15 -4.905000E-01
         8 -8.957330E-16  4.690141E-15 -4.905000E-01
         9  1.447572E-15 -5.456289E-15 -4.905000E-01
        10  2.502030E-15  1.151811E-15 -4.905000E-01
        11  5.965982E-16  7.684189E-15 -4.905000E-01
        12 -4.504716E-16  1.087512E-15 -4.905000E-01
        13 -2.734650E-17 -6.912486E-15 -4.905000E-01
        14  2.927958E-15 -6.964695E-15 -4.905000E-01
        15  2.057924E-15  6.197934E-15 -4.905000E-01
        16 -9.202122E-16  6.191672E-15 -4.905000E-01
        17  1.433709E-15 -8.419657E-15 -4.905000E-01
        18  2.525938E-15 -1.855453E-15 -4.905000E-01
        19  5.604448E-16  4.704182E-15 -4.905000E-01
        20 -4.432518E-16 -1.821323E-15 -4.905000E-01
        21  1.489171E-15  1.059491E-15  4.905000E-01
        22 -6.570129E-16  1.084218E-15  4.905000E-01
        23 -2.314316E-15 -1.287966E-15  4.905000E-01
        24 -1.109202E-16 -1.105861E-15  4.905000E-01
        25  1.546453E-15  3.290339E-15  4.905000E-01
        26 -6.723992E-16  3.227939E-15  4.905000E-01
        27 -2.219508E-15  9.176769E-16  4.905000E-01
        28  2.073683E-17  1.069965E-15  4.905000E-01
        29  3.819547E-16  1.073766E-15  4.905000E-01
        30 -1.443933E-15 -6.786462E-17  4.905000E-01
        31 -1.148662E-15 -1.197878E-15  4.905000E-01
        32  7.265544E-16 -8.161914E-17  4.905000E-01
        33  1.521097E-15  2.212293E-15  4.905000E-01
        34 -6.809825E-16  2.107776E-15  4.905000E-01
        35 -2.251583E-15 -1.112523E-16  4.905000E-01
        36 -4.742890E-17 -8.091583E-17  4.905000E-01
        37  4.422844E-16  3.251827E-15  4.905000E-01
        38 -1.433957E-15  2.104572E-15  4.905000E-01
        39 -1.134475E-15  1.000185E-15  4.905000E-01
        40  7.091511E-16  2.076490E-15  4.905000E-01

 stresses (elem, integ.pnt.,sxx,syy,szz,sxy,sxz,syz) for set EALL and time  0.1000000E-01

         1   1 -2.218693E-11 -1.668185E-11 -4.080399E-11 -3.891508E-12  1.448643E-11 -3.542738E-11
         1   2 -3.236530E-11 -2.493887E-11 -6.382062E-11 -2.045382E-13  1.295826E-12  2.370318E-12
         1   3 -3.036970E-11 -2.485597E-11 -7.121149E-11  3.004181E-12 -1.862612E-11  2.201708E-11
         1   4  5.321173E-12 -1.734027E-12  2.439083E-11 -4.053310E-12  6.314861E-11 -1.534961E-11
         1   5  4.683488E-12 -1.920749E-12  2.414351E-11  3.315464E-13 -1.593772E-11 -1.435526E-12
         1   6  7.088496E-13 -4.258171E-12  2.006414E-11  4.686102E-12  1.173556E-11 -2.949146E-11
         1   7  1.870030E-11  2.431648E-11  1.873370E-11  5.681905E-12  3.110612E-11  5.068498E-11
         1   8  1.064221E-11  1.148023E-11 -1.084928E-11 -3.198758E-13  4.417071E-11 -3.279797E-12
         1   9  1.652252E-11  1.878895E-11  1.277919E-11 -5.904006E-12 -4.785485E-11 -2.075172E-11
         1  10 -1.739861E-13  3.257839E-12 -1.073219E-11  2.042610E-12  8.491023E-12 -2.711951E-11
         1  11  1.485291E-11  1.980896E-11  2.788458E-11  3.642851E-13  2.729715E-12 -2.211093E-12
         1  12 -9.647660E-12 -7.001427E-12 -3.850958E-11 -1.792291E-12  8.439793E-12 -1.691840E-11
         1  13  3.888995E-12  3.689408E-12  1.393086E-11 -3.269533E-12  8.615551E-12 -8.208845E-12
         1  14 -2.628859E-13 -1.150921E-14  5.746352E-12 -1.753486E-13  1.578383E-11 -4.226027E-12
         1  15 -7.331384E-12 -5.442790E-12 -5.289420E-12  2.888536E-12 -6.769518E-12  4.416549E-12
         1  16  4.445012E-11  4.368172E-11  1.080409E-10  3.194703E-12  2.014690E-12 -8.353448E-12
         1  17 -3.955667E-11 -4.470609E-11 -1.010515E-10 -2.312676E-14  1.538716E-11 -5.120062E-12
         1  18  1.605567E-11  1.273177E-11  3.632242E-11 -2.823306E-12  1.164812E-11  1.622386E-11
         1  19 -1.934878E-11 -3.255484E-11 -6.220045E-11  7.697038E-12  3.206283E-11  4.362795E-12
         1  20  1.752069E-11  5.441731E-12  3.020341E-11  6.534185E-13 -3.508210E-12  5.593793E-12
         1  21 -1.960493E-11 -3.439083E-11 -6.282809E-11 -6.868452E-12  3.627146E-11 -3.435978E-11
         1  22 -1.204028E-11 -6.779343E-12 -2.896057E-11 -2.516056E-12  2.848564E-11 -1.348216E-11
         1  23 -1.298097E-11 -7.269067E-12 -2.938969E-11 -7.125439E-13  4.543805E-11 -3.597417E-12
         1  24 -2.356366E-11 -1.621454E-11 -4.836265E-11  1.060668E-12  3.069540E-11 -2.088602E-11
         1  25  4.540382E-11  5.002533E-11  1.277161E-10  9.265899E-13  1.145766E-11 -6.947576E-12
         1  26 -1.367081E-11 -1.303321E-11 -2.549722E-11  4.927116E-13  1.816324E-11 -4.662115E-12
         1  27  2.736201E-11  3.022226E-11  7.556199E-11  4.764840E-13 -2.588153E-11 -2.506641E-11
         2   1  3.422340E-11  3.731470E-11  9.723415E-11 -2.629819E-12 -3.259182E-12  1.655096E-11
         2   2  1.606504E-11  1.662393E-11  4.477872E-11  2.728208E-13 -4.510232E-11  4.163400E-12
         2   3  3.413650E-11  2.755313E-11  6.149334E-11  2.462275E-12 -8.910668E-12 -1.793410E-11
         2   4 -2.866014E-12 -1.124266E-11 -1.588994E-11  2.702862E-13  1.704845E-11 -1.398877E-12
         2   5  1.310614E-11  3.551094E-12  1.665451E-11  2.791111E-13  3.329872E-11 -2.374578E-13
         2   6  4.667094E-12 -2.836421E-13  1.151521E-11  1.961014E-13 -6.268871E-11  3.240704E-11
         2   7 -4.717091E-11 -2.826498E-11 -9.840349E-11  5.704899E-13 -7.479844E-12 -2.747523E-11
         2   8  1.036069E-11  2.327558E-11  1.591955E-11 -7.010314E-13  1.193981E-11  2.367298E-12
         2   9 -7.054273E-11 -4.744358E-11 -1.388548E-10 -1.443037E-12 -2.819602E-11  2.334056E-11
         2  10 -2.744996E-11 -1.396823E-11 -5.905483E-11  1.743673E-12 -1.255337E-11 -2.882183E-11
         2  11 -2.162633E-11 -9.124818E-12 -4.419737E-11  1.077771E-12 -1.018451E-11 -6.229549E-12
         2  12 -2.454893E-11 -1.763748E-11 -6.511396E-11 -3.013164E-13 -6.129924E-12 -6.018210E-12
         2  13 -4.939319E-12 -1.669260E-11 -1.814692E-11 -1.291808E-13  4.249318E-12 -2.785450E-12
         2  14  1.729906E-11  4.367370E-12  2.981461E-11 -5.314493E-13 -1.142044E-12 -4.686847E-12
         2  15 -1.687250E-12 -1.001462E-11  8.609410E-13 -1.025553E-12 -2.605886E-12  1.082270E-11
         2  16 -2.757629E-11 -2.258712E-11 -3.836371E-11 -1.518617E-12 -1.365961E-12  4.791069E-11
         2  17 -1.175850E-11 -1.431256E-11 -3.113600E-11 -4.378334E-14 -1.115485E-11 -9.023486E-13
         2  18 -4.190162E-11 -3.582362E-11 -7.723278E-11  1.960566E-12 -1.029083E-11  8.047892E-12
         2  19 -3.067964E-11 -1.855442E-11 -6.722826E-11  4.627884E-12 -1.533138E-12 -2.934963E-11
         2  20 -5.131444E-11 -3.861725E-11 -1.027522E-10  3.934399E-13 -2.360363E-11 -5.351453E-12
         2  21 -4.111271E-13  8.248188E-12  1.327988E-11 -4.554189E-12 -6.846501E-12 -3.349892E-11
         2  22 -3.292226E-12 -1.346161E-11 -1.668349E-11 -6.204822E-13 -1.737876E-11 -3.050407E-11
         2  23  2.521237E-11  1.386457E-11  4.669511E-11 -1.433844E-12 -5.456854E-12 -5.711478E-12
         2  24  5.346550E-12 -1.396930E-12  1.648515E-11 -2.339041E-12 -1.579630E-11  4.485556E-12
         2  25  8.269336E-12  2.100974E-11  3.792708E-11 -2.302112E-12  1.385335E-11 -3.081783E-11
         2  26  6.307799E-11  6.672297E-11  1.263704E-10  1.919077E-12 -2.205793E-11 -2.989034E-12
         2  27  3.493609E-11  4.566094E-11  7.517998E-11  6.669781E-12 -8.493065E-12  1.248600E-11
