
                        S T E P       1


                                INCREMENT     1


 displacements (vx,vy,vz) for set NALL and time  0.1000000E+01

         1  1.113627E-07 -1.859003E-12 -8.812068E-09 L
         2  1.174785E-07 -1.142849E-12 -1.477418E-08 L
         3  1.174785E-07 -1.142338E-12 -1.477418E-08 L
         4  1.113627E-07 -1.858640E-12 -8.812068E-09 L
         5  1.141482E-07 -1.692157E-12  1.517407E-16 L
         6  1.201500E-07 -1.888496E-14  7.534298E-22 L
         7  1.201500E-07 -1.836276E-14  7.534298E-22 L
         8  1.141482E-07 -1.691785E-12  1.517407E-16 L
         9  1.148238E-07 -1.468962E-12 -1.182015E-08 L
        10  1.174785E-07 -1.142284E-12 -1.477420E-08 L
        11  1.148238E-07 -1.468534E-12 -1.182015E-08 L
        12  1.113637E-07 -1.851963E-12 -8.812029E-09 L
        13  1.135333E-07 -1.629988E-12 -4.474596E-09 L
        14  1.195066E-07 -8.884830E-13 -7.418382E-09 L
        15  1.195066E-07 -8.879636E-13 -7.418382E-09 L
        16  1.135333E-07 -1.629618E-12 -4.474596E-09 L
        17  1.175969E-07 -1.304705E-12  7.647871E-17 L
        18  1.201500E-07  0.000000E+00  0.000000E+00 L
        19  1.175969E-07 -1.304267E-12  7.647871E-17 L
        20  1.141493E-07 -1.695326E-12  1.517417E-16 L
        21  1.274128E-07  1.761038E-12 -1.963331E-08 L
        22  1.274128E-07  1.761869E-12 -1.963331E-08 L
        23  1.299631E-07  2.029339E-12 -1.306346E-16 L
        24  1.299631E-07  2.030187E-12 -1.306346E-16 L
        25  1.208381E-07 -1.097737E-13 -1.727828E-08 L
        26  1.274118E-07  1.777814E-12 -1.963331E-08 L
        27  1.208381E-07 -1.091435E-13 -1.727828E-08 L
        28  1.292320E-07  2.097670E-12 -9.905873E-09 L
        29  1.292320E-07  2.098512E-12 -9.905873E-09 L
        30  1.233869E-07  1.067707E-13 -6.773850E-17 L
        31  1.299621E-07  2.037691E-12 -1.306347E-16 L
        32  1.233869E-07  1.074142E-13 -6.773850E-17 L
        33  1.113627E-07 -1.859003E-12  8.812069E-09 L
        34  1.174785E-07 -1.142849E-12  1.477418E-08 L
        35  1.174785E-07 -1.142338E-12  1.477418E-08 L
        36  1.113627E-07 -1.858640E-12  8.812069E-09 L
        37  1.135333E-07 -1.629988E-12  4.474597E-09 L
        38  1.195066E-07 -8.884830E-13  7.418382E-09 L
        39  1.195066E-07 -8.879636E-13  7.418382E-09 L
        40  1.135333E-07 -1.629618E-12  4.474597E-09 L
        41  1.148238E-07 -1.468962E-12  1.182015E-08 L
        42  1.174785E-07 -1.142284E-12  1.477420E-08 L
        43  1.148238E-07 -1.468534E-12  1.182015E-08 L
        44  1.113637E-07 -1.851963E-12  8.812030E-09 L
        45  1.274128E-07  1.761038E-12  1.963331E-08 L
        46  1.274128E-07  1.761869E-12  1.963331E-08 L
        47  1.292320E-07  2.097670E-12  9.905872E-09 L
        48  1.292320E-07  2.098512E-12  9.905872E-09 L
        49  1.208381E-07 -1.097738E-13  1.727828E-08 L
        50  1.274118E-07  1.777814E-12  1.963331E-08 L
        51  1.208381E-07 -1.091435E-13  1.727828E-08 L
        52  1.080165E-06 -1.552783E-11 -5.494504E-08 L
        53  1.132692E-06 -2.011433E-12 -7.411654E-08 L
        54  1.132692E-06 -2.008479E-12 -7.411654E-08 L
        55  1.080165E-06 -1.552549E-11 -5.494504E-08 L
        56  1.089371E-06 -1.505023E-11  4.923329E-16 L
        57  1.141693E-06  1.660608E-13 -2.299987E-21 L
        58  1.141693E-06  1.690380E-13 -2.299987E-21 L
        59  1.089371E-06 -1.504786E-11  4.923329E-16 L
        60  1.106365E-06 -9.703978E-12 -6.459842E-08 L
        61  1.132691E-06 -2.271728E-12 -7.411644E-08 L
        62  1.106365E-06 -9.701355E-12 -6.459842E-08 L
        63  1.080167E-06 -1.525541E-11 -5.494514E-08 L
        64  1.087240E-06 -1.496276E-11 -2.761617E-08 L
        65  1.139472E-06 -1.460544E-12 -3.711874E-08 L
        66  1.139472E-06 -1.457572E-12 -3.711874E-08 L
        67  1.087240E-06 -1.496040E-11 -2.761617E-08 L
        68  1.115557E-06 -9.237910E-12  2.465447E-16 L
        69  1.141693E-06  0.000000E+00  0.000000E+00 L
        70  1.115557E-06 -9.235266E-12  2.465447E-16 L
        71  1.089374E-06 -1.482727E-11  4.923276E-16 L
        72  1.201383E-06 -2.786084E-12 -9.111311E-08 L
        73  1.201383E-06 -2.782168E-12 -9.111311E-08 L
        74  1.210182E-06 -2.547602E-12 -4.510749E-16 L
        75  1.210182E-06 -2.543657E-12 -4.510749E-16 L
        76  1.162736E-06  9.712068E-13 -8.273704E-08 L
        77  1.201380E-06 -2.603653E-12 -9.111300E-08 L
        78  1.162736E-06  9.745757E-13 -8.273704E-08 L
        79  1.207799E-06 -2.406042E-12 -4.572470E-08 L
        80  1.207799E-06 -2.402105E-12 -4.572470E-08 L
        81  1.171526E-06  1.266330E-12 -2.286631E-16 L
        82  1.210179E-06 -2.410191E-12 -4.510723E-16 L
        83  1.171526E-06  1.269724E-12 -2.286631E-16 L
        84  1.080165E-06 -1.552783E-11  5.494504E-08 L
        85  1.132692E-06 -2.011433E-12  7.411654E-08 L
        86  1.132692E-06 -2.008479E-12  7.411654E-08 L
        87  1.080165E-06 -1.552549E-11  5.494504E-08 L
        88  1.087240E-06 -1.496276E-11  2.761617E-08 L
        89  1.139472E-06 -1.460544E-12  3.711874E-08 L
        90  1.139472E-06 -1.457572E-12  3.711874E-08 L
        91  1.087240E-06 -1.496040E-11  2.761617E-08 L
        92  1.106365E-06 -9.703978E-12  6.459842E-08 L
        93  1.132691E-06 -2.271728E-12  7.411644E-08 L
        94  1.106365E-06 -9.701355E-12  6.459842E-08 L
        95  1.080167E-06 -1.525541E-11  5.494514E-08 L
        96  1.201383E-06 -2.786084E-12  9.111311E-08 L
        97  1.201383E-06 -2.782168E-12  9.111311E-08 L
        98  1.207799E-06 -2.406042E-12  4.572470E-08 L
        99  1.207799E-06 -2.402105E-12  4.572470E-08 L
       100  1.162736E-06  9.712067E-13  8.273704E-08 L
       101  1.201380E-06 -2.603653E-12  9.111300E-08 L
       102  1.162736E-06  9.745757E-13  8.273704E-08 L

 stresses (elem, integ.pnt.,sxx,syy,szz,sxy,sxz,syz) for set EALL and time  0.1000000E+01

         1   1 -2.610194E-05  9.353781E-04  1.290742E-02  2.936022E-05  5.170025E-07 -2.207773E-04
         1   2  3.507929E-05  2.740665E-03  1.619479E-02  4.249575E-05  7.741477E-07 -2.489929E-04
         1   3 -2.611541E-05  9.879742E-04  1.285478E-02  2.929514E-05  1.991962E-06 -8.220398E-04
         1   4  3.506639E-05  2.799639E-03  1.613577E-02  4.240096E-05  2.908394E-06 -9.230766E-04
         1   5 -7.995922E-05  9.742024E-04  1.308149E-02  3.403328E-05  6.337616E-07 -2.232566E-04
         1   6  8.189588E-05  2.886462E-03  1.645832E-02  2.201796E-05  2.259772E-07 -2.513969E-04
         1   7 -7.996528E-05  1.027400E-03  1.302827E-02  3.395696E-05  2.357097E-06 -8.313187E-04
         1   8  8.185378E-05  2.945941E-03  1.639870E-02  2.197738E-05  1.343726E-06 -9.313491E-04
         2   1  7.718426E-06  3.140929E-03  1.893508E-02 -1.994693E-05 -3.824564E-07 -2.911359E-04
         2   2 -1.591463E-05  1.584217E-03  2.423247E-02 -2.057249E-05 -4.106567E-07 -4.190055E-04
         2   3  7.707361E-06  3.210421E-03  1.886555E-02 -1.990410E-05 -1.387264E-06 -1.085169E-03
         2   4 -1.594134E-05  1.683726E-03  2.413287E-02 -2.052726E-05 -1.448610E-06 -1.555533E-03
         2   5  6.170335E-05  3.309232E-03  1.922822E-02  3.715655E-06 -1.094354E-07 -2.932563E-04
         2   6 -5.967631E-05  1.651277E-03  2.451728E-02 -2.866601E-05 -5.117025E-07 -4.230565E-04
         2   7  6.165806E-05  3.379225E-03  1.915808E-02  3.715247E-06  8.742769E-08 -1.093592E-03
         2   8 -5.969418E-05  1.751753E-03  2.441675E-02 -2.860489E-05 -1.946576E-06 -1.570505E-03
         3   1 -7.995922E-05  9.742024E-04  1.308149E-02 -3.403328E-05 -6.337615E-07 -2.232566E-04
         3   2  8.189589E-05  2.886462E-03  1.645832E-02 -2.201796E-05 -2.259771E-07 -2.513969E-04
         3   3 -7.996528E-05  1.027400E-03  1.302827E-02 -3.395696E-05 -2.357097E-06 -8.313187E-04
         3   4  8.185379E-05  2.945941E-03  1.639870E-02 -2.197737E-05 -1.343725E-06 -9.313491E-04
         3   5 -2.610194E-05  9.353781E-04  1.290742E-02 -2.936022E-05 -5.170025E-07 -2.207773E-04
         3   6  3.507929E-05  2.740665E-03  1.619479E-02 -4.249575E-05 -7.741477E-07 -2.489929E-04
         3   7 -2.611541E-05  9.879742E-04  1.285478E-02 -2.929514E-05 -1.991962E-06 -8.220398E-04
         3   8  3.506640E-05  2.799639E-03  1.613577E-02 -4.240096E-05 -2.908394E-06 -9.230766E-04
         4   1  6.170335E-05  3.309232E-03  1.922822E-02 -3.715657E-06  1.094354E-07 -2.932563E-04
         4   2 -5.967632E-05  1.651277E-03  2.451728E-02  2.866601E-05  5.117025E-07 -4.230565E-04
         4   3  6.165807E-05  3.379225E-03  1.915808E-02 -3.715248E-06 -8.742780E-08 -1.093592E-03
         4   4 -5.969419E-05  1.751753E-03  2.441675E-02  2.860489E-05  1.946575E-06 -1.570505E-03
         4   5  7.718429E-06  3.140929E-03  1.893508E-02  1.994693E-05  3.824564E-07 -2.911359E-04
         4   6 -1.591463E-05  1.584217E-03  2.423247E-02  2.057249E-05  4.106567E-07 -4.190055E-04
         4   7  7.707364E-06  3.210421E-03  1.886555E-02  1.990410E-05  1.387264E-06 -1.085169E-03
         4   8 -1.594135E-05  1.683726E-03  2.413287E-02  2.052726E-05  1.448610E-06 -1.555533E-03
         5   1 -5.011621E-05  2.076616E-03  8.000692E-02  5.717895E-05  1.009102E-06 -1.439500E-03
         5   2  6.086794E-05  5.735289E-03  9.236950E-02  7.783662E-05  1.427492E-06 -1.602203E-03
         5   3 -5.035501E-05  2.418852E-03  7.966389E-02  5.704832E-05  3.876345E-06 -5.351543E-03
         5   4  6.133747E-05  6.116401E-03  9.198995E-02  7.765806E-05  5.339325E-06 -5.949251E-03
         5   5 -1.565096E-04  2.158417E-03  8.038571E-02  6.756074E-05  1.253833E-06 -1.444962E-03
         5   6  1.588845E-04  6.026400E-03  9.290979E-02  3.469914E-05  3.002156E-07 -1.607199E-03
         5   7 -1.567251E-04  2.501980E-03  8.004143E-02  6.740751E-05  4.688069E-06 -5.371925E-03
         5   8  1.592621E-04  6.408547E-03  9.252891E-02  3.463527E-05  2.080031E-06 -5.966701E-03
         6   1  2.848740E-05  6.234462E-03  1.024971E-01 -5.147602E-05 -9.808028E-07 -1.776970E-03
         6   2 -3.905653E-05  2.848258E-03  1.191953E-01 -4.766439E-05 -9.415002E-07 -2.146044E-03
         6   3  2.872519E-05  6.657279E-03  1.020750E-01 -5.131334E-05 -3.580474E-06 -6.610386E-03
         6   4 -3.911919E-05  3.359054E-03  1.186843E-01 -4.756676E-05 -3.348211E-06 -7.985418E-03
         6   5  1.347662E-04  6.550336E-03  1.030736E-01 -4.588237E-06 -4.268193E-07 -1.781397E-03
         6   6 -1.348682E-04  2.959679E-03  1.197046E-01 -6.187373E-05 -1.134193E-06 -2.153402E-03
         6   7  1.349056E-04  6.974168E-03  1.026502E-01 -4.550505E-06 -6.253428E-07 -6.627930E-03
         6   8 -1.349033E-04  3.472251E-03  1.191919E-01 -6.174307E-05 -4.218290E-06 -8.012739E-03
         7   1 -1.565096E-04  2.158417E-03  8.038571E-02 -6.756074E-05 -1.253833E-06 -1.444962E-03
         7   2  1.588845E-04  6.026400E-03  9.290979E-02 -3.469913E-05 -3.002154E-07 -1.607199E-03
         7   3 -1.567251E-04  2.501980E-03  8.004143E-02 -6.740750E-05 -4.688069E-06 -5.371925E-03
         7   4  1.592621E-04  6.408547E-03  9.252891E-02 -3.463526E-05 -2.080031E-06 -5.966701E-03
         7   5 -5.011621E-05  2.076616E-03  8.000692E-02 -5.717895E-05 -1.009102E-06 -1.439500E-03
         7   6  6.086795E-05  5.735289E-03  9.236950E-02 -7.783662E-05 -1.427492E-06 -1.602203E-03
         7   7 -5.035502E-05  2.418852E-03  7.966389E-02 -5.704832E-05 -3.876345E-06 -5.351543E-03
         7   8  6.133747E-05  6.116401E-03  9.198995E-02 -7.765806E-05 -5.339324E-06 -5.949251E-03
         8   1  1.347662E-04  6.550336E-03  1.030736E-01  4.588233E-06  4.268192E-07 -1.781397E-03
         8   2 -1.348682E-04  2.959679E-03  1.197046E-01  6.187372E-05  1.134193E-06 -2.153402E-03
         8   3  1.349056E-04  6.974168E-03  1.026502E-01  4.550501E-06  6.253425E-07 -6.627930E-03
         8   4 -1.349033E-04  3.472251E-03  1.191919E-01  6.174306E-05  4.218289E-06 -8.012739E-03
         8   5  2.848741E-05  6.234462E-03  1.024971E-01  5.147602E-05  9.808027E-07 -1.776970E-03
         8   6 -3.905654E-05  2.848258E-03  1.191953E-01  4.766439E-05  9.415002E-07 -2.146044E-03
         8   7  2.872520E-05  6.657279E-03  1.020750E-01  5.131334E-05  3.580474E-06 -6.610386E-03
         8   8 -3.911919E-05  3.359054E-03  1.186843E-01  4.756676E-05  3.348211E-06 -7.985418E-03
