
                        S T E P       1


                                INCREMENT     6


 forces (fx,fy,fz) for set LEFT and time  0.1000000E+01

         1  6.722332E+02 -7.885520E+02  3.006109E+03
         2  6.722332E+02  7.885520E+02  3.006109E+03
         5 -6.714344E+02  7.265973E+02 -3.001841E+03
         6 -6.714344E+02 -7.265973E+02 -3.001841E+03

 total force (fx,fy,fz) for set LEFT and time  0.1000000E+01

        1.597572E+00 -1.182343E-11  8.536677E+00

 stresses (elem, integ.pnt.,sxx,syy,szz,sxy,sxz,syz) for set ELALL and time  0.1000000E+01

         1   1 -1.395510E+02 -4.885551E+01 -2.587688E+01  1.175158E+00  1.562120E+00  1.276403E+01
         1   2 -1.395510E+02 -4.885551E+01 -2.587688E+01 -1.175158E+00  1.562120E+00 -1.276403E+01
         1   3 -1.381511E+02 -3.862993E+01 -6.544904E-01  9.999474E-02  3.431066E+00 -1.279795E+01
         1   4 -1.381511E+02 -3.862993E+01 -6.544904E-01 -9.999474E-02  3.431066E+00  1.279795E+01
         1   5  1.395081E+02  3.365231E+01 -2.445507E+01 -1.015645E-01 -2.579916E+00  1.277115E+01
         1   6  1.395081E+02  3.365231E+01 -2.445507E+01  1.015645E-01 -2.579916E+00 -1.277115E+01
         1   7  1.380978E+02  3.786271E+01 -1.758832E+00 -1.176640E+00 -4.082619E+00 -1.272873E+01
         1   8  1.380978E+02  3.786271E+01 -1.758832E+00  1.176640E+00 -4.082619E+00  1.272873E+01
         2   1 -1.274902E+02 -3.157803E+01  7.627182E+00  1.622719E+00  7.269520E+00  8.525624E+00
         2   2 -1.274902E+02 -3.157803E+01  7.627182E+00 -1.622719E+00  7.269520E+00 -8.525624E+00
         2   3 -1.265168E+02 -3.287304E+01 -2.601014E+00 -7.652228E-01  8.087634E+00 -8.606524E+00
         2   4 -1.265168E+02 -3.287304E+01 -2.601014E+00  7.652228E-01  8.087634E+00  8.606524E+00
         2   5  1.274655E+02  3.664055E+01  9.265608E+00  7.648751E-01 -6.952029E+00  8.583681E+00
         2   6  1.274655E+02  3.664055E+01  9.265608E+00 -7.648751E-01 -6.952029E+00 -8.583681E+00
         2   7  1.264124E+02  3.134785E+01 -2.286024E+00 -1.624037E+00 -8.978918E+00 -8.509586E+00
         2   8  1.264124E+02  3.134785E+01 -2.286024E+00  1.624037E+00 -8.978918E+00  8.509586E+00
         3   1 -1.073898E+02 -2.564722E+01 -6.061097E-01  1.575393E+00  9.776931E+00  5.160411E+00
         3   2 -1.073898E+02 -2.564722E+01 -6.061097E-01 -1.575393E+00  9.776931E+00 -5.160411E+00
         3   3 -1.066917E+02 -2.510478E+01 -2.559102E+00 -1.050649E+00  1.056087E+01 -5.236746E+00
         3   4 -1.066917E+02 -2.510478E+01 -2.559102E+00  1.050649E+00  1.056087E+01  5.236746E+00
         3   5  1.073015E+02  2.596053E+01  1.782483E+00  1.051395E+00 -1.016857E+01  5.227818E+00
         3   6  1.073015E+02  2.596053E+01  1.782483E+00 -1.051395E+00 -1.016857E+01 -5.227818E+00
         3   7  1.065459E+02  2.403496E+01 -8.183313E-01 -1.575922E+00 -1.142169E+01 -5.148749E+00
         3   8  1.065459E+02  2.403496E+01 -8.183313E-01  1.575922E+00 -1.142169E+01  5.148749E+00
         4   1 -9.052137E+01 -1.885940E+01  3.575699E-01  1.286912E+00  1.130758E+01  2.626938E+00
         4   2 -9.052137E+01 -1.885940E+01  3.575699E-01 -1.286912E+00  1.130758E+01 -2.626938E+00
         4   3 -9.011371E+01 -1.921033E+01 -2.815537E+00 -1.013802E+00  1.162159E+01 -2.686047E+00
         4   4 -9.011371E+01 -1.921033E+01 -2.815537E+00  1.013802E+00  1.162159E+01  2.686047E+00
         4   5  9.046055E+01  1.998937E+01  3.462524E+00  1.014839E+00 -1.130277E+01  2.680834E+00
         4   6  9.046055E+01  1.998937E+01  3.462524E+00 -1.014839E+00 -1.130277E+01 -2.680834E+00
         4   7  8.993836E+01  1.834581E+01  1.279321E-01 -1.287406E+00 -1.245021E+01 -2.622721E+00
         4   8  8.993836E+01  1.834581E+01  1.279321E-01  1.287406E+00 -1.245021E+01  2.622721E+00
         5   1 -7.484645E+01 -1.373106E+01 -6.117215E-01  8.910364E-01  1.137094E+01  7.662198E-01
         5   2 -7.484645E+01 -1.373106E+01 -6.117215E-01 -8.910364E-01  1.137094E+01 -7.662198E-01
         5   3 -7.465340E+01 -1.419128E+01 -2.854129E+00 -8.040336E-01  1.153736E+01 -7.980793E-01
         5   4 -7.465340E+01 -1.419128E+01 -2.854129E+00  8.040336E-01  1.153736E+01  7.980793E-01
         5   5  7.477010E+01  1.441555E+01  2.957435E+00  8.053006E-01 -1.143976E+01  7.965731E-01
         5   6  7.477010E+01  1.441555E+01  2.957435E+00 -8.053006E-01 -1.143976E+01 -7.965731E-01
         5   7  7.446572E+01  1.353652E+01  8.627312E-01 -8.913490E-01 -1.228182E+01 -7.649496E-01
         5   8  7.446572E+01  1.353652E+01  8.627312E-01  8.913490E-01 -1.228182E+01  7.649496E-01
         6   1 -6.082061E+01 -9.414431E+00 -8.721618E-01  4.869850E-01  1.066076E+01 -5.441905E-01
         6   2 -6.082061E+01 -9.414431E+00 -8.721618E-01 -4.869850E-01  1.066076E+01  5.441905E-01
         6   3 -6.079883E+01 -1.004722E+01 -2.740503E+00 -5.322938E-01  1.069488E+01  5.392207E-01
         6   4 -6.079883E+01 -1.004722E+01 -2.740503E+00  5.322938E-01  1.069488E+01 -5.392207E-01
         6   5  6.074601E+01  9.986857E+00  2.834986E+00  5.335241E-01 -1.070087E+01 -5.391125E-01
         6   6  6.074601E+01  9.986857E+00  2.834986E+00 -5.335241E-01 -1.070087E+01  5.391125E-01
         6   7  6.061206E+01  9.562596E+00  1.307053E+00 -4.872364E-01 -1.133934E+01  5.435335E-01
         6   8  6.061206E+01  9.562596E+00  1.307053E+00  4.872364E-01 -1.133934E+01 -5.435335E-01
         7   1 -4.835564E+01 -5.920112E+00 -1.053975E+00  1.308345E-01  9.390359E+00 -1.410122E+00
         7   2 -4.835564E+01 -5.920112E+00 -1.053975E+00 -1.308345E-01  9.390359E+00  1.410122E+00
         7   3 -4.845214E+01 -6.614065E+00 -2.483295E+00 -2.646450E-01  9.368472E+00  1.428286E+00
         7   4 -4.845214E+01 -6.614065E+00 -2.483295E+00  2.646450E-01  9.368472E+00 -1.428286E+00
         7   5  4.827658E+01  6.330445E+00  2.480488E+00  2.657469E-01 -9.455515E+00 -1.427366E+00
         7   6  4.827658E+01  6.330445E+00  2.480488E+00 -2.657469E-01 -9.455515E+00  1.427366E+00
         7   7  4.827660E+01  6.269041E+00  1.500214E+00 -1.310112E-01 -9.907219E+00  1.408742E+00
         7   8  4.827660E+01  6.269041E+00  1.500214E+00  1.310112E-01 -9.907219E+00 -1.408742E+00
         8   1 -3.742849E+01 -3.079201E+00 -1.039718E+00 -1.476939E-01  7.836829E+00 -1.919656E+00
         8   2 -3.742849E+01 -3.079201E+00 -1.039718E+00  1.476939E-01  7.836829E+00  1.919656E+00
         8   3 -3.760038E+01 -3.788527E+00 -2.126809E+00 -3.915177E-02  7.790072E+00  1.954957E+00
         8   4 -3.760038E+01 -3.788527E+00 -2.126809E+00  3.915177E-02  7.790072E+00 -1.954957E+00
         8   5  3.734818E+01  3.373176E+00  2.081113E+00  4.005814E-02 -7.919731E+00 -1.953849E+00
         8   6  3.734818E+01  3.373176E+00  2.081113E+00 -4.005814E-02 -7.919731E+00  1.953849E+00
         8   7  3.744274E+01  3.553665E+00  1.492109E+00  1.475799E-01 -8.227364E+00  1.918140E+00
         8   8  3.744274E+01  3.553665E+00  1.492109E+00 -1.475799E-01 -8.227364E+00 -1.918140E+00
         9   1 -2.798743E+01 -7.990093E-01 -9.166589E-01 -3.379263E-01  6.186339E+00 -2.145296E+00
         9   2 -2.798743E+01 -7.990093E-01 -9.166589E-01  3.379263E-01  6.186339E+00  2.145296E+00
         9   3 -2.819753E+01 -1.478774E+00 -1.717603E+00  1.266126E-01  6.137979E+00  2.191180E+00
         9   4 -2.819753E+01 -1.478774E+00 -1.717603E+00 -1.266126E-01  6.137979E+00 -2.191180E+00
         9   5  2.790762E+01  9.965698E-01  1.639207E+00 -1.259169E-01 -6.286706E+00 -2.190186E+00
         9   6  2.790762E+01  9.965698E-01  1.639207E+00  1.259169E-01 -6.286706E+00  2.190186E+00
         9   7  2.806143E+01  1.327850E+00  1.341865E+00  3.378707E-01 -6.483391E+00  2.143986E+00
         9   8  2.806143E+01  1.327850E+00  1.341865E+00 -3.378707E-01 -6.483391E+00 -2.143986E+00
        10   1 -1.998326E+01  1.007609E+00 -7.243244E-01 -4.414899E-01  4.587505E+00 -2.146530E+00
        10   2 -1.998326E+01  1.007609E+00 -7.243244E-01  4.414899E-01  4.587505E+00  2.146530E+00
        10   3 -2.020207E+01  3.888262E-01 -1.299953E+00  2.285340E-01  4.547962E+00  2.196696E+00
        10   4 -2.020207E+01  3.888262E-01 -1.299953E+00 -2.285340E-01  4.547962E+00 -2.196696E+00
        10   5  1.990737E+01 -8.823159E-01  1.205522E+00 -2.280368E-01 -4.696626E+00 -2.195952E+00
        10   6  1.990737E+01 -8.823159E-01  1.205522E+00  2.280368E-01 -4.696626E+00  2.195952E+00
        10   7  2.008888E+01 -4.787188E-01  1.106307E+00  4.414815E-01 -4.813594E+00  2.145555E+00
        10   8  2.008888E+01 -4.787188E-01  1.106307E+00 -4.414815E-01 -4.813594E+00 -2.145555E+00
        11   1 -1.337244E+01  2.407476E+00 -5.095138E-01 -4.675279E-01  3.146130E+00 -1.972372E+00
        11   2 -1.337244E+01  2.407476E+00 -5.095138E-01  4.675279E-01  3.146130E+00  1.972372E+00
        11   3 -1.357715E+01  1.873816E+00 -9.103550E-01  2.709436E-01  3.119105E+00  2.021300E+00
        11   4 -1.357715E+01  1.873816E+00 -9.103550E-01 -2.709436E-01  3.119105E+00 -2.021300E+00
        11   5  1.330403E+01 -2.334639E+00  8.117847E-01 -2.706140E-01 -3.254386E+00 -2.020822E+00
        11   6  1.330403E+01 -2.334639E+00  8.117847E-01  2.706140E-01 -3.254386E+00  2.020822E+00
        11   7  1.348672E+01 -1.922011E+00  8.347915E-01  4.675525E-01 -3.317391E+00  1.971738E+00
        11   8  1.348672E+01 -1.922011E+00  8.347915E-01 -4.675525E-01 -3.317391E+00 -1.971738E+00
        12   1 -8.120617E+00  3.454078E+00 -3.072316E-01 -4.291442E-01  1.935948E+00 -1.663799E+00
        12   2 -8.120617E+00  3.454078E+00 -3.072316E-01  4.291442E-01  1.935948E+00  1.663799E+00
        12   3 -8.294499E+00  3.023042E+00 -5.756065E-01  2.628473E-01  1.920527E+00  1.706997E+00
        12   4 -8.294499E+00  3.023042E+00 -5.756065E-01 -2.628473E-01  1.920527E+00 -1.706997E+00
        12   5  8.063214E+00 -3.416481E+00  4.840200E-01 -2.626464E-01 -2.033143E+00 -1.706740E+00
        12   6  8.063214E+00 -3.416481E+00  4.840200E-01  2.626464E-01 -2.033143E+00  1.706740E+00
        12   7  8.225889E+00 -3.045185E+00  5.668461E-01  4.291855E-01 -2.062737E+00  1.663444E+00
        12   8  8.225889E+00 -3.045185E+00  5.668461E-01 -4.291855E-01 -2.062737E+00 -1.663444E+00
        13   1 -4.203335E+00  4.188132E+00 -1.440979E-01 -3.408610E-01  1.004329E+00 -1.255922E+00
        13   2 -4.203335E+00  4.188132E+00 -1.440979E-01  3.408610E-01  1.004329E+00  1.255922E+00
        13   3 -4.334743E+00  3.872149E+00 -3.127063E-01  2.152007E-01  9.973762E-01  1.290006E+00
        13   4 -4.334743E+00  3.872149E+00 -3.127063E-01 -2.152007E-01  9.973762E-01 -1.290006E+00
        13   5  4.159952E+00 -4.171964E+00  2.378137E-01 -2.150899E-01 -1.081351E+00 -1.289896E+00
        13   6  4.159952E+00 -4.171964E+00  2.378137E-01  2.150899E-01 -1.081351E+00  1.289896E+00
        13   7  4.286761E+00 -3.880133E+00  3.319809E-01  3.409034E-01 -1.092661E+00  1.255756E+00
        13   8  4.286761E+00 -3.880133E+00  3.319809E-01 -3.409034E-01 -1.092661E+00 -1.255756E+00
        14   1 -1.605021E+00  4.639345E+00 -3.809826E-02 -2.168591E-01  3.787115E-01 -7.798632E-01
        14   2 -1.605021E+00  4.639345E+00 -3.809826E-02  2.168591E-01  3.787115E-01  7.798632E-01
        14   3 -1.686528E+00  4.446640E+00 -1.301228E-01  1.389918E-01  3.765199E-01  8.025232E-01
        14   4 -1.686528E+00  4.446640E+00 -1.301228E-01 -1.389918E-01  3.765199E-01 -8.025232E-01
        14   5  1.577968E+00 -4.634224E+00  8.034065E-02 -1.389392E-01 -4.282777E-01 -8.024896E-01
        14   6  1.577968E+00 -4.634224E+00  8.034065E-02  1.389392E-01 -4.282777E-01  8.024896E-01
        14   7  1.658133E+00 -4.448584E+00  1.509422E-01  2.168901E-01 -4.313754E-01  7.798032E-01
        14   8  1.658133E+00 -4.448584E+00  1.509422E-01 -2.168901E-01 -4.313754E-01 -7.798032E-01
        15   1 -3.170449E-01  4.827388E+00 -7.309869E-04 -6.984597E-02  7.233079E-02 -2.643551E-01
        15   2 -3.170449E-01  4.827388E+00 -7.309862E-04  6.984597E-02  7.233079E-02  2.643551E-01
        15   3 -3.446283E-01  4.762646E+00 -2.989840E-02  4.397441E-02  7.197858E-02  2.742516E-01
        15   4 -3.446283E-01  4.762646E+00 -2.989840E-02 -4.397441E-02  7.197858E-02 -2.742516E-01
        15   5  3.078189E-01 -4.826517E+00  1.193034E-02 -4.395945E-02 -8.955404E-02 -2.742458E-01
        15   6  3.078189E-01 -4.826517E+00  1.193034E-02  4.395945E-02 -8.955404E-02  2.742458E-01
        15   7  3.351955E-01 -4.762890E+00  3.783337E-02  6.985768E-02 -9.001067E-02  2.643424E-01
        15   8  3.351955E-01 -4.762890E+00  3.783337E-02 -6.985768E-02 -9.001067E-02 -2.643424E-01
