
                        S T E P       1


                                INCREMENT     1


 displacements (vx,vy,vz) for set MIDBOT and time  0.1000000E+01

         2  1.259921E-06 -2.249926E-06  0.000000E+00
         4  1.079911E-06 -2.249942E-06  0.000000E+00
         6  8.999344E-07 -2.249980E-06  0.000000E+00
         8  7.199564E-07 -2.249993E-06  0.000000E+00
        10  5.399715E-07 -2.249996E-06  0.000000E+00
        12  3.599829E-07 -2.249997E-06  0.000000E+00
        14  1.799920E-07 -2.249997E-06  0.000000E+00
        16  1.481899E-16 -2.249997E-06  0.000000E+00
        18 -1.799920E-07 -2.249997E-06  0.000000E+00
        20 -3.599829E-07 -2.249997E-06  0.000000E+00
        22 -5.399715E-07 -2.249996E-06  0.000000E+00
        24 -7.199564E-07 -2.249993E-06  0.000000E+00
        26 -8.999344E-07 -2.249980E-06  0.000000E+00
        28 -1.079911E-06 -2.249942E-06  0.000000E+00
        30 -1.259921E-06 -2.249926E-06  0.000000E+00

 displacements (vx,vy,vz) for set END_BOT and time  0.1000000E+01

         1  1.349920E-06 -2.249931E-06  0.000000E+00
         3  1.169914E-06 -2.249919E-06  0.000000E+00
         5  9.899220E-07 -2.249968E-06  0.000000E+00
         7  8.099466E-07 -2.249988E-06  0.000000E+00
         9  6.299646E-07 -2.249995E-06  0.000000E+00
        11  4.499776E-07 -2.249997E-06  0.000000E+00
        13  2.699877E-07 -2.249997E-06  0.000000E+00
        15  8.999606E-08 -2.249997E-06  0.000000E+00
        17 -8.999606E-08 -2.249997E-06  0.000000E+00
        19 -2.699877E-07 -2.249997E-06  0.000000E+00
        21 -4.499776E-07 -2.249997E-06  0.000000E+00
        23 -6.299646E-07 -2.249995E-06  0.000000E+00
        25 -8.099466E-07 -2.249988E-06  0.000000E+00
        27 -9.899220E-07 -2.249968E-06  0.000000E+00
        29 -1.169914E-06 -2.249919E-06  0.000000E+00
        31 -1.349920E-06 -2.249931E-06  0.000000E+00

 stresses (elem, integ.pnt.,sxx,syy,szz,sxy,sxz,syz) for set PLATE and time  0.1000000E+01

         1   1  7.760591E-05  8.999968E+00 -6.931137E-05 -1.147534E-05 -2.425481E-05  1.714970E-05 _shell_0000000001   
         1   2 -2.735661E-06  8.999996E+00  8.403586E-05  1.099730E-05 -5.663847E-05  1.438265E-05 _shell_0000000001   
         1   3  5.340612E-05  9.000442E+00  2.748146E-04  6.167150E-05 -8.902214E-05 -3.134601E-05 _shell_0000000001   
         1   4  3.229296E-07  8.999947E+00 -6.816545E-05  3.310595E-05 -6.159632E-05  8.907803E-05 _shell_0000000001   
         1   5 -6.582757E-05  8.999960E+00  2.555789E-05  4.840023E-05  2.617799E-05 -5.785931E-05 _shell_0000000001   
         1   6  4.746689E-05  9.000434E+00  2.569564E-04  9.189606E-05  1.139523E-04 -2.477583E-04 _shell_0000000001   
         1   7 -2.005900E-04  8.999879E+00 -9.737010E-05  7.737005E-05 -9.100821E-05  1.610064E-04 _shell_0000000001   
         1   8 -2.684087E-04  8.999861E+00 -1.002756E-04  8.548596E-05  1.169241E-04 -1.301013E-04 _shell_0000000001   
         1   9 -1.138208E-04  9.000347E+00  1.347379E-04  1.218034E-04  3.248564E-04 -4.641705E-04 _shell_0000000001   
         1  10  8.063764E-05  9.000149E+00 -1.413355E-05 -7.125836E-05 -2.033423E-14  1.026693E-13 _shell_0000000001   
         1  11 -1.797372E-04  8.999757E+00 -4.081955E-05  5.744337E-05 -1.500976E-14 -2.443365E-14 _shell_0000000001   
         1  12 -3.036286E-04  8.999783E+00 -3.007408E-05  2.143466E-04  1.360424E-14  1.785194E-14 _shell_0000000001   
         1  13  1.892556E-04  9.000207E+00  6.668419E-05 -8.668815E-05  1.460928E-14  7.981657E-14 _shell_0000000001   
         1  14 -5.692817E-05  8.999800E+00 -1.962571E-05  3.483522E-05  4.829081E-15 -2.428666E-14 _shell_0000000001   
         1  15 -1.236669E-04  8.999854E+00  3.173961E-05  1.845601E-04  6.451246E-15 -3.257814E-15 _shell_0000000001   
         1  16  1.742435E-04  9.000220E+00  1.171513E-04 -1.024351E-04  9.980442E-15  6.276106E-14 _shell_0000000001   
         1  17 -7.360837E-05  8.999782E+00 -6.578739E-05  1.190987E-05 -4.364208E-15 -1.801408E-14 _shell_0000000001   
         1  18 -9.905372E-05  8.999847E+00 -1.080716E-05  1.544564E-04 -5.185407E-15 -1.034998E-14 _shell_0000000001   
         1  19  7.760591E-05  8.999968E+00 -6.931137E-05 -1.147534E-05  2.425481E-05 -1.714970E-05 _shell_0000000001   
         1  20 -2.735661E-06  8.999996E+00  8.403586E-05  1.099730E-05  5.663847E-05 -1.438265E-05 _shell_0000000001   
         1  21  5.340612E-05  9.000442E+00  2.748146E-04  6.167150E-05  8.902214E-05  3.134601E-05 _shell_0000000001   
         1  22  3.229294E-07  8.999947E+00 -6.816545E-05  3.310595E-05  6.159632E-05 -8.907803E-05 _shell_0000000001   
         1  23 -6.582757E-05  8.999960E+00  2.555789E-05  4.840023E-05 -2.617799E-05  5.785931E-05 _shell_0000000001   
         1  24  4.746689E-05  9.000434E+00  2.569564E-04  9.189606E-05 -1.139523E-04  2.477583E-04 _shell_0000000001   
         1  25 -2.005900E-04  8.999879E+00 -9.737010E-05  7.737005E-05  9.100821E-05 -1.610064E-04 _shell_0000000001   
         1  26 -2.684087E-04  8.999861E+00 -1.002756E-04  8.548596E-05 -1.169241E-04  1.301013E-04 _shell_0000000001   
         1  27 -1.138208E-04  9.000347E+00  1.347379E-04  1.218034E-04 -3.248564E-04  4.641705E-04 _shell_0000000001   
         2   1 -8.789372E-05  9.000347E+00  1.953690E-04 -2.191104E-04 -9.916313E-05 -3.898143E-05 _shell_0000000002   
         2   2  1.123305E-04  8.999930E+00  7.157793E-05 -5.380493E-05 -1.008321E-05 -1.236248E-05 _shell_0000000002   
         2   3  4.877130E-04  9.000009E+00  3.591700E-05 -6.800994E-05  7.899670E-05 -1.766041E-05 _shell_0000000002   
         2   4  4.090807E-04  9.000550E+00  3.984666E-04 -4.320041E-04  1.335278E-04 -2.605253E-04 _shell_0000000002   
         2   5  2.834236E-04  8.999976E+00  1.239368E-04 -1.455641E-04  8.213522E-05 -1.073709E-04 _shell_0000000002   
         2   6  3.648416E-04  8.999929E+00  1.200994E-05 -3.863446E-05  3.074261E-05  1.386661E-05 _shell_0000000002   
         2   7  9.571080E-04  9.000764E+00  5.840490E-04 -6.477186E-04  3.597437E-04 -4.820692E-04 _shell_0000000002   
         2   8  5.185199E-04  9.000045E+00  1.889979E-04 -2.401439E-04  1.678785E-04 -2.023793E-04 _shell_0000000002   
         2   9  3.189238E-04  8.999885E+00  3.102242E-05 -1.207971E-05 -2.398662E-05  4.539363E-05 _shell_0000000002   
         2  10 -2.863149E-04  8.999743E+00 -4.538554E-05 -4.547952E-05  1.301855E-14  5.705987E-14 _shell_0000000002   
         2  11  7.083078E-05  8.999692E+00 -1.225513E-05  2.644034E-05 -2.283542E-14  3.054682E-16 _shell_0000000002   
         2  12  6.031347E-04  9.000137E+00  1.090054E-04 -8.115023E-05 -3.631501E-14 -9.540814E-14 _shell_0000000002   
         2  13  4.723473E-05  8.999876E+00  8.767287E-05 -2.060661E-04  8.451468E-15  2.115043E-14 _shell_0000000002   
         2  14  7.849914E-05  8.999668E+00 -2.993541E-05 -1.301164E-05  8.144580E-16 -9.677380E-15 _shell_0000000002   
         2  15  3.168386E-04  8.999987E+00  1.505916E-05  5.324010E-07 -3.861922E-15 -7.654723E-14 _shell_0000000002   
         2  16  4.318373E-04  9.000020E+00  2.032162E-04 -3.694734E-04  3.359627E-15  9.821495E-15 _shell_0000000002   
         2  17  1.501707E-04  8.999667E+00 -3.491347E-05 -5.528435E-05  1.564756E-14 -6.204442E-15 _shell_0000000002   
         2  18  1.074960E-04  8.999874E+00 -3.596753E-05  7.939430E-05  7.206480E-15 -4.364076E-14 _shell_0000000002   
         2  19 -8.789372E-05  9.000347E+00  1.953690E-04 -2.191104E-04  9.916313E-05  3.898143E-05 _shell_0000000002   
         2  20  1.123305E-04  8.999930E+00  7.157793E-05 -5.380493E-05  1.008321E-05  1.236248E-05 _shell_0000000002   
         2  21  4.877130E-04  9.000009E+00  3.591700E-05 -6.800994E-05 -7.899670E-05  1.766041E-05 _shell_0000000002   
         2  22  4.090807E-04  9.000550E+00  3.984666E-04 -4.320041E-04 -1.335278E-04  2.605253E-04 _shell_0000000002   
         2  23  2.834236E-04  8.999976E+00  1.239368E-04 -1.455641E-04 -8.213522E-05  1.073709E-04 _shell_0000000002   
         2  24  3.648416E-04  8.999929E+00  1.200994E-05 -3.863446E-05 -3.074261E-05 -1.386661E-05 _shell_0000000002   
         2  25  9.571080E-04  9.000764E+00  5.840490E-04 -6.477186E-04 -3.597437E-04  4.820692E-04 _shell_0000000002   
         2  26  5.185199E-04  9.000045E+00  1.889979E-04 -2.401439E-04 -1.678785E-04  2.023793E-04 _shell_0000000002   
         2  27  3.189238E-04  8.999885E+00  3.102242E-05 -1.207971E-05  2.398662E-05 -4.539363E-05 _shell_0000000002   
         3   1  3.659942E-04  9.000005E+00 -5.787446E-05  3.030829E-05  1.081606E-05 -1.669286E-05 _shell_0000000003   
         3   2  3.486768E-04  8.999991E+00 -2.324756E-05  1.539807E-05  7.483606E-07  2.394794E-06 _shell_0000000003   
         3   3  3.412100E-04  9.000010E+00  1.093758E-05  7.095839E-06 -9.319343E-06  5.777447E-06 _shell_0000000003   
         3   4  2.752263E-04  8.999946E+00 -5.571837E-05  3.371689E-05 -2.949259E-05  4.197060E-05 _shell_0000000003   
         3   5  2.655176E-04  8.999953E+00 -4.519757E-05  2.636458E-05 -1.807458E-05  2.777694E-05 _shell_0000000003   
         3   6  2.813647E-04  9.000008E+00  1.526455E-06  2.562025E-05 -6.656564E-06 -2.121721E-06 _shell_0000000003   
         3   7  1.950012E-04  8.999895E+00 -3.463284E-05  4.208384E-05 -6.735981E-05  1.006341E-04 _shell_0000000003   
         3   8  1.880185E-04  8.999918E+00 -5.961150E-05  4.228943E-05 -3.445608E-05  5.315908E-05 _shell_0000000003   
         3   9  2.222965E-04  9.000006E+00 -1.174195E-05  4.910301E-05 -1.552351E-06 -1.002089E-05 _shell_0000000003   
         3  10  4.222224E-04  9.000171E+00  8.799301E-06 -8.917134E-06 -2.494342E-14 -1.044058E-13 _shell_0000000003   
         3  11  3.619703E-04  9.000057E+00  4.914998E-07 -1.823691E-06 -3.046694E-15 -3.481803E-14 _shell_0000000003   
         3  12  3.115688E-04  8.999976E+00 -8.258072E-06  1.187774E-05  1.215824E-14 -8.846888E-15 _shell_0000000003   
         3  13  3.699609E-04  9.000128E+00  2.745813E-05 -1.982010E-05 -9.414147E-15 -7.981651E-14 _shell_0000000003   
         3  14  3.173175E-04  9.000035E+00 -4.955769E-06 -5.168755E-06 -6.515635E-15 -3.736884E-14 _shell_0000000003   
         3  15  2.902299E-04  8.999991E+00 -1.166448E-06  1.609058E-05  1.137863E-16 -1.529649E-14 _shell_0000000003   
         3  16  3.282422E-04  9.000094E+00  6.504641E-05 -2.576472E-05 -5.916773E-15 -6.022160E-14 _shell_0000000003   
         3  17  2.783248E-04  9.000017E+00 -2.866956E-06 -3.555466E-06 -1.639689E-14 -4.214242E-14 _shell_0000000003   
         3  18  2.696681E-04  9.000004E+00  2.067896E-06  2.526177E-05 -2.131773E-15 -1.124070E-14 _shell_0000000003   
         3  19  3.659942E-04  9.000005E+00 -5.787446E-05  3.030829E-05 -1.081606E-05  1.669286E-05 _shell_0000000003   
         3  20  3.486768E-04  8.999991E+00 -2.324756E-05  1.539807E-05 -7.483606E-07 -2.394794E-06 _shell_0000000003   
         3  21  3.412100E-04  9.000010E+00  1.093758E-05  7.095839E-06  9.319343E-06 -5.777447E-06 _shell_0000000003   
         3  22  2.752263E-04  8.999946E+00 -5.571837E-05  3.371689E-05  2.949259E-05 -4.197060E-05 _shell_0000000003   
         3  23  2.655176E-04  8.999953E+00 -4.519757E-05  2.636458E-05  1.807458E-05 -2.777694E-05 _shell_0000000003   
         3  24  2.813647E-04  9.000008E+00  1.526455E-06  2.562025E-05  6.656564E-06  2.121721E-06 _shell_0000000003   
         3  25  1.950012E-04  8.999895E+00 -3.463284E-05  4.208384E-05  6.735981E-05 -1.006341E-04 _shell_0000000003   
         3  26  1.880185E-04  8.999918E+00 -5.961150E-05  4.228943E-05  3.445608E-05 -5.315908E-05 _shell_0000000003   
         3  27  2.222965E-04  9.000006E+00 -1.174195E-05  4.910301E-05  1.552351E-06  1.002089E-05 _shell_0000000003   
         4   1  2.963672E-04  9.000005E+00  6.006597E-06  6.314107E-06 -8.498551E-06  3.205295E-06 _shell_0000000004   
         4   2  2.622211E-04  9.000001E+00  3.865539E-06  3.048608E-06 -2.805417E-06  1.022372E-06 _shell_0000000004   
         4   3  2.276065E-04  8.999998E+00 -1.931961E-06  6.145962E-06  2.887716E-06 -1.313338E-06 _shell_0000000004   
         4   4  2.749356E-04  9.000026E+00  1.738337E-05  1.752559E-05  4.089789E-06 -1.189751E-05 _shell_0000000004   
         4   5  2.444285E-04  9.000011E+00  9.995297E-06  1.433637E-05  2.971992E-06 -5.554350E-06 _shell_0000000004   
         4   6  2.136056E-04  8.999999E+00 -6.927159E-07  1.750999E-05  1.854194E-06  6.360214E-07 _shell_0000000004   
         4   7  2.494371E-04  9.000043E+00  2.115262E-05  2.686918E-05  1.574700E-05 -2.700031E-05 _shell_0000000004   
         4   8  2.244312E-04  9.000020E+00  1.286281E-05  2.375623E-05  7.818270E-06 -1.213107E-05 _shell_0000000004   
         4   9  1.992624E-04  8.999999E+00  1.629558E-06  2.700614E-05 -1.104585E-07  2.585381E-06 _shell_0000000004   
         4  10  2.818160E-04  8.999960E+00 -1.191790E-05  1.313968E-05  1.082671E-14 -2.764344E-14 _shell_0000000004   
         4  11  2.593568E-04  8.999983E+00 -2.372068E-06  4.823279E-06  1.245487E-14 -3.685410E-14 _shell_0000000004   
         4  12  2.364291E-04  9.000007E+00  3.517318E-06  2.869730E-06  1.050108E-14  7.048606E-14 _shell_0000000004   
         4  13  2.515453E-04  8.999977E+00 -4.329299E-06  2.824679E-05  7.695485E-16 -1.957478E-14 _shell_0000000004   
         4  14  2.327250E-04  8.999989E+00 -3.048754E-08  2.000667E-05 -4.611276E-16 -2.924732E-14 _shell_0000000004   
         4  15  2.135891E-04  9.000004E+00  9.683854E-07  1.812939E-05  2.735309E-15  5.355040E-14 _shell_0000000004   
         4  16  2.172077E-04  8.999991E+00 -4.348228E-06  4.148601E-05 -1.261360E-15 -1.379770E-14 _shell_0000000004   
         4  17  2.038887E-04  8.999995E+00 -9.511557E-07  3.332216E-05 -1.113738E-14 -2.697310E-14 _shell_0000000004   
         4  18  1.904068E-04  9.000001E+00 -4.975181E-07  3.152116E-05 -2.818768E-15  8.153434E-15 _shell_0000000004   
         4  19  2.963672E-04  9.000005E+00  6.006597E-06  6.314106E-06  8.498551E-06 -3.205295E-06 _shell_0000000004   
         4  20  2.622211E-04  9.000001E+00  3.865539E-06  3.048608E-06  2.805417E-06 -1.022372E-06 _shell_0000000004   
         4  21  2.276065E-04  8.999998E+00 -1.931961E-06  6.145962E-06 -2.887716E-06  1.313338E-06 _shell_0000000004   
         4  22  2.749356E-04  9.000026E+00  1.738337E-05  1.752559E-05 -4.089789E-06  1.189751E-05 _shell_0000000004   
         4  23  2.444285E-04  9.000011E+00  9.995297E-06  1.433637E-05 -2.971992E-06  5.554350E-06 _shell_0000000004   
         4  24  2.136056E-04  8.999999E+00 -6.927160E-07  1.750999E-05 -1.854194E-06 -6.360213E-07 _shell_0000000004   
         4  25  2.494371E-04  9.000043E+00  2.115262E-05  2.686918E-05 -1.574700E-05  2.700031E-05 _shell_0000000004   
         4  26  2.244312E-04  9.000020E+00  1.286281E-05  2.375623E-05 -7.818270E-06  1.213107E-05 _shell_0000000004   
         4  27  1.992624E-04  8.999999E+00  1.629558E-06  2.700614E-05  1.104585E-07 -2.585381E-06 _shell_0000000004   
         5   1  2.132258E-04  8.999999E+00 -2.783537E-06  5.565046E-06  2.188575E-06 -1.554438E-06 _shell_0000000005   
         5   2  1.936491E-04  9.000000E+00 -4.273682E-07  3.300273E-06  6.481383E-07 -2.781258E-07 _shell_0000000005   
         5   3  1.734878E-04  9.000000E+00  5.933793E-07  3.344082E-06 -8.922983E-07  4.877510E-07 _shell_0000000005   
         5   4  1.977193E-04  8.999995E+00 -4.595536E-06  1.640462E-05 -5.658088E-07  2.240259E-06 _shell_0000000005   
         5   5  1.819099E-04  8.999999E+00 -1.937649E-06  1.265282E-05 -6.125144E-07  1.331975E-06 _shell_0000000005   
         5   6  1.660264E-04  9.000002E+00  5.758334E-07  1.120961E-05 -6.592199E-07 -8.674387E-08 _shell_0000000005   
         5   7  1.806651E-04  8.999992E+00 -5.085829E-06  2.744256E-05 -3.070380E-06  6.034955E-06 _shell_0000000005   
         5   8  1.681234E-04  8.999997E+00 -3.292017E-06  2.220374E-05 -1.623354E-06  2.942076E-06 _shell_0000000005   
         5   9  1.560181E-04  9.000002E+00 -4.515938E-07  1.927351E-05 -1.763285E-07 -6.612388E-07 _shell_0000000005   
         5  10  2.162758E-04  9.000010E+00  1.633005E-06  3.325009E-06  7.277687E-15  7.416342E-14 _shell_0000000005   
         5  11  1.936793E-04  9.000004E+00  9.694237E-07  2.371947E-06 -9.641590E-16 -1.313308E-14 _shell_0000000005   
         5  12  1.704983E-04  8.999998E+00 -1.029579E-06  3.727469E-06 -6.497652E-15  1.128542E-14 _shell_0000000005   
         5  13  2.030648E-04  9.000008E+00  8.047887E-07  1.315800E-05  6.617445E-15  5.863585E-14 _shell_0000000005   
         5  14  1.842357E-04  9.000004E+00  4.429266E-07  1.071791E-05  2.904504E-15  3.302997E-15 _shell_0000000005   
         5  15  1.653325E-04  9.000000E+00 -6.334069E-08  1.058641E-05  8.878021E-16  2.301079E-14 _shell_0000000005   
         5  16  1.883061E-04  9.000005E+00  1.298280E-06  2.318936E-05  2.774237E-15  1.959495E-14 _shell_0000000005   
         5  17  1.727447E-04  9.000003E+00  7.234225E-08  1.926225E-05  3.802702E-16  6.623173E-15 _shell_0000000005   
         5  18  1.576196E-04  9.000002E+00 -1.069843E-07  1.764373E-05 -1.899130E-15  1.774872E-14 _shell_0000000005   
         5  19  2.132258E-04  8.999999E+00 -2.783537E-06  5.565046E-06 -2.188575E-06  1.554438E-06 _shell_0000000005   
         5  20  1.936491E-04  9.000000E+00 -4.273681E-07  3.300273E-06 -6.481383E-07  2.781258E-07 _shell_0000000005   
         5  21  1.734878E-04  9.000000E+00  5.933793E-07  3.344082E-06  8.922983E-07 -4.877510E-07 _shell_0000000005   
         5  22  1.977193E-04  8.999995E+00 -4.595536E-06  1.640462E-05  5.658088E-07 -2.240259E-06 _shell_0000000005   
         5  23  1.819099E-04  8.999999E+00 -1.937649E-06  1.265282E-05  6.125144E-07 -1.331975E-06 _shell_0000000005   
         5  24  1.660264E-04  9.000002E+00  5.758334E-07  1.120961E-05  6.592199E-07  8.674392E-08 _shell_0000000005   
         5  25  1.806651E-04  8.999992E+00 -5.085829E-06  2.744256E-05  3.070380E-06 -6.034955E-06 _shell_0000000005   
         5  26  1.681234E-04  8.999997E+00 -3.292017E-06  2.220374E-05  1.623354E-06 -2.942076E-06 _shell_0000000005   
         5  27  1.560181E-04  9.000002E+00 -4.515939E-07  1.927351E-05  1.763285E-07  6.612388E-07 _shell_0000000005   
         6   1  1.620486E-04  9.000000E+00 -1.413245E-08  3.076069E-06 -6.322297E-07  5.270385E-07 _shell_0000000006   
         6   2  1.495038E-04  9.000000E+00  1.089358E-07  1.748652E-06 -3.268684E-07  2.341918E-07 _shell_0000000006   
         6   3  1.365661E-04  9.000000E+00 -4.001803E-07  1.811658E-06 -2.150705E-08 -4.543319E-08 _shell_0000000006   
         6   4  1.574362E-04  9.000002E+00  9.975850E-07  9.643549E-06  9.726286E-08 -5.203144E-07 _shell_0000000006   
         6   5  1.463448E-04  9.000002E+00  7.813816E-07  7.228213E-06  3.471662E-08 -2.535378E-07 _shell_0000000006   
         6   6  1.348473E-04  9.000001E+00 -9.785682E-08  6.203301E-06 -2.782963E-08  2.646050E-08 _shell_0000000006   
         6   7  1.509754E-04  9.000004E+00  1.085577E-06  1.598496E-05  7.692732E-07 -1.567667E-06 _shell_0000000006   
         6   8  1.414523E-04  9.000003E+00  7.983519E-07  1.248171E-05  3.388194E-07 -7.412674E-07 _shell_0000000006   
         6   9  1.315099E-04  9.000001E+00 -1.827585E-07  1.036888E-05 -9.163439E-08  9.835416E-08 _shell_0000000006   
         6  10  1.610756E-04  8.999997E+00 -1.148808E-06  3.268043E-06 -1.854961E-15  2.692505E-14 _shell_0000000006   
         6  11  1.492897E-04  8.999999E+00 -2.668287E-07  1.659737E-06  1.101004E-14 -8.348163E-15 _shell_0000000006   
         6  12  1.371109E-04  9.000000E+00 -1.703374E-08  1.441854E-06  1.669256E-14 -3.149892E-14 _shell_0000000006   
         6  13  1.559717E-04  8.999999E+00 -3.477574E-07  1.008849E-05  5.268504E-15  2.932037E-14 _shell_0000000006   
         6  14  1.456391E-04  9.000001E+00  1.949503E-07  7.392268E-06  1.242044E-14  1.747990E-15 _shell_0000000006   
         6  15  1.349005E-04  9.000001E+00  7.462307E-08  6.086468E-06  1.005041E-14  5.907245E-15 _shell_0000000006   
         6  16  1.490193E-04  9.000001E+00 -4.704322E-07  1.668288E-05  7.665665E-16  1.531906E-14 _shell_0000000006   
         6  17  1.402551E-04  9.000001E+00  1.254012E-09  1.289873E-05  8.686571E-15  7.234015E-15 _shell_0000000006   
         6  18  1.310716E-04  9.000001E+00 -2.209452E-07  1.050502E-05  8.593677E-15  2.917653E-14 _shell_0000000006   
         6  19  1.620486E-04  9.000000E+00 -1.413238E-08  3.076069E-06  6.322297E-07 -5.270384E-07 _shell_0000000006   
         6  20  1.495038E-04  9.000000E+00  1.089360E-07  1.748652E-06  3.268684E-07 -2.341918E-07 _shell_0000000006   
         6  21  1.365661E-04  9.000000E+00 -4.001801E-07  1.811658E-06  2.150708E-08  4.543313E-08 _shell_0000000006   
         6  22  1.574362E-04  9.000002E+00  9.975850E-07  9.643549E-06 -9.726285E-08  5.203145E-07 _shell_0000000006   
         6  23  1.463448E-04  9.000002E+00  7.813816E-07  7.228213E-06 -3.471660E-08  2.535378E-07 _shell_0000000006   
         6  24  1.348473E-04  9.000001E+00 -9.785669E-08  6.203301E-06  2.782963E-08 -2.646049E-08 _shell_0000000006   
         6  25  1.509754E-04  9.000004E+00  1.085577E-06  1.598496E-05 -7.692732E-07  1.567667E-06 _shell_0000000006   
         6  26  1.414523E-04  9.000003E+00  7.983519E-07  1.248171E-05 -3.388194E-07  7.412674E-07 _shell_0000000006   
         6  27  1.315099E-04  9.000001E+00 -1.827584E-07  1.036888E-05  9.163441E-08 -9.835410E-08 _shell_0000000006   
         7   1  1.314157E-04  9.000000E+00 -3.444373E-07  1.590125E-06  2.907789E-07 -8.416769E-08 _shell_0000000007   
         7   2  1.259058E-04  9.000000E+00  5.208589E-08  8.257773E-07  5.072244E-08  1.975320E-08 _shell_0000000007   
         7   3  1.200616E-04  9.000000E+00 -1.327512E-07  5.540296E-07 -1.893340E-07  7.091044E-08 _shell_0000000007   
         7   4  1.300716E-04  9.000000E+00 -2.761528E-07  5.217337E-06  1.308493E-07  1.126916E-07 _shell_0000000007   
         7   5  1.252339E-04  9.000001E+00  1.207150E-07  3.453415E-06 -1.274573E-08  8.643249E-08 _shell_0000000007   
         7   6  1.201145E-04  9.000001E+00  5.933771E-08  2.182094E-06 -1.563407E-07  7.409753E-09 _shell_0000000007   
         7   7  1.272499E-04  9.000000E+00 -4.893047E-07  8.826030E-06 -1.255120E-08  3.095509E-07 _shell_0000000007   
         7   8  1.230512E-04  9.000001E+00 -1.692279E-07  6.062534E-06 -5.968483E-08  1.531117E-07 _shell_0000000007   
         7   9  1.186237E-04  9.000001E+00 -1.842810E-07  3.791639E-06 -1.068185E-07 -5.609095E-08 _shell_0000000007   
         7  10  1.314083E-04  9.000000E+00 -1.023164E-07  1.404670E-06  1.221380E-14 -2.866149E-14 _shell_0000000007   
         7  11  1.257148E-04  9.000000E+00  1.105639E-07  7.324549E-07  4.386550E-15 -1.089333E-14 _shell_0000000007   
         7  12  1.196870E-04  9.000000E+00 -2.579161E-07  5.528396E-07  6.556784E-15 -1.386088E-14 _shell_0000000007   
         7  13  1.302255E-04  9.000001E+00  3.506735E-08  4.970668E-06  3.582656E-15  4.886730E-15 _shell_0000000007   
         7  14  1.252040E-04  9.000001E+00  2.482923E-07  3.298879E-06  1.233753E-15 -9.677383E-15 _shell_0000000007   
         7  15  1.199011E-04  9.000001E+00  3.272109E-09  2.119690E-06  4.509479E-15 -1.282766E-14 _shell_0000000007   
         7  16  1.275650E-04  9.000001E+00 -1.089853E-07  8.518147E-06  3.858952E-15  2.285277E-14 _shell_0000000007   
         7  17  1.231826E-04  9.000001E+00  2.744866E-08  5.846783E-06 -4.198023E-15 -1.567252E-14 _shell_0000000007   
         7  18  1.185714E-04  9.000001E+00 -1.712473E-07  3.668020E-06  1.075712E-15 -1.676381E-14 _shell_0000000007   
         7  19  1.314157E-04  9.000000E+00 -3.444371E-07  1.590125E-06 -2.907788E-07  8.416765E-08 _shell_0000000007   
         7  20  1.259058E-04  9.000000E+00  5.208592E-08  8.257773E-07 -5.072243E-08 -1.975322E-08 _shell_0000000007   
         7  21  1.200616E-04  9.000000E+00 -1.327512E-07  5.540296E-07  1.893340E-07 -7.091049E-08 _shell_0000000007   
         7  22  1.300716E-04  9.000000E+00 -2.761527E-07  5.217337E-06 -1.308493E-07 -1.126916E-07 _shell_0000000007   
         7  23  1.252339E-04  9.000001E+00  1.207150E-07  3.453415E-06  1.274573E-08 -8.643250E-08 _shell_0000000007   
         7  24  1.201145E-04  9.000001E+00  5.933771E-08  2.182094E-06  1.563408E-07 -7.409766E-09 _shell_0000000007   
         7  25  1.272499E-04  9.000000E+00 -4.893047E-07  8.826030E-06  1.255121E-08 -3.095508E-07 _shell_0000000007   
         7  26  1.230512E-04  9.000001E+00 -1.692278E-07  6.062534E-06  5.968483E-08 -1.531118E-07 _shell_0000000007   
         7  27  1.186237E-04  9.000001E+00 -1.842810E-07  3.791639E-06  1.068185E-07  5.609092E-08 _shell_0000000007   
         8   1  1.182793E-04  9.000000E+00 -1.941951E-07  4.797686E-07  4.616157E-08  8.104477E-08 _shell_0000000008   
         8   2  1.184227E-04  9.000000E+00  3.175362E-08 -2.463726E-14  4.660526E-14  8.878294E-08 _shell_0000000008   
         8   3  1.182793E-04  9.000000E+00 -1.941950E-07 -4.797687E-07 -4.616149E-08  8.104479E-08 _shell_0000000008   
         8   4  1.185635E-04  9.000001E+00  5.159057E-08  1.371728E-06  8.575412E-08 -2.033757E-08 _shell_0000000008   
         8   5  1.186991E-04  9.000001E+00  2.594835E-07 -2.761511E-14  2.630434E-14 -1.259939E-08 _shell_0000000008   
         8   6  1.185635E-04  9.000001E+00  5.159053E-08 -1.371728E-06 -8.575406E-08 -2.033753E-08 _shell_0000000008   
         8   7  1.174908E-04  9.000001E+00 -7.655489E-08  2.263688E-06  1.253467E-07 -1.217199E-07 _shell_0000000008   
         8   8  1.176187E-04  9.000001E+00  1.132823E-07 -3.349445E-14  8.739481E-15 -1.139817E-07 _shell_0000000008   
         8   9  1.174908E-04  9.000001E+00 -7.655492E-08 -2.263688E-06 -1.253466E-07 -1.217198E-07 _shell_0000000008   
         8  10  1.181460E-04  9.000000E+00 -2.464351E-07  5.036594E-07  9.716516E-15 -1.807358E-14 _shell_0000000008   
         8  11  1.182894E-04  9.000000E+00 -2.048633E-08 -5.365221E-14  1.405387E-14 -2.372099E-14 _shell_0000000008   
         8  12  1.181460E-04  9.000000E+00 -2.464350E-07 -5.036595E-07  7.567459E-15  2.589469E-14 _shell_0000000008   
         8  13  1.183884E-04  9.000001E+00 -1.856755E-08  1.395619E-06  6.286573E-15 -1.466019E-14 _shell_0000000008   
         8  14  1.185241E-04  9.000001E+00  1.893254E-07 -3.542878E-14  3.868660E-15 -1.777102E-14 _shell_0000000008   
         8  15  1.183884E-04  9.000001E+00 -1.856753E-08 -1.395619E-06  6.108411E-16  2.160606E-14 _shell_0000000008   
         8  16  1.172739E-04  9.000001E+00 -1.646312E-07  2.287578E-06  2.942691E-15 -1.461215E-14 _shell_0000000008   
         8  17  1.174018E-04  9.000001E+00  2.520610E-08 -1.180959E-14  1.082557E-15 -4.066544E-15 _shell_0000000008   
         8  18  1.172739E-04  9.000001E+00 -1.646311E-07 -2.287578E-06  4.880418E-15  2.538423E-14 _shell_0000000008   
         8  19  1.182793E-04  9.000000E+00 -1.941950E-07  4.797686E-07 -4.616155E-08 -8.104484E-08 _shell_0000000008   
         8  20  1.184227E-04  9.000000E+00  3.175366E-08 -3.527607E-14 -1.972508E-14 -8.878297E-08 _shell_0000000008   
         8  21  1.182793E-04  9.000000E+00 -1.941951E-07 -4.797686E-07  4.616150E-08 -8.104474E-08 _shell_0000000008   
         8  22  1.185635E-04  9.000001E+00  5.159058E-08  1.371728E-06 -8.575411E-08  2.033754E-08 _shell_0000000008   
         8  23  1.186991E-04  9.000001E+00  2.594835E-07 -1.903788E-14 -2.601165E-14  1.259935E-08 _shell_0000000008   
         8  24  1.185635E-04  9.000001E+00  5.159053E-08 -1.371728E-06  8.575406E-08  2.033756E-08 _shell_0000000008   
         8  25  1.174908E-04  9.000001E+00 -7.655490E-08  2.263688E-06 -1.253467E-07  1.217199E-07 _shell_0000000008   
         8  26  1.176187E-04  9.000001E+00  1.132823E-07 -1.089333E-14 -1.829978E-14  1.139817E-07 _shell_0000000008   
         8  27  1.174908E-04  9.000001E+00 -7.655488E-08 -2.263688E-06  1.253466E-07  1.217199E-07 _shell_0000000008   
         9   1  1.200616E-04  9.000000E+00 -1.327512E-07 -5.540294E-07  1.893340E-07  7.091043E-08 _shell_0000000009   
         9   2  1.259058E-04  9.000000E+00  5.208608E-08 -8.257773E-07 -5.072245E-08  1.975313E-08 _shell_0000000009   
         9   3  1.314157E-04  9.000000E+00 -3.444370E-07 -1.590125E-06 -2.907789E-07 -8.416770E-08 _shell_0000000009   
         9   4  1.201145E-04  9.000001E+00  5.933764E-08 -2.182094E-06  1.563408E-07  7.409770E-09 _shell_0000000009   
         9   5  1.252339E-04  9.000001E+00  1.207149E-07 -3.453415E-06  1.274574E-08  8.643246E-08 _shell_0000000009   
         9   6  1.300716E-04  9.000000E+00 -2.761529E-07 -5.217337E-06 -1.308493E-07  1.126916E-07 _shell_0000000009   
         9   7  1.186237E-04  9.000001E+00 -1.842810E-07 -3.791639E-06  1.068185E-07 -5.609088E-08 _shell_0000000009   
         9   8  1.230512E-04  9.000001E+00 -1.692279E-07 -6.062534E-06  5.968486E-08  1.531117E-07 _shell_0000000009   
         9   9  1.272499E-04  9.000000E+00 -4.893048E-07 -8.826030E-06  1.255124E-08  3.095509E-07 _shell_0000000009   
         9  10  1.196870E-04  9.000000E+00 -2.579160E-07 -5.528395E-07  4.969775E-15  2.855395E-14 _shell_0000000009   
         9  11  1.257148E-04  9.000000E+00  1.105641E-07 -7.324549E-07  1.227376E-14  1.180960E-14 _shell_0000000009   
         9  12  1.314083E-04  9.000000E+00 -1.023161E-07 -1.404670E-06  8.147139E-15  8.570621E-14 _shell_0000000009   
         9  13  1.199011E-04  9.000001E+00  3.272130E-09 -2.119689E-06  1.151881E-16  1.466018E-14 _shell_0000000009   
         9  14  1.252040E-04  9.000001E+00  2.482923E-07 -3.298879E-06  7.279189E-15  9.607660E-17 _shell_0000000009   
         9  15  1.302255E-04  9.000001E+00  3.506740E-08 -4.970668E-06  6.699835E-15  8.737328E-14 _shell_0000000009   
         9  16  1.185714E-04  9.000001E+00 -1.712472E-07 -3.668020E-06  7.597336E-15  1.287570E-14 _shell_0000000009   
         9  17  1.231826E-04  9.000001E+00  2.744876E-08 -5.846783E-06  7.896066E-15 -7.629781E-15 _shell_0000000009   
         9  18  1.275650E-04  9.000001E+00 -1.089852E-07 -8.518147E-06  2.456845E-15  8.468671E-14 _shell_0000000009   
         9  19  1.200616E-04  9.000000E+00 -1.327512E-07 -5.540295E-07 -1.893340E-07 -7.091037E-08 _shell_0000000009   
         9  20  1.259058E-04  9.000000E+00  5.208595E-08 -8.257772E-07  5.072247E-08 -1.975311E-08 _shell_0000000009   
         9  21  1.314157E-04  9.000000E+00 -3.444370E-07 -1.590125E-06  2.907789E-07  8.416787E-08 _shell_0000000009   
         9  22  1.201145E-04  9.000001E+00  5.933763E-08 -2.182094E-06 -1.563407E-07 -7.409724E-09 _shell_0000000009   
         9  23  1.252339E-04  9.000001E+00  1.207149E-07 -3.453415E-06 -1.274573E-08 -8.643244E-08 _shell_0000000009   
         9  24  1.300716E-04  9.000000E+00 -2.761529E-07 -5.217337E-06  1.308493E-07 -1.126914E-07 _shell_0000000009   
         9  25  1.186237E-04  9.000001E+00 -1.842810E-07 -3.791639E-06 -1.068185E-07  5.609091E-08 _shell_0000000009   
         9  26  1.230512E-04  9.000001E+00 -1.692279E-07 -6.062534E-06 -5.968485E-08 -1.531118E-07 _shell_0000000009   
         9  27  1.272499E-04  9.000000E+00 -4.893048E-07 -8.826030E-06 -1.255123E-08 -3.095507E-07 _shell_0000000009   
        10   1  1.365661E-04  9.000000E+00 -4.001799E-07 -1.811658E-06  2.150701E-08 -4.543319E-08 _shell_0000000010   
        10   2  1.495038E-04  9.000000E+00  1.089360E-07 -1.748652E-06  3.268683E-07  2.341917E-07 _shell_0000000010   
        10   3  1.620486E-04  9.000000E+00 -1.413241E-08 -3.076069E-06  6.322297E-07  5.270383E-07 _shell_0000000010   
        10   4  1.348473E-04  9.000001E+00 -9.785693E-08 -6.203301E-06  2.782962E-08  2.646050E-08 _shell_0000000010   
        10   5  1.463448E-04  9.000002E+00  7.813814E-07 -7.228213E-06 -3.471662E-08 -2.535379E-07 _shell_0000000010   
        10   6  1.574362E-04  9.000002E+00  9.975848E-07 -9.643549E-06 -9.726285E-08 -5.203146E-07 _shell_0000000010   
        10   7  1.315099E-04  9.000001E+00 -1.827586E-07 -1.036888E-05  9.163440E-08  9.835416E-08 _shell_0000000010   
        10   8  1.414523E-04  9.000003E+00  7.983517E-07 -1.248171E-05 -3.388194E-07 -7.412675E-07 _shell_0000000010   
        10   9  1.509754E-04  9.000004E+00  1.085577E-06 -1.598496E-05 -7.692732E-07 -1.567667E-06 _shell_0000000010   
        10  10  1.371109E-04  9.000000E+00 -1.703335E-08 -1.441854E-06 -6.108411E-15  8.699108E-14 _shell_0000000010   
        10  11  1.492897E-04  8.999999E+00 -2.668284E-07 -1.659737E-06 -2.278665E-14 -6.108413E-15 _shell_0000000010   
        10  12  1.610756E-04  8.999997E+00 -1.148808E-06 -3.268043E-06 -1.071818E-14 -6.229549E-14 _shell_0000000010   
        10  13  1.349005E-04  9.000001E+00  7.462308E-08 -6.086468E-06  2.735390E-15  9.776002E-14 _shell_0000000010   
        10  14  1.456391E-04  9.000001E+00  1.949503E-07 -7.392268E-06 -6.108411E-15  3.353896E-15 _shell_0000000010   
        10  15  1.559717E-04  8.999999E+00 -3.477574E-07 -1.008849E-05 -2.173777E-15 -4.967685E-14 _shell_0000000010   
        10  16  1.310716E-04  9.000001E+00 -2.209453E-07 -1.050502E-05  6.910140E-15  1.028730E-13 _shell_0000000010   
        10  17  1.402551E-04  9.000001E+00  1.254005E-09 -1.289873E-05  1.706471E-14  5.197881E-15 _shell_0000000010   
        10  18  1.490193E-04  9.000001E+00 -4.704321E-07 -1.668288E-05  3.000375E-15 -6.110069E-14 _shell_0000000010   
        10  19  1.365661E-04  9.000000E+00 -4.001800E-07 -1.811658E-06 -2.150702E-08  4.543336E-08 _shell_0000000010   
        10  20  1.495038E-04  9.000000E+00  1.089361E-07 -1.748652E-06 -3.268684E-07 -2.341917E-07 _shell_0000000010   
        10  21  1.620486E-04  9.000000E+00 -1.413222E-08 -3.076069E-06 -6.322297E-07 -5.270384E-07 _shell_0000000010   
        10  22  1.348473E-04  9.000001E+00 -9.785693E-08 -6.203301E-06 -2.782961E-08 -2.646029E-08 _shell_0000000010   
        10  23  1.463448E-04  9.000002E+00  7.813814E-07 -7.228213E-06  3.471660E-08  2.535379E-07 _shell_0000000010   
        10  24  1.574362E-04  9.000002E+00  9.975848E-07 -9.643549E-06  9.726284E-08  5.203145E-07 _shell_0000000010   
        10  25  1.315099E-04  9.000001E+00 -1.827586E-07 -1.036888E-05 -9.163440E-08 -9.835396E-08 _shell_0000000010   
        10  26  1.414523E-04  9.000003E+00  7.983517E-07 -1.248171E-05  3.388194E-07  7.412675E-07 _shell_0000000010   
        10  27  1.509754E-04  9.000004E+00  1.085577E-06 -1.598496E-05  7.692732E-07  1.567667E-06 _shell_0000000010   
        11   1  1.734878E-04  9.000000E+00  5.933793E-07 -3.344082E-06  8.922983E-07  4.877508E-07 _shell_0000000011   
        11   2  1.936491E-04  9.000000E+00 -4.273681E-07 -3.300273E-06 -6.481383E-07 -2.781259E-07 _shell_0000000011   
        11   3  2.132258E-04  8.999999E+00 -2.783536E-06 -5.565046E-06 -2.188575E-06 -1.554438E-06 _shell_0000000011   
        11   4  1.660264E-04  9.000002E+00  5.758333E-07 -1.120961E-05  6.592199E-07 -8.674406E-08 _shell_0000000011   
        11   5  1.819099E-04  8.999999E+00 -1.937649E-06 -1.265282E-05  6.125143E-07  1.331975E-06 _shell_0000000011   
        11   6  1.977193E-04  8.999995E+00 -4.595536E-06 -1.640462E-05  5.658088E-07  2.240259E-06 _shell_0000000011   
        11   7  1.560181E-04  9.000002E+00 -4.515938E-07 -1.927351E-05  1.763285E-07 -6.612389E-07 _shell_0000000011   
        11   8  1.681234E-04  8.999997E+00 -3.292017E-06 -2.220374E-05  1.623354E-06  2.942076E-06 _shell_0000000011   
        11   9  1.806651E-04  8.999992E+00 -5.085829E-06 -2.744256E-05  3.070380E-06  6.034955E-06 _shell_0000000011   
        11  10  1.704983E-04  8.999998E+00 -1.029578E-06 -3.727469E-06 -1.976018E-16 -6.205415E-14 _shell_0000000011   
        11  11  1.936793E-04  9.000004E+00  9.694238E-07 -2.371947E-06  1.617285E-16 -4.275889E-14 _shell_0000000011   
        11  12  2.162758E-04  9.000010E+00  1.633005E-06 -3.325009E-06  5.952695E-15 -3.195704E-14 _shell_0000000011   
        11  13  1.653325E-04  9.000000E+00 -6.334069E-08 -1.058641E-05 -4.340211E-15 -4.560949E-14 _shell_0000000011   
        11  14  1.842357E-04  9.000004E+00  4.429266E-07 -1.071791E-05 -1.018069E-14 -2.764629E-14 _shell_0000000011   
        11  15  2.030648E-04  9.000008E+00  8.047887E-07 -1.315800E-05 -5.106771E-15 -5.029015E-14 _shell_0000000011   
        11  16  1.576196E-04  9.000002E+00 -1.069842E-07 -1.764373E-05 -8.291239E-15 -4.902287E-14 _shell_0000000011   
        11  17  1.727447E-04  9.000003E+00  7.234222E-08 -1.926225E-05 -1.445055E-14 -1.903216E-14 _shell_0000000011   
        11  18  1.883061E-04  9.000005E+00  1.298279E-06 -2.318936E-05 -9.429794E-15 -6.351862E-14 _shell_0000000011   
        11  19  1.734878E-04  9.000000E+00  5.933794E-07 -3.344082E-06 -8.922983E-07 -4.877509E-07 _shell_0000000011   
        11  20  1.936491E-04  9.000000E+00 -4.273680E-07 -3.300273E-06  6.481383E-07  2.781259E-07 _shell_0000000011   
        11  21  2.132258E-04  8.999999E+00 -2.783537E-06 -5.565046E-06  2.188575E-06  1.554438E-06 _shell_0000000011   
        11  22  1.660264E-04  9.000002E+00  5.758333E-07 -1.120961E-05 -6.592199E-07  8.674395E-08 _shell_0000000011   
        11  23  1.819099E-04  8.999999E+00 -1.937649E-06 -1.265282E-05 -6.125144E-07 -1.331975E-06 _shell_0000000011   
        11  24  1.977193E-04  8.999995E+00 -4.595536E-06 -1.640462E-05 -5.658088E-07 -2.240259E-06 _shell_0000000011   
        11  25  1.560181E-04  9.000002E+00 -4.515940E-07 -1.927351E-05 -1.763285E-07  6.612388E-07 _shell_0000000011   
        11  26  1.681234E-04  8.999997E+00 -3.292017E-06 -2.220374E-05 -1.623354E-06 -2.942076E-06 _shell_0000000011   
        11  27  1.806651E-04  8.999992E+00 -5.085829E-06 -2.744256E-05 -3.070380E-06 -6.034955E-06 _shell_0000000011   
        12   1  2.276065E-04  8.999998E+00 -1.931961E-06 -6.145962E-06 -2.887716E-06 -1.313338E-06 _shell_0000000012   
        12   2  2.622211E-04  9.000001E+00  3.865539E-06 -3.048608E-06  2.805417E-06  1.022372E-06 _shell_0000000012   
        12   3  2.963672E-04  9.000005E+00  6.006597E-06 -6.314107E-06  8.498551E-06  3.205295E-06 _shell_0000000012   
        12   4  2.136056E-04  8.999999E+00 -6.927160E-07 -1.750999E-05 -1.854194E-06  6.360213E-07 _shell_0000000012   
        12   5  2.444285E-04  9.000011E+00  9.995297E-06 -1.433637E-05 -2.971992E-06 -5.554350E-06 _shell_0000000012   
        12   6  2.749356E-04  9.000026E+00  1.738337E-05 -1.752559E-05 -4.089789E-06 -1.189751E-05 _shell_0000000012   
        12   7  1.992624E-04  8.999999E+00  1.629558E-06 -2.700614E-05  1.104585E-07  2.585381E-06 _shell_0000000012   
        12   8  2.244312E-04  9.000020E+00  1.286281E-05 -2.375623E-05 -7.818270E-06 -1.213107E-05 _shell_0000000012   
        12   9  2.494371E-04  9.000043E+00  2.115262E-05 -2.686918E-05 -1.574700E-05 -2.700031E-05 _shell_0000000012   
        12  10  2.364291E-04  9.000007E+00  3.517318E-06 -2.869730E-06  1.142108E-14 -3.151212E-14 _shell_0000000012   
        12  11  2.593568E-04  8.999983E+00 -2.372068E-06 -4.823279E-06  8.593698E-15 -1.496555E-14 _shell_0000000012   
        12  12  2.818160E-04  8.999960E+00 -1.191790E-05 -1.313968E-05  4.692097E-15  3.465002E-14 _shell_0000000012   
        12  13  2.135891E-04  9.000004E+00  9.683854E-07 -1.812939E-05 -4.850456E-16 -5.052179E-14 _shell_0000000012   
        12  14  2.327250E-04  8.999989E+00 -3.048757E-08 -2.000667E-05 -4.072276E-15 -6.419562E-15 _shell_0000000012   
        12  15  2.515453E-04  8.999977E+00 -4.329299E-06 -2.824679E-05 -6.270117E-15  2.547966E-14 _shell_0000000012   
        12  16  1.904068E-04  9.000001E+00 -4.975181E-07 -3.152116E-05 -8.755389E-15 -6.734809E-14 _shell_0000000012   
        12  17  2.038887E-04  8.999995E+00 -9.511557E-07 -3.332216E-05 -1.430686E-14 -1.149843E-14 _shell_0000000012   
        12  18  2.172077E-04  8.999991E+00 -4.348228E-06 -4.148601E-05 -7.873549E-15  1.869041E-14 _shell_0000000012   
        12  19  2.276065E-04  8.999998E+00 -1.931961E-06 -6.145962E-06  2.887716E-06  1.313338E-06 _shell_0000000012   
        12  20  2.622211E-04  9.000001E+00  3.865539E-06 -3.048608E-06 -2.805417E-06 -1.022372E-06 _shell_0000000012   
        12  21  2.963672E-04  9.000005E+00  6.006597E-06 -6.314107E-06 -8.498551E-06 -3.205295E-06 _shell_0000000012   
        12  22  2.136056E-04  8.999999E+00 -6.927160E-07 -1.750999E-05  1.854194E-06 -6.360214E-07 _shell_0000000012   
        12  23  2.444285E-04  9.000011E+00  9.995297E-06 -1.433637E-05  2.971992E-06  5.554350E-06 _shell_0000000012   
        12  24  2.749356E-04  9.000026E+00  1.738337E-05 -1.752559E-05  4.089789E-06  1.189751E-05 _shell_0000000012   
        12  25  1.992624E-04  8.999999E+00  1.629558E-06 -2.700614E-05 -1.104585E-07 -2.585381E-06 _shell_0000000012   
        12  26  2.244312E-04  9.000020E+00  1.286281E-05 -2.375623E-05  7.818270E-06  1.213107E-05 _shell_0000000012   
        12  27  2.494371E-04  9.000043E+00  2.115262E-05 -2.686918E-05  1.574700E-05  2.700031E-05 _shell_0000000012   
        13   1  3.412100E-04  9.000010E+00  1.093758E-05 -7.095839E-06  9.319343E-06  5.777447E-06 _shell_0000000013   
        13   2  3.486768E-04  8.999991E+00 -2.324756E-05 -1.539807E-05 -7.483606E-07  2.394794E-06 _shell_0000000013   
        13   3  3.659942E-04  9.000005E+00 -5.787446E-05 -3.030829E-05 -1.081606E-05 -1.669286E-05 _shell_0000000013   
        13   4  2.813647E-04  9.000008E+00  1.526455E-06 -2.562025E-05  6.656564E-06 -2.121721E-06 _shell_0000000013   
        13   5  2.655176E-04  8.999953E+00 -4.519757E-05 -2.636458E-05  1.807458E-05  2.777694E-05 _shell_0000000013   
        13   6  2.752263E-04  8.999946E+00 -5.571837E-05 -3.371689E-05  2.949259E-05  4.197060E-05 _shell_0000000013   
        13   7  2.222965E-04  9.000006E+00 -1.174195E-05 -4.910301E-05  1.552351E-06 -1.002089E-05 _shell_0000000013   
        13   8  1.880185E-04  8.999918E+00 -5.961150E-05 -4.228943E-05  3.445608E-05  5.315908E-05 _shell_0000000013   
        13   9  1.950012E-04  8.999895E+00 -3.463284E-05 -4.208384E-05  6.735981E-05  1.006341E-04 _shell_0000000013   
        13  10  3.115688E-04  8.999976E+00 -8.258072E-06 -1.187774E-05  3.683730E-15  2.794301E-14 _shell_0000000013   
        13  11  3.619703E-04  9.000057E+00  4.914998E-07  1.823691E-06  1.094126E-14 -2.127758E-14 _shell_0000000013   
        13  12  4.222224E-04  9.000171E+00  8.799301E-06  8.917133E-06  1.643883E-14  2.543661E-14 _shell_0000000013   
        13  13  2.902299E-04  8.999991E+00 -1.166448E-06 -1.609058E-05  1.646534E-16  9.747786E-15 _shell_0000000013   
        13  14  3.173175E-04  9.000035E+00 -4.955769E-06  5.168755E-06  5.509509E-15 -1.940995E-14 _shell_0000000013   
        13  15  3.699609E-04  9.000128E+00  2.745813E-05  1.982010E-05  1.551047E-14  2.277862E-14 _shell_0000000013   
        13  16  2.696681E-04  9.000004E+00  2.067896E-06 -2.526177E-05 -6.312784E-15 -2.395563E-15 _shell_0000000013   
        13  17  2.783248E-04  9.000017E+00 -2.866956E-06  3.555466E-06 -9.935139E-15 -3.348854E-14 _shell_0000000013   
        13  18  3.282422E-04  9.000094E+00  6.504641E-05  2.576472E-05 -8.773342E-16  1.645066E-14 _shell_0000000013   
        13  19  3.412100E-04  9.000010E+00  1.093758E-05 -7.095839E-06 -9.319343E-06 -5.777447E-06 _shell_0000000013   
        13  20  3.486768E-04  8.999991E+00 -2.324756E-05 -1.539807E-05  7.483606E-07 -2.394794E-06 _shell_0000000013   
        13  21  3.659942E-04  9.000005E+00 -5.787446E-05 -3.030829E-05  1.081606E-05  1.669286E-05 _shell_0000000013   
        13  22  2.813647E-04  9.000008E+00  1.526455E-06 -2.562025E-05 -6.656564E-06  2.121721E-06 _shell_0000000013   
        13  23  2.655176E-04  8.999953E+00 -4.519757E-05 -2.636458E-05 -1.807458E-05 -2.777694E-05 _shell_0000000013   
        13  24  2.752263E-04  8.999946E+00 -5.571837E-05 -3.371689E-05 -2.949259E-05 -4.197060E-05 _shell_0000000013   
        13  25  2.222965E-04  9.000006E+00 -1.174195E-05 -4.910301E-05 -1.552351E-06  1.002089E-05 _shell_0000000013   
        13  26  1.880185E-04  8.999918E+00 -5.961150E-05 -4.228943E-05 -3.445608E-05 -5.315908E-05 _shell_0000000013   
        13  27  1.950012E-04  8.999895E+00 -3.463284E-05 -4.208384E-05 -6.735981E-05 -1.006341E-04 _shell_0000000013   
        14   1  4.877130E-04  9.000009E+00  3.591700E-05  6.800994E-05 -7.899670E-05 -1.766041E-05 _shell_0000000014   
        14   2  1.123305E-04  8.999930E+00  7.157793E-05  5.380493E-05  1.008321E-05 -1.236248E-05 _shell_0000000014   
        14   3 -8.789372E-05  9.000347E+00  1.953690E-04  2.191104E-04  9.916313E-05 -3.898143E-05 _shell_0000000014   
        14   4  3.648416E-04  8.999929E+00  1.200994E-05  3.863446E-05 -3.074261E-05  1.386661E-05 _shell_0000000014   
        14   5  2.834236E-04  8.999976E+00  1.239368E-04  1.455641E-04 -8.213522E-05 -1.073709E-04 _shell_0000000014   
        14   6  4.090807E-04  9.000550E+00  3.984666E-04  4.320041E-04 -1.335278E-04 -2.605253E-04 _shell_0000000014   
        14   7  3.189238E-04  8.999885E+00  3.102242E-05  1.207971E-05  2.398662E-05  4.539363E-05 _shell_0000000014   
        14   8  5.185199E-04  9.000045E+00  1.889979E-04  2.401439E-04 -1.678785E-04 -2.023793E-04 _shell_0000000014   
        14   9  9.571080E-04  9.000764E+00  5.840490E-04  6.477186E-04 -3.597437E-04 -4.820692E-04 _shell_0000000014   
        14  10  6.031347E-04  9.000137E+00  1.090054E-04  8.115023E-05  1.285843E-14  3.608690E-14 _shell_0000000014   
        14  11  7.083078E-05  8.999692E+00 -1.225513E-05 -2.644034E-05 -1.190539E-14  1.465993E-14 _shell_0000000014   
        14  12 -2.863149E-04  8.999743E+00 -4.538554E-05  4.547952E-05 -3.528579E-14  6.641369E-14 _shell_0000000014   
        14  13  3.168386E-04  8.999987E+00  1.505916E-05 -5.324008E-07  8.806292E-15  3.912909E-14 _shell_0000000014   
        14  14  7.849914E-05  8.999668E+00 -2.993541E-05  1.301164E-05 -5.102342E-15  2.778804E-14 _shell_0000000014   
        14  15  4.723473E-05  8.999876E+00  8.767287E-05  2.060661E-04 -2.305025E-14  6.494994E-14 _shell_0000000014   
        14  16  1.074960E-04  8.999874E+00 -3.596753E-05 -7.939430E-05  1.858734E-15  2.855445E-14 _shell_0000000014   
        14  17  1.501707E-04  8.999667E+00 -3.491347E-05  5.528435E-05  2.808665E-15  1.598904E-14 _shell_0000000014   
        14  18  4.318373E-04  9.000020E+00  2.032162E-04  3.694734E-04 -2.061139E-14  5.417045E-14 _shell_0000000014   
        14  19  4.877130E-04  9.000009E+00  3.591700E-05  6.800994E-05  7.899670E-05  1.766041E-05 _shell_0000000014   
        14  20  1.123305E-04  8.999930E+00  7.157793E-05  5.380493E-05 -1.008321E-05  1.236248E-05 _shell_0000000014   
        14  21 -8.789372E-05  9.000347E+00  1.953690E-04  2.191104E-04 -9.916313E-05  3.898143E-05 _shell_0000000014   
        14  22  3.648416E-04  8.999929E+00  1.200994E-05  3.863446E-05  3.074261E-05 -1.386661E-05 _shell_0000000014   
        14  23  2.834236E-04  8.999976E+00  1.239368E-04  1.455641E-04  8.213522E-05  1.073709E-04 _shell_0000000014   
        14  24  4.090807E-04  9.000550E+00  3.984666E-04  4.320041E-04  1.335278E-04  2.605253E-04 _shell_0000000014   
        14  25  3.189238E-04  8.999885E+00  3.102242E-05  1.207971E-05 -2.398662E-05 -4.539363E-05 _shell_0000000014   
        14  26  5.185199E-04  9.000045E+00  1.889979E-04  2.401439E-04  1.678785E-04  2.023793E-04 _shell_0000000014   
        14  27  9.571080E-04  9.000764E+00  5.840490E-04  6.477186E-04  3.597437E-04  4.820692E-04 _shell_0000000014   
        15   1  5.340612E-05  9.000442E+00  2.748146E-04 -6.167150E-05  8.902214E-05 -3.134601E-05 _shell_0000000015   
        15   2 -2.735661E-06  8.999996E+00  8.403586E-05 -1.099730E-05  5.663847E-05  1.438265E-05 _shell_0000000015   
        15   3  7.760591E-05  8.999968E+00 -6.931137E-05  1.147534E-05  2.425481E-05  1.714970E-05 _shell_0000000015   
        15   4  4.746689E-05  9.000434E+00  2.569564E-04 -9.189606E-05 -1.139523E-04 -2.477583E-04 _shell_0000000015   
        15   5 -6.582757E-05  8.999960E+00  2.555789E-05 -4.840023E-05 -2.617799E-05 -5.785931E-05 _shell_0000000015   
        15   6  3.229294E-07  8.999947E+00 -6.816545E-05 -3.310595E-05  6.159632E-05  8.907803E-05 _shell_0000000015   
        15   7 -1.138208E-04  9.000347E+00  1.347379E-04 -1.218034E-04 -3.248564E-04 -4.641705E-04 _shell_0000000015   
        15   8 -2.684087E-04  8.999861E+00 -1.002756E-04 -8.548596E-05 -1.169241E-04 -1.301013E-04 _shell_0000000015   
        15   9 -2.005900E-04  8.999879E+00 -9.737010E-05 -7.737005E-05  9.100821E-05  1.610064E-04 _shell_0000000015   
        15  10 -3.036286E-04  8.999783E+00 -3.007408E-05 -2.143466E-04 -3.581008E-14  6.866574E-14 _shell_0000000015   
        15  11 -1.797372E-04  8.999757E+00 -4.081955E-05 -5.744337E-05 -2.026568E-14  1.089327E-14 _shell_0000000015   
        15  12  8.063764E-05  9.000149E+00 -1.413355E-05  7.125836E-05 -1.830332E-14 -1.365718E-14 _shell_0000000015   
        15  13 -1.236669E-04  8.999854E+00  3.173961E-05 -1.845601E-04 -1.756272E-14  6.026980E-14 _shell_0000000015   
        15  14 -5.692817E-05  8.999800E+00 -1.962571E-05 -3.483522E-05 -5.701184E-15  1.058371E-16 _shell_0000000015   
        15  15  1.892556E-04  9.000207E+00  6.668419E-05  8.668815E-05 -1.385794E-14 -1.010822E-15 _shell_0000000015   
        15  16 -9.905372E-05  8.999847E+00 -1.080716E-05 -1.544564E-04 -1.665150E-14  3.995631E-14 _shell_0000000015   
        15  17 -7.360837E-05  8.999782E+00 -6.578739E-05 -1.190987E-05  1.832524E-15 -1.465446E-14 _shell_0000000015   
        15  18  1.742435E-04  9.000220E+00  1.171513E-04  1.024351E-04 -1.324686E-14  1.441454E-14 _shell_0000000015   
        15  19  5.340612E-05  9.000442E+00  2.748146E-04 -6.167150E-05 -8.902214E-05  3.134601E-05 _shell_0000000015   
        15  20 -2.735661E-06  8.999996E+00  8.403586E-05 -1.099730E-05 -5.663847E-05 -1.438265E-05 _shell_0000000015   
        15  21  7.760591E-05  8.999968E+00 -6.931137E-05  1.147534E-05 -2.425481E-05 -1.714970E-05 _shell_0000000015   
        15  22  4.746689E-05  9.000434E+00  2.569564E-04 -9.189606E-05  1.139523E-04  2.477583E-04 _shell_0000000015   
        15  23 -6.582757E-05  8.999960E+00  2.555789E-05 -4.840023E-05  2.617799E-05  5.785931E-05 _shell_0000000015   
        15  24  3.229294E-07  8.999947E+00 -6.816545E-05 -3.310595E-05 -6.159632E-05 -8.907803E-05 _shell_0000000015   
        15  25 -1.138208E-04  9.000347E+00  1.347379E-04 -1.218034E-04  3.248564E-04  4.641705E-04 _shell_0000000015   
        15  26 -2.684087E-04  8.999861E+00 -1.002756E-04 -8.548596E-05  1.169241E-04  1.301013E-04 _shell_0000000015   
        15  27 -2.005900E-04  8.999879E+00 -9.737010E-05 -7.737005E-05 -9.100821E-05 -1.610064E-04 _shell_0000000015   
       101   1 -8.983945E-05  9.000159E+00  4.806750E-05 -3.513273E-05 -7.800509E-05  1.748626E-04 _shell_0000000101   
       101   2 -3.298258E-04  8.999672E+00 -1.916347E-04  2.936985E-04  1.298025E-04 -1.470905E-04 _shell_0000000101   
       101   3 -7.608660E-04  8.998708E+00 -5.906085E-04  6.986952E-04  3.376100E-04 -4.680152E-04 _shell_0000000101   
       101   4 -4.579761E-06  9.000048E+00  7.084694E-05  3.525684E-05 -1.468503E-05  8.217161E-05 _shell_0000000101   
       101   5 -7.272711E-05  8.999730E+00 -9.541424E-05  2.122620E-04  7.253586E-05 -9.139612E-05 _shell_0000000101   
       101   6 -3.329567E-04  8.998934E+00 -4.233466E-04  4.654328E-04  1.597568E-04 -2.639355E-04 _shell_0000000101   
       101   7 -6.143873E-05  8.999874E+00  2.933573E-05  1.240543E-04  3.986914E-05 -1.051943E-05 _shell_0000000101   
       101   8  5.978472E-05  8.999744E+00 -2.257693E-05  1.492334E-04  6.503375E-06 -3.570179E-05 _shell_0000000101   
       101   9 -1.210241E-05  8.999133E+00 -2.385603E-04  2.505781E-04 -2.686239E-05 -5.985577E-05 _shell_0000000101   
       101  10  9.227546E-05  9.000035E+00  6.538801E-05 -1.239752E-04 -7.977417E-15  6.371962E-14 _shell_0000000101   
       101  11  3.894592E-05  8.999984E+00  1.234263E-05  1.140303E-04 -1.053029E-14 -1.483513E-14 _shell_0000000101   
       101  12 -2.054375E-04  8.999455E+00 -1.999744E-04  4.282015E-04 -9.175039E-15 -7.946670E-15 _shell_0000000101   
       101  13  1.859029E-05  8.999855E+00  2.004822E-05  8.633284E-06 -4.861312E-15  7.413579E-14 _shell_0000000101   
       101  14  1.370998E-04  8.999973E+00  4.044385E-05  9.481282E-05 -6.573283E-15 -4.886729E-15 _shell_0000000101   
       101  15  6.352701E-05  8.999613E+00 -1.008317E-04  2.571579E-04 -1.179766E-14 -6.303067E-15 _shell_0000000101   
       101  16 -1.972135E-04  8.999614E+00 -8.958222E-05  1.596496E-04  4.953737E-15  9.466890E-14 _shell_0000000101   
       101  17  1.106667E-04  8.999919E+00  4.516193E-05  9.400316E-05  5.001991E-15 -2.414690E-15 _shell_0000000101   
       101  18  2.254364E-04  8.999744E+00  1.583538E-05  1.045222E-04 -5.109055E-15 -3.332738E-15 _shell_0000000101   
       101  19 -8.983945E-05  9.000159E+00  4.806750E-05 -3.513273E-05  7.800509E-05 -1.748626E-04 _shell_0000000101   
       101  20 -3.298258E-04  8.999672E+00 -1.916347E-04  2.936985E-04 -1.298025E-04  1.470905E-04 _shell_0000000101   
       101  21 -7.608660E-04  8.998708E+00 -5.906085E-04  6.986952E-04 -3.376100E-04  4.680152E-04 _shell_0000000101   
       101  22 -4.579761E-06  9.000048E+00  7.084694E-05  3.525684E-05  1.468503E-05 -8.217161E-05 _shell_0000000101   
       101  23 -7.272711E-05  8.999730E+00 -9.541424E-05  2.122620E-04 -7.253586E-05  9.139612E-05 _shell_0000000101   
       101  24 -3.329567E-04  8.998934E+00 -4.233466E-04  4.654328E-04 -1.597568E-04  2.639355E-04 _shell_0000000101   
       101  25 -6.143873E-05  8.999874E+00  2.933573E-05  1.240543E-04 -3.986914E-05  1.051943E-05 _shell_0000000101   
       101  26  5.978472E-05  8.999744E+00 -2.257693E-05  1.492334E-04 -6.503375E-06  3.570179E-05 _shell_0000000101   
       101  27 -1.210241E-05  8.999133E+00 -2.385603E-04  2.505781E-04  2.686239E-05  5.985577E-05 _shell_0000000101   
       102   1  3.165069E-04  8.999111E+00 -1.446227E-04 -8.692366E-05  3.659466E-04 -4.787913E-04 _shell_0000000102   
       102   2  4.127885E-04  8.999773E+00  5.540663E-05 -7.528463E-05  1.619549E-04 -2.017054E-04 _shell_0000000102   
       102   3  3.451482E-04  9.000039E+00  1.056737E-04 -3.758428E-05 -4.203688E-05  6.586391E-05 _shell_0000000102   
       102   4  9.246040E-05  8.999075E+00 -2.592410E-04 -3.293013E-05  1.717089E-04 -2.658884E-04 _shell_0000000102   
       102   5  2.247314E-04  8.999722E+00 -3.714974E-05 -4.440831E-05  6.651680E-05 -1.068669E-04 _shell_0000000102   
       102   6  2.025972E-04  8.999982E+00  5.738464E-05 -2.982517E-05 -3.867534E-05  4.263798E-05 _shell_0000000102   
       102   7 -3.768045E-05  8.999098E+00 -2.716238E-04  1.482398E-05 -1.248656E-05 -5.298546E-05 _shell_0000000102   
       102   8  1.104956E-04  8.999710E+00 -7.433395E-05 -1.977141E-05 -1.887910E-05 -1.202842E-05 _shell_0000000102   
       102   9  1.137831E-04  8.999945E+00  1.760429E-05 -2.830548E-05 -2.527163E-05  1.941206E-05 _shell_0000000102   
       102  10  3.318657E-04  8.999643E+00  1.974756E-05 -1.198879E-04  6.999346E-16  8.336691E-15 _shell_0000000102   
       102  11  2.727299E-04  8.999943E+00  6.435954E-05 -3.058049E-05  1.910896E-14 -2.414650E-15 _shell_0000000102   
       102  12  4.967237E-05  8.999846E+00 -4.079074E-05  8.478827E-05  8.518187E-15 -2.629733E-14 _shell_0000000102   
       102  13  2.437389E-04  8.999666E+00 -3.661948E-05 -1.177002E-04  1.796085E-16 -7.685191E-16 _shell_0000000102   
       102  14  2.205926E-04  8.999950E+00  3.005447E-05 -5.150995E-05  1.303128E-14 -5.650280E-15 _shell_0000000102   
       102  15  4.304102E-05  8.999848E+00 -3.082850E-05  4.074160E-05  8.965707E-15  1.450248E-14 _shell_0000000102   
       102  16  2.495178E-04  8.999747E+00  9.249065E-06 -1.217519E-04 -2.405174E-15 -3.880130E-15 _shell_0000000102   
       102  17  2.422766E-04  8.999997E+00  5.112157E-05 -7.867884E-05  9.742737E-15 -1.300257E-14 _shell_0000000102   
       102  18  9.014664E-05  8.999869E+00 -1.235754E-05 -9.544498E-06  6.684723E-15  3.940072E-14 _shell_0000000102   
       102  19  3.165069E-04  8.999111E+00 -1.446227E-04 -8.692366E-05 -3.659466E-04  4.787913E-04 _shell_0000000102   
       102  20  4.127885E-04  8.999773E+00  5.540663E-05 -7.528463E-05 -1.619549E-04  2.017054E-04 _shell_0000000102   
       102  21  3.451482E-04  9.000039E+00  1.056737E-04 -3.758428E-05  4.203688E-05 -6.586391E-05 _shell_0000000102   
       102  22  9.246040E-05  8.999075E+00 -2.592410E-04 -3.293013E-05 -1.717089E-04  2.658884E-04 _shell_0000000102   
       102  23  2.247314E-04  8.999722E+00 -3.714974E-05 -4.440831E-05 -6.651680E-05  1.068669E-04 _shell_0000000102   
       102  24  2.025972E-04  8.999982E+00  5.738464E-05 -2.982517E-05  3.867534E-05 -4.263798E-05 _shell_0000000102   
       102  25 -3.768045E-05  8.999098E+00 -2.716238E-04  1.482397E-05  1.248656E-05  5.298546E-05 _shell_0000000102   
       102  26  1.104956E-04  8.999710E+00 -7.433395E-05 -1.977141E-05  1.887910E-05  1.202842E-05 _shell_0000000102   
       102  27  1.137831E-04  8.999945E+00  1.760429E-05 -2.830548E-05  2.527163E-05 -1.941206E-05 _shell_0000000102   
       103   1  2.264255E-04  9.000018E+00  4.323549E-05 -4.952253E-06 -6.674585E-05  1.191759E-04 _shell_0000000103   
       103   2  2.052911E-04  9.000012E+00 -9.874182E-06  2.431301E-05 -3.249641E-05  4.679686E-05 _shell_0000000103   
       103   3  1.883296E-04  8.999982E+00 -2.464122E-05  5.465002E-05  1.753034E-06 -1.653292E-05 _shell_0000000103   
       103   4  2.004452E-04  9.000009E+00  5.969665E-05  6.666358E-07 -3.033507E-05  6.964737E-05 _shell_0000000103   
       103   5  1.855112E-04  9.000013E+00  1.248274E-05  2.338746E-05 -1.294679E-05  2.494419E-05 _shell_0000000103   
       103   6  1.657008E-04  8.999984E+00 -1.750343E-05  4.718003E-05  4.441482E-06 -1.070976E-05 _shell_0000000103   
       103   7  1.638537E-04  8.999988E+00  4.937458E-05  7.535323E-06  2.992326E-06  2.011887E-05 _shell_0000000103   
       103   8  1.612868E-04  9.000009E+00  2.244561E-05  2.371171E-05  3.519430E-06  3.091520E-06 _shell_0000000103   
       103   9  1.447942E-04  8.999987E+00 -8.370498E-06  4.095985E-05  4.046534E-06 -4.886592E-06 _shell_0000000103   
       103  10  2.193434E-04  8.999884E+00  8.560619E-07 -3.814299E-06 -7.852592E-15 -3.727278E-14 _shell_0000000103   
       103  11  2.362820E-04  8.999967E+00 -1.418065E-05  9.411624E-06 -1.852138E-14 -3.713094E-14 _shell_0000000103   
       103  12  2.573934E-04  9.000025E+00  9.125262E-06  2.370929E-05  2.977507E-16 -1.209529E-14 _shell_0000000103   
       103  13  1.652943E-04  8.999862E+00  5.287718E-06  1.449558E-05  1.250098E-15  7.401453E-15 _shell_0000000103   
       103  14  1.884332E-04  8.999955E+00 -3.853238E-06  2.117706E-05 -5.701183E-15 -2.850592E-14 _shell_0000000103   
       103  15  2.066957E-04  9.000015E+00  4.233551E-06  2.893029E-05  1.030026E-15 -6.252203E-15 _shell_0000000103   
       103  16  1.006339E-04  8.999830E+00 -1.706386E-05  3.405525E-05  5.867382E-15  3.765708E-14 _shell_0000000103   
       103  17  1.361400E-04  8.999939E+00 -5.919873E-06  3.419230E-05  6.815015E-15 -2.409966E-14 _shell_0000000103   
       103  18  1.577204E-04  9.000006E+00  1.336975E-06  3.540109E-05  3.785781E-15 -2.772732E-15 _shell_0000000103   
       103  19  2.264255E-04  9.000018E+00  4.323549E-05 -4.952253E-06  6.674585E-05 -1.191759E-04 _shell_0000000103   
       103  20  2.052911E-04  9.000012E+00 -9.874182E-06  2.431301E-05  3.249641E-05 -4.679686E-05 _shell_0000000103   
       103  21  1.883296E-04  8.999982E+00 -2.464122E-05  5.465002E-05 -1.753034E-06  1.653292E-05 _shell_0000000103   
       103  22  2.004452E-04  9.000009E+00  5.969665E-05  6.666358E-07  3.033507E-05 -6.964737E-05 _shell_0000000103   
       103  23  1.855112E-04  9.000013E+00  1.248274E-05  2.338746E-05  1.294679E-05 -2.494419E-05 _shell_0000000103   
       103  24  1.657008E-04  8.999984E+00 -1.750343E-05  4.718003E-05 -4.441482E-06  1.070976E-05 _shell_0000000103   
       103  25  1.638537E-04  8.999988E+00  4.937458E-05  7.535323E-06 -2.992326E-06 -2.011887E-05 _shell_0000000103   
       103  26  1.612868E-04  9.000009E+00  2.244561E-05  2.371171E-05 -3.519430E-06 -3.091520E-06 _shell_0000000103   
       103  27  1.447942E-04  8.999987E+00 -8.370498E-06  4.095985E-05 -4.046534E-06  4.886592E-06 _shell_0000000103   
       104   1  2.040854E-04  8.999983E+00 -8.727721E-06  3.655399E-05  1.649167E-05 -2.821256E-05 _shell_0000000104   
       104   2  2.000684E-04  9.000000E+00  1.888419E-06  3.260640E-05  7.694045E-06 -1.162892E-05 _shell_0000000104   
       104   3  1.917474E-04  9.000009E+00  5.940871E-06  3.114125E-05 -1.103578E-06  3.765105E-06 _shell_0000000104   
       104   4  1.722981E-04  8.999981E+00 -1.367715E-05  3.996287E-05  8.396660E-06 -1.627076E-05 _shell_0000000104   
       104   5  1.717250E-04  8.999998E+00 -3.047315E-06  3.692333E-05  3.424018E-06 -6.336310E-06 _shell_0000000104   
       104   6  1.680374E-04  9.000009E+00  3.794609E-06  3.636625E-05 -1.548624E-06  2.408522E-06 _shell_0000000104   
       104   7  1.457139E-04  8.999981E+00 -1.241216E-05  4.330852E-05  9.245905E-07 -4.328959E-06 _shell_0000000104   
       104   8  1.473387E-04  8.999998E+00 -4.675678E-06  4.117705E-05 -2.230700E-07 -1.043700E-06 _shell_0000000104   
       104   9  1.470388E-04  9.000010E+00  2.048671E-06  4.152802E-05 -1.370731E-06  1.051939E-06 _shell_0000000104   
       104  10  2.072142E-04  9.000015E+00  1.634861E-06  3.617907E-05  1.435021E-15 -1.365359E-14 _shell_0000000104   
       104  11  1.943153E-04  9.000011E+00  3.369048E-06  3.554632E-05 -1.034989E-14 -3.102246E-14 _shell_0000000104   
       104  12  1.771123E-04  8.999999E+00 -1.460453E-06  3.739602E-05 -2.466585E-15 -2.601826E-15 _shell_0000000104   
       104  13  1.812279E-04  9.000015E+00 -8.284333E-07  3.662730E-05  9.731644E-16 -1.217340E-14 _shell_0000000104   
       104  14  1.717728E-04  9.000011E+00  9.194461E-07  3.690261E-05 -5.347869E-15 -2.364221E-14 _shell_0000000104   
       104  15  1.592033E-04  9.000001E+00 -1.120583E-06  3.966036E-05  2.557135E-15  1.268388E-14 _shell_0000000104   
       104  16  1.604447E-04  9.000018E+00  2.922691E-06  3.701230E-05 -9.304891E-16  1.921451E-16 _shell_0000000104   
       104  17  1.531876E-04  9.000014E+00  1.777216E-06  3.819567E-05 -1.160323E-15 -2.216525E-14 _shell_0000000104   
       104  18  1.440057E-04  9.000005E+00 -3.803883E-07  4.186148E-05  9.258080E-15  1.697774E-14 _shell_0000000104   
       104  19  2.040854E-04  8.999983E+00 -8.727721E-06  3.655399E-05 -1.649167E-05  2.821256E-05 _shell_0000000104   
       104  20  2.000684E-04  9.000000E+00  1.888419E-06  3.260640E-05 -7.694045E-06  1.162892E-05 _shell_0000000104   
       104  21  1.917474E-04  9.000009E+00  5.940871E-06  3.114125E-05  1.103578E-06 -3.765105E-06 _shell_0000000104   
       104  22  1.722981E-04  8.999981E+00 -1.367715E-05  3.996287E-05 -8.396660E-06  1.627076E-05 _shell_0000000104   
       104  23  1.717250E-04  8.999998E+00 -3.047315E-06  3.692333E-05 -3.424018E-06  6.336310E-06 _shell_0000000104   
       104  24  1.680374E-04  9.000009E+00  3.794609E-06  3.636625E-05  1.548624E-06 -2.408522E-06 _shell_0000000104   
       104  25  1.457139E-04  8.999981E+00 -1.241216E-05  4.330852E-05 -9.245905E-07  4.328959E-06 _shell_0000000104   
       104  26  1.473387E-04  8.999998E+00 -4.675678E-06  4.117705E-05  2.230700E-07  1.043700E-06 _shell_0000000104   
       104  27  1.470388E-04  9.000010E+00  2.048671E-06  4.152802E-05  1.370731E-06 -1.051939E-06 _shell_0000000104   
       105   1  1.772615E-04  9.000006E+00  2.010329E-06  3.017107E-05 -3.271633E-06  6.851699E-06 _shell_0000000105   
       105   2  1.633336E-04  9.000004E+00 -1.484144E-07  2.502747E-05 -1.585214E-06  2.921956E-06 _shell_0000000105   
       105   3  1.495909E-04  9.000002E+00 -1.367376E-06  2.274454E-05  1.012049E-07 -8.694005E-07 _shell_0000000105   
       105   4  1.613520E-04  9.000009E+00  3.369469E-06  3.481635E-05 -1.745648E-06  4.017418E-06 _shell_0000000105   
       105   5  1.510003E-04  9.000007E+00  8.647236E-07  2.929648E-05 -7.302857E-07  1.658770E-06 _shell_0000000105   
       105   6  1.406954E-04  9.000004E+00 -1.023144E-06  2.663728E-05  2.850763E-07 -5.614908E-07 _shell_0000000105   
       105   7  1.443571E-04  9.000011E+00  3.027110E-06  3.925036E-05 -4.144343E-07  1.183138E-06 _shell_0000000105   
       105   8  1.379711E-04  9.000009E+00  1.085300E-06  3.335422E-05 -7.012944E-08  3.955846E-07 _shell_0000000105   
       105   9  1.314936E-04  9.000007E+00 -5.625357E-07  3.031874E-05  2.741754E-07 -2.535812E-07 _shell_0000000105   
       105  10  1.759275E-04  8.999998E+00 -8.006508E-07  2.919770E-05  2.861815E-15  8.336698E-15 _shell_0000000105   
       105  11  1.642054E-04  9.000001E+00 -7.536743E-07  2.349892E-05  4.611361E-16 -5.468914E-15 _shell_0000000105   
       105  12  1.526684E-04  9.000004E+00  2.330838E-07  2.066080E-05 -3.214372E-15  1.399272E-14 _shell_0000000105   
       105  13  1.590465E-04  9.000001E+00  1.420983E-07  3.457823E-05  8.882636E-15  1.716995E-14 _shell_0000000105   
       105  14  1.509005E-04  9.000004E+00 -1.569274E-07  2.850317E-05  7.384009E-15 -7.279185E-15 _shell_0000000105   
       105  15  1.428013E-04  9.000006E+00  1.609251E-07  2.528878E-05  1.218664E-15  1.268633E-14 _shell_0000000105   
       105  16  1.410800E-04  9.000002E+00 -6.166514E-07  3.974748E-05  1.084243E-14  2.360773E-14 _shell_0000000105   
       105  17  1.368997E-04  9.000006E+00 -3.527420E-07  3.329614E-05  8.728424E-15 -5.672534E-15 _shell_0000000105   
       105  18  1.326279E-04  9.000008E+00  2.051420E-07  2.970548E-05  5.163727E-15  1.791944E-14 _shell_0000000105   
       105  19  1.772615E-04  9.000006E+00  2.010329E-06  3.017107E-05  3.271633E-06 -6.851699E-06 _shell_0000000105   
       105  20  1.633336E-04  9.000004E+00 -1.484145E-07  2.502747E-05  1.585214E-06 -2.921956E-06 _shell_0000000105   
       105  21  1.495909E-04  9.000002E+00 -1.367376E-06  2.274454E-05 -1.012049E-07  8.694005E-07 _shell_0000000105   
       105  22  1.613520E-04  9.000009E+00  3.369469E-06  3.481635E-05  1.745648E-06 -4.017418E-06 _shell_0000000105   
       105  23  1.510003E-04  9.000007E+00  8.647235E-07  2.929648E-05  7.302857E-07 -1.658770E-06 _shell_0000000105   
       105  24  1.406954E-04  9.000004E+00 -1.023144E-06  2.663728E-05 -2.850763E-07  5.614909E-07 _shell_0000000105   
       105  25  1.443571E-04  9.000011E+00  3.027110E-06  3.925036E-05  4.144343E-07 -1.183138E-06 _shell_0000000105   
       105  26  1.379711E-04  9.000009E+00  1.085300E-06  3.335422E-05  7.012945E-08 -3.955846E-07 _shell_0000000105   
       105  27  1.314936E-04  9.000007E+00 -5.625357E-07  3.031874E-05 -2.741754E-07  2.535813E-07 _shell_0000000105   
       106   1  1.451310E-04  9.000002E+00 -5.204523E-07  1.930600E-05  8.490644E-07 -1.650992E-06 _shell_0000000106   
       106   2  1.374588E-04  9.000003E+00  1.304008E-07  1.521386E-05  3.574787E-07 -6.746589E-07 _shell_0000000106   
       106   3  1.293836E-04  9.000002E+00  1.223413E-07  1.244527E-05 -1.341070E-07  2.400752E-07 _shell_0000000106   
       106   4  1.369093E-04  9.000004E+00 -7.736511E-07  2.325155E-05  5.127043E-07 -9.968898E-07 _shell_0000000106   
       106   5  1.309947E-04  9.000005E+00 -2.679532E-08  1.853345E-05  1.789471E-07 -4.019644E-07 _shell_0000000106   
       106   6  1.247386E-04  9.000005E+00  2.048787E-07  1.513890E-05 -1.548101E-07  1.313622E-07 _shell_0000000106   
       106   7  1.279368E-04  9.000006E+00 -9.268421E-07  2.709539E-05  2.140580E-07 -3.427878E-07 _shell_0000000106   
       106   8  1.237043E-04  9.000006E+00 -2.599808E-07  2.175133E-05  3.812918E-08 -1.292699E-07 _shell_0000000106   
       106   9  1.191919E-04  9.000006E+00  3.542937E-08  1.773081E-05 -1.377996E-07  2.264913E-08 _shell_0000000106   
       106  10  1.453449E-04  9.000004E+00  1.340435E-07  1.923232E-05 -1.982217E-15  1.240897E-14 _shell_0000000106   
       106  11  1.371587E-04  9.000003E+00  2.709573E-07  1.528165E-05  4.698010E-15  1.657562E-15 _shell_0000000106   
       106  12  1.285696E-04  9.000002E+00 -2.510413E-07  1.265453E-05  1.069868E-14  3.865542E-14 _shell_0000000106   
       106  13  1.373707E-04  9.000006E+00 -1.305206E-08  2.300656E-05  1.578001E-15  9.004844E-15 _shell_0000000106   
       106  14  1.309422E-04  9.000005E+00  2.198644E-07  1.842993E-05  8.144548E-15  1.601010E-15 _shell_0000000106   
       106  15  1.241721E-04  9.000004E+00 -6.240090E-08  1.517684E-05  1.369000E-14  4.605352E-14 _shell_0000000106   
       106  16  1.286458E-04  9.000008E+00 -6.013986E-08  2.667909E-05  3.400823E-15  1.892461E-14 _shell_0000000106   
       106  17  1.238993E-04  9.000007E+00  9.278204E-08  2.147649E-05  5.835984E-15 -4.247238E-15 _shell_0000000106   
       106  18  1.188730E-04  9.000006E+00 -1.257471E-07  1.759745E-05  9.599017E-15  3.805174E-14 _shell_0000000106   
       106  19  1.451310E-04  9.000002E+00 -5.204523E-07  1.930600E-05 -8.490644E-07  1.650992E-06 _shell_0000000106   
       106  20  1.374588E-04  9.000003E+00  1.304008E-07  1.521386E-05 -3.574787E-07  6.746589E-07 _shell_0000000106   
       106  21  1.293836E-04  9.000002E+00  1.223415E-07  1.244527E-05  1.341070E-07 -2.400751E-07 _shell_0000000106   
       106  22  1.369093E-04  9.000004E+00 -7.736511E-07  2.325155E-05 -5.127043E-07  9.968899E-07 _shell_0000000106   
       106  23  1.309947E-04  9.000005E+00 -2.679532E-08  1.853345E-05 -1.789471E-07  4.019644E-07 _shell_0000000106   
       106  24  1.247386E-04  9.000005E+00  2.048787E-07  1.513890E-05  1.548101E-07 -1.313621E-07 _shell_0000000106   
       106  25  1.279368E-04  9.000006E+00 -9.268420E-07  2.709539E-05 -2.140580E-07  3.427878E-07 _shell_0000000106   
       106  26  1.237043E-04  9.000006E+00 -2.599809E-07  2.175133E-05 -3.812918E-08  1.292699E-07 _shell_0000000106   
       106  27  1.191919E-04  9.000006E+00  3.542926E-08  1.773081E-05  1.377996E-07 -2.264905E-08 _shell_0000000106   
       107   1  1.257125E-04  9.000002E+00  1.603771E-08  1.052459E-05 -4.175140E-08  4.354520E-07 _shell_0000000107   
       107   2  1.217126E-04  9.000002E+00  6.955203E-08  7.213802E-06 -6.096464E-08  2.257431E-07 _shell_0000000107   
       107   3  1.174912E-04  9.000002E+00 -1.807569E-07  4.557949E-06 -8.017786E-08  6.510580E-09 _shell_0000000107   
       107   4  1.218272E-04  9.000004E+00  1.759220E-07  1.274973E-05 -1.505989E-08  2.411135E-07 _shell_0000000107   
       107   5  1.186373E-04  9.000004E+00  1.992755E-07  8.828632E-06 -3.478627E-08  1.185609E-07 _shell_0000000107   
       107   6  1.152353E-04  9.000004E+00 -5.897219E-08  5.562463E-06 -5.451263E-08 -1.351544E-08 _shell_0000000107   
       107   7  1.170210E-04  9.000006E+00  4.351305E-08  1.490911E-05  2.811591E-09  4.677498E-08 _shell_0000000107   
       107   8  1.146587E-04  9.000006E+00  7.786600E-08  1.037769E-05 -1.742790E-08  1.137857E-08 _shell_0000000107   
       107   9  1.120938E-04  9.000005E+00 -1.471604E-07  6.501210E-06 -3.766742E-08 -3.354148E-08 _shell_0000000107   
       107  10  1.254886E-04  9.000002E+00 -1.702548E-07  1.035671E-05  6.372636E-15  3.419564E-14 _shell_0000000107   
       107  11  1.216067E-04  9.000002E+00  1.155294E-09  7.049112E-06 -5.743236E-15 -1.666767E-14 _shell_0000000107   
       107  12  1.175032E-04  9.000002E+00 -1.312579E-07  4.396446E-06 -1.740475E-15 -1.756741E-14 _shell_0000000107   
       107  13  1.216090E-04  9.000004E+00 -7.980710E-09  1.262115E-05  1.157449E-14  4.809867E-14 _shell_0000000107   
       107  14  1.185370E-04  9.000004E+00  1.332687E-07  8.703240E-06  5.713259E-15 -8.144586E-16 _shell_0000000107   
       107  15  1.152529E-04  9.000004E+00 -7.083174E-09  5.440259E-06  4.881101E-16 -8.924623E-15 _shell_0000000107   
       107  16  1.168083E-04  9.000006E+00 -1.379998E-07  1.481983E-05  1.267797E-14  4.967028E-14 _shell_0000000107   
       107  17  1.145639E-04  9.000006E+00  1.424901E-08  1.029160E-05  1.260011E-14  1.489245E-14 _shell_0000000107   
       107  18  1.121169E-04  9.000005E+00 -9.288150E-08  6.418304E-06  9.843827E-15  1.980286E-14 _shell_0000000107   
       107  19  1.257125E-04  9.000002E+00  1.603780E-08  1.052459E-05  4.175141E-08 -4.354519E-07 _shell_0000000107   
       107  20  1.217126E-04  9.000002E+00  6.955208E-08  7.213802E-06  6.096462E-08 -2.257432E-07 _shell_0000000107   
       107  21  1.174912E-04  9.000002E+00 -1.807569E-07  4.557949E-06  8.017786E-08 -6.510607E-09 _shell_0000000107   
       107  22  1.218272E-04  9.000004E+00  1.759220E-07  1.274973E-05  1.505991E-08 -2.411134E-07 _shell_0000000107   
       107  23  1.186373E-04  9.000004E+00  1.992756E-07  8.828632E-06  3.478627E-08 -1.185609E-07 _shell_0000000107   
       107  24  1.152353E-04  9.000004E+00 -5.897210E-08  5.562463E-06  5.451264E-08  1.351545E-08 _shell_0000000107   
       107  25  1.170210E-04  9.000006E+00  4.351298E-08  1.490911E-05 -2.811568E-09 -4.677487E-08 _shell_0000000107   
       107  26  1.146587E-04  9.000006E+00  7.786604E-08  1.037769E-05  1.742794E-08 -1.137854E-08 _shell_0000000107   
       107  27  1.120938E-04  9.000005E+00 -1.471603E-07  6.501210E-06  3.766744E-08  3.354152E-08 _shell_0000000107   
       108   1  1.164885E-04  9.000002E+00 -1.135405E-07  2.742871E-06  1.301218E-07 -5.625040E-08 _shell_0000000108   
       108   2  1.166050E-04  9.000002E+00  6.022481E-08 -5.614647E-14  6.487005E-15 -5.201535E-08 _shell_0000000108   
       108   3  1.164885E-04  9.000002E+00 -1.135405E-07 -2.742871E-06 -1.301218E-07 -5.625036E-08 _shell_0000000108   
       108   4  1.143810E-04  9.000004E+00 -3.465359E-08  3.360397E-06  1.069390E-07 -5.091446E-08 _shell_0000000108   
       108   5  1.144933E-04  9.000004E+00  1.292301E-07 -2.657159E-14 -9.048083E-15 -4.667944E-08 _shell_0000000108   
       108   6  1.143810E-04  9.000004E+00 -3.465344E-08 -3.360397E-06 -1.069390E-07 -5.091448E-08 _shell_0000000108   
       108   7  1.113728E-04  9.000005E+00 -1.623764E-07  3.977923E-06  8.375621E-08 -4.557852E-08 _shell_0000000108   
       108   8  1.114809E-04  9.000005E+00 -8.374415E-09 -1.122420E-14 -6.913321E-15 -4.134353E-08 _shell_0000000108   
       108   9  1.113728E-04  9.000005E+00 -1.623762E-07 -3.977923E-06 -8.375621E-08 -4.557863E-08 _shell_0000000108   
       108  10  1.163733E-04  9.000002E+00 -9.893451E-08  2.722308E-06 -1.889465E-15 -1.202467E-14 _shell_0000000108   
       108  11  1.164898E-04  9.000002E+00  7.483079E-08 -4.530405E-14 -2.540643E-15 -5.265305E-15 _shell_0000000108   
       108  12  1.163733E-04  9.000002E+00 -9.893456E-08 -2.722308E-06  7.026612E-15  1.961754E-14 _shell_0000000108   
       108  13  1.143018E-04  9.000004E+00 -4.624988E-09  3.339834E-06 -3.257820E-15 -2.422975E-15 _shell_0000000108   
       108  14  1.144141E-04  9.000004E+00  1.592586E-07 -3.013483E-14 -5.650280E-15 -2.494268E-15 _shell_0000000108   
       108  15  1.143018E-04  9.000004E+00 -4.624993E-09 -3.339834E-06  3.512337E-15 -8.341679E-15 _shell_0000000108   
       108  16  1.113296E-04  9.000005E+00 -1.169252E-07  3.957360E-06  4.711587E-15  2.462580E-14 _shell_0000000108   
       108  17  1.114377E-04  9.000006E+00  3.707664E-08 -3.064386E-14 -9.281231E-16  1.861174E-15 _shell_0000000108   
       108  18  1.113296E-04  9.000005E+00 -1.169252E-07 -3.957360E-06  2.583403E-15 -3.275492E-14 _shell_0000000108   
       108  19  1.164885E-04  9.000002E+00 -1.135405E-07  2.742871E-06 -1.301218E-07  5.625038E-08 _shell_0000000108   
       108  20  1.166050E-04  9.000002E+00  6.022478E-08 -5.752087E-14 -1.277676E-14  5.201536E-08 _shell_0000000108   
       108  21  1.164885E-04  9.000002E+00 -1.135406E-07 -2.742871E-06  1.301218E-07  5.625041E-08 _shell_0000000108   
       108  22  1.143810E-04  9.000004E+00 -3.465353E-08  3.360397E-06 -1.069390E-07  5.091446E-08 _shell_0000000108   
       108  23  1.144933E-04  9.000004E+00  1.292301E-07 -3.240003E-14 -9.569843E-15  4.667943E-08 _shell_0000000108   
       108  24  1.143810E-04  9.000004E+00 -3.465352E-08 -3.360397E-06  1.069390E-07  5.091447E-08 _shell_0000000108   
       108  25  1.113728E-04  9.000005E+00 -1.623762E-07  3.977923E-06 -8.375620E-08  4.557858E-08 _shell_0000000108   
       108  26  1.114809E-04  9.000005E+00 -8.374383E-09 -3.975557E-14 -6.922865E-15  4.134353E-08 _shell_0000000108   
       108  27  1.113728E-04  9.000005E+00 -1.623763E-07 -3.977924E-06  8.375621E-08  4.557855E-08 _shell_0000000108   
       109   1  1.174912E-04  9.000002E+00 -1.807569E-07 -4.557949E-06  8.017785E-08  6.510627E-09 _shell_0000000109   
       109   2  1.217126E-04  9.000002E+00  6.955204E-08 -7.213802E-06  6.096465E-08  2.257432E-07 _shell_0000000109   
       109   3  1.257125E-04  9.000002E+00  1.603783E-08 -1.052459E-05  4.175143E-08  4.354521E-07 _shell_0000000109   
       109   4  1.152353E-04  9.000004E+00 -5.897201E-08 -5.562463E-06  5.451263E-08 -1.351549E-08 _shell_0000000109   
       109   5  1.186373E-04  9.000004E+00  1.992756E-07 -8.828632E-06  3.478628E-08  1.185609E-07 _shell_0000000109   
       109   6  1.218272E-04  9.000004E+00  1.759220E-07 -1.274973E-05  1.505993E-08  2.411136E-07 _shell_0000000109   
       109   7  1.120938E-04  9.000005E+00 -1.471602E-07 -6.501210E-06  3.766743E-08 -3.354160E-08 _shell_0000000109   
       109   8  1.146587E-04  9.000006E+00  7.786601E-08 -1.037769E-05  1.742794E-08  1.137856E-08 _shell_0000000109   
       109   9  1.170210E-04  9.000006E+00  4.351300E-08 -1.490911E-05 -2.811564E-09  4.677502E-08 _shell_0000000109   
       109  10  1.175032E-04  9.000002E+00 -1.312579E-07 -4.396446E-06  9.474726E-15  4.875266E-15 _shell_0000000109   
       109  11  1.216067E-04  9.000002E+00  1.155269E-09 -7.049112E-06  9.575881E-15 -1.218817E-14 _shell_0000000109   
       109  12  1.254886E-04  9.000002E+00 -1.702548E-07 -1.035671E-05  2.458680E-15  8.029442E-14 _shell_0000000109   
       109  13  1.152529E-04  9.000004E+00 -7.083159E-09 -5.440259E-06  7.063501E-15 -1.866117E-14 _shell_0000000109   
       109  14  1.185370E-04  9.000004E+00  1.332687E-07 -8.703240E-06  8.857195E-15 -7.635513E-16 _shell_0000000109   
       109  15  1.216090E-04  9.000004E+00 -7.980702E-09 -1.262115E-05  7.094341E-15  6.966782E-14 _shell_0000000109   
       109  16  1.121169E-04  9.000005E+00 -9.288147E-08 -6.418304E-06  6.235669E-15 -3.666192E-14 _shell_0000000109   
       109  17  1.145639E-04  9.000006E+00  1.424901E-08 -1.029160E-05  8.328750E-15  4.100927E-15 _shell_0000000109   
       109  18  1.168083E-04  9.000006E+00 -1.379998E-07 -1.481983E-05  6.420949E-15  5.263557E-14 _shell_0000000109   
       109  19  1.174912E-04  9.000002E+00 -1.807569E-07 -4.557949E-06 -8.017782E-08 -6.510620E-09 _shell_0000000109   
       109  20  1.217126E-04  9.000002E+00  6.955209E-08 -7.213802E-06 -6.096464E-08 -2.257432E-07 _shell_0000000109   
       109  21  1.257125E-04  9.000002E+00  1.603774E-08 -1.052459E-05 -4.175144E-08 -4.354519E-07 _shell_0000000109   
       109  22  1.152353E-04  9.000004E+00 -5.897209E-08 -5.562464E-06 -5.451261E-08  1.351546E-08 _shell_0000000109   
       109  23  1.186373E-04  9.000004E+00  1.992756E-07 -8.828632E-06 -3.478627E-08 -1.185609E-07 _shell_0000000109   
       109  24  1.218272E-04  9.000004E+00  1.759219E-07 -1.274973E-05 -1.505991E-08 -2.411134E-07 _shell_0000000109   
       109  25  1.120938E-04  9.000005E+00 -1.471603E-07 -6.501210E-06 -3.766742E-08  3.354150E-08 _shell_0000000109   
       109  26  1.146587E-04  9.000006E+00  7.786604E-08 -1.037769E-05 -1.742793E-08 -1.137855E-08 _shell_0000000109   
       109  27  1.170210E-04  9.000006E+00  4.351292E-08 -1.490911E-05  2.811584E-09 -4.677491E-08 _shell_0000000109   
       110   1  1.293836E-04  9.000002E+00  1.223414E-07 -1.244527E-05  1.341070E-07  2.400753E-07 _shell_0000000110   
       110   2  1.374588E-04  9.000003E+00  1.304008E-07 -1.521386E-05 -3.574787E-07 -6.746589E-07 _shell_0000000110   
       110   3  1.451310E-04  9.000002E+00 -5.204525E-07 -1.930600E-05 -8.490643E-07 -1.650992E-06 _shell_0000000110   
       110   4  1.247386E-04  9.000005E+00  2.048787E-07 -1.513890E-05  1.548101E-07  1.313622E-07 _shell_0000000110   
       110   5  1.309947E-04  9.000005E+00 -2.679533E-08 -1.853345E-05 -1.789471E-07 -4.019644E-07 _shell_0000000110   
       110   6  1.369093E-04  9.000004E+00 -7.736511E-07 -2.325155E-05 -5.127043E-07 -9.968899E-07 _shell_0000000110   
       110   7  1.191919E-04  9.000006E+00  3.542934E-08 -1.773081E-05  1.377996E-07  2.264918E-08 _shell_0000000110   
       110   8  1.237043E-04  9.000006E+00 -2.599808E-07 -2.175133E-05 -3.812917E-08 -1.292699E-07 _shell_0000000110   
       110   9  1.279368E-04  9.000006E+00 -9.268421E-07 -2.709539E-05 -2.140580E-07 -3.427878E-07 _shell_0000000110   
       110  10  1.285696E-04  9.000002E+00 -2.510414E-07 -1.265453E-05  9.862537E-15  9.609420E-14 _shell_0000000110   
       110  11  1.371587E-04  9.000003E+00  2.709572E-07 -1.528165E-05  2.445174E-14  3.286473E-15 _shell_0000000110   
       110  12  1.453449E-04  9.000004E+00  1.340434E-07 -1.923232E-05  4.540114E-15 -5.526140E-14 _shell_0000000110   
       110  13  1.241721E-04  9.000004E+00 -6.240092E-08 -1.517684E-05  1.477406E-14  7.092886E-14 _shell_0000000110   
       110  14  1.309422E-04  9.000005E+00  2.198644E-07 -1.842993E-05  2.361919E-14  4.886729E-15 _shell_0000000110   
       110  15  1.373707E-04  9.000006E+00 -1.305207E-08 -2.300656E-05  8.872283E-15 -1.459546E-14 _shell_0000000110   
       110  16  1.188730E-04  9.000006E+00 -1.257471E-07 -1.759745E-05  1.354031E-14  4.743053E-14 _shell_0000000110   
       110  17  1.238993E-04  9.000007E+00  9.278203E-08 -2.147649E-05  2.714360E-14  4.100927E-15 _shell_0000000110   
       110  18  1.286458E-04  9.000008E+00 -6.013988E-08 -2.667908E-05  1.352467E-14  2.580947E-14 _shell_0000000110   
       110  19  1.293836E-04  9.000002E+00  1.223413E-07 -1.244527E-05 -1.341070E-07 -2.400751E-07 _shell_0000000110   
       110  20  1.374588E-04  9.000003E+00  1.304007E-07 -1.521386E-05  3.574787E-07  6.746589E-07 _shell_0000000110   
       110  21  1.451310E-04  9.000002E+00 -5.204523E-07 -1.930600E-05  8.490644E-07  1.650992E-06 _shell_0000000110   
       110  22  1.247386E-04  9.000005E+00  2.048786E-07 -1.513890E-05 -1.548101E-07 -1.313621E-07 _shell_0000000110   
       110  23  1.309947E-04  9.000005E+00 -2.679534E-08 -1.853345E-05  1.789471E-07  4.019644E-07 _shell_0000000110   
       110  24  1.369093E-04  9.000004E+00 -7.736510E-07 -2.325155E-05  5.127043E-07  9.968899E-07 _shell_0000000110   
       110  25  1.191919E-04  9.000006E+00  3.542929E-08 -1.773081E-05 -1.377996E-07 -2.264909E-08 _shell_0000000110   
       110  26  1.237043E-04  9.000006E+00 -2.599809E-07 -2.175133E-05  3.812922E-08  1.292699E-07 _shell_0000000110   
       110  27  1.279368E-04  9.000006E+00 -9.268420E-07 -2.709539E-05  2.140580E-07  3.427878E-07 _shell_0000000110   
       111   1  1.495909E-04  9.000002E+00 -1.367376E-06 -2.274454E-05 -1.012049E-07 -8.694005E-07 _shell_0000000111   
       111   2  1.633336E-04  9.000004E+00 -1.484144E-07 -2.502747E-05  1.585214E-06  2.921956E-06 _shell_0000000111   
       111   3  1.772615E-04  9.000006E+00  2.010329E-06 -3.017107E-05  3.271633E-06  6.851699E-06 _shell_0000000111   
       111   4  1.406954E-04  9.000004E+00 -1.023144E-06 -2.663728E-05 -2.850763E-07 -5.614909E-07 _shell_0000000111   
       111   5  1.510003E-04  9.000007E+00  8.647236E-07 -2.929648E-05  7.302856E-07  1.658770E-06 _shell_0000000111   
       111   6  1.613520E-04  9.000009E+00  3.369469E-06 -3.481635E-05  1.745648E-06  4.017418E-06 _shell_0000000111   
       111   7  1.314936E-04  9.000007E+00 -5.625357E-07 -3.031874E-05 -2.741754E-07 -2.535813E-07 _shell_0000000111   
       111   8  1.379711E-04  9.000009E+00  1.085300E-06 -3.335422E-05  7.012942E-08  3.955846E-07 _shell_0000000111   
       111   9  1.443571E-04  9.000011E+00  3.027110E-06 -3.925036E-05  4.144343E-07  1.183138E-06 _shell_0000000111   
       111  10  1.526684E-04  9.000004E+00  2.330837E-07 -2.066080E-05 -8.494852E-15 -4.073421E-14 _shell_0000000111   
       111  11  1.642054E-04  9.000001E+00 -7.536743E-07 -2.349892E-05 -1.561831E-14 -1.707491E-14 _shell_0000000111   
       111  12  1.759275E-04  8.999998E+00 -8.006508E-07 -2.919770E-05 -1.284340E-14 -6.612927E-14 _shell_0000000111   
       111  13  1.428013E-04  9.000006E+00  1.609251E-07 -2.528878E-05 -5.001928E-15 -5.655357E-15 _shell_0000000111   
       111  14  1.509005E-04  9.000004E+00 -1.569274E-07 -2.850317E-05 -1.323489E-14 -8.093644E-15 _shell_0000000111   
       111  15  1.590465E-04  9.000001E+00  1.420983E-07 -3.457823E-05 -9.255375E-15 -5.188467E-14 _shell_0000000111   
       111  16  1.326279E-04  9.000008E+00  2.051420E-07 -2.970548E-05  1.329519E-15  3.093781E-14 _shell_0000000111   
       111  17  1.368997E-04  9.000006E+00 -3.527420E-07 -3.329614E-05 -5.084305E-15 -9.846619E-15 _shell_0000000111   
       111  18  1.410800E-04  9.000002E+00 -6.166515E-07 -3.974748E-05 -1.857884E-15 -4.046680E-14 _shell_0000000111   
       111  19  1.495909E-04  9.000002E+00 -1.367376E-06 -2.274454E-05  1.012049E-07  8.694004E-07 _shell_0000000111   
       111  20  1.633336E-04  9.000004E+00 -1.484145E-07 -2.502747E-05 -1.585214E-06 -2.921956E-06 _shell_0000000111   
       111  21  1.772615E-04  9.000006E+00  2.010329E-06 -3.017107E-05 -3.271633E-06 -6.851699E-06 _shell_0000000111   
       111  22  1.406954E-04  9.000004E+00 -1.023144E-06 -2.663728E-05  2.850763E-07  5.614909E-07 _shell_0000000111   
       111  23  1.510003E-04  9.000007E+00  8.647235E-07 -2.929648E-05 -7.302857E-07 -1.658770E-06 _shell_0000000111   
       111  24  1.613520E-04  9.000009E+00  3.369469E-06 -3.481635E-05 -1.745648E-06 -4.017418E-06 _shell_0000000111   
       111  25  1.314936E-04  9.000007E+00 -5.625356E-07 -3.031874E-05  2.741754E-07  2.535813E-07 _shell_0000000111   
       111  26  1.379711E-04  9.000009E+00  1.085300E-06 -3.335422E-05 -7.012943E-08 -3.955846E-07 _shell_0000000111   
       111  27  1.443571E-04  9.000011E+00  3.027110E-06 -3.925036E-05 -4.144343E-07 -1.183138E-06 _shell_0000000111   
       112   1  1.917474E-04  9.000009E+00  5.940871E-06 -3.114125E-05  1.103578E-06  3.765105E-06 _shell_0000000112   
       112   2  2.000684E-04  9.000000E+00  1.888419E-06 -3.260640E-05 -7.694045E-06 -1.162892E-05 _shell_0000000112   
       112   3  2.040854E-04  8.999983E+00 -8.727721E-06 -3.655399E-05 -1.649167E-05 -2.821256E-05 _shell_0000000112   
       112   4  1.680374E-04  9.000009E+00  3.794609E-06 -3.636625E-05  1.548624E-06  2.408522E-06 _shell_0000000112   
       112   5  1.717250E-04  8.999998E+00 -3.047315E-06 -3.692333E-05 -3.424018E-06 -6.336310E-06 _shell_0000000112   
       112   6  1.722981E-04  8.999981E+00 -1.367715E-05 -3.996287E-05 -8.396660E-06 -1.627076E-05 _shell_0000000112   
       112   7  1.470388E-04  9.000010E+00  2.048671E-06 -4.152802E-05  1.370731E-06  1.051939E-06 _shell_0000000112   
       112   8  1.473387E-04  8.999998E+00 -4.675678E-06 -4.117705E-05  2.230700E-07 -1.043700E-06 _shell_0000000112   
       112   9  1.457139E-04  8.999981E+00 -1.241216E-05 -4.330852E-05 -9.245905E-07 -4.328959E-06 _shell_0000000112   
       112  10  1.771123E-04  8.999999E+00 -1.460453E-06 -3.739602E-05 -8.876638E-15 -6.822208E-14 _shell_0000000112   
       112  11  1.943153E-04  9.000011E+00  3.369048E-06 -3.554632E-05 -1.237854E-14 -1.228993E-14 _shell_0000000112   
       112  12  2.072142E-04  9.000015E+00  1.634861E-06 -3.617907E-05 -9.357214E-15  8.418740E-15 _shell_0000000112   
       112  13  1.592033E-04  9.000001E+00 -1.120583E-06 -3.966036E-05 -3.488245E-15 -5.940948E-14 _shell_0000000112   
       112  14  1.717728E-04  9.000011E+00  9.194461E-07 -3.690261E-05 -7.737320E-15 -1.058791E-14 _shell_0000000112   
       112  15  1.812279E-04  9.000015E+00 -8.284333E-07 -3.662730E-05 -1.171680E-14 -1.388419E-15 _shell_0000000112   
       112  16  1.440057E-04  9.000005E+00 -3.803883E-07 -4.186148E-05 -1.667090E-15 -3.808722E-14 _shell_0000000112   
       112  17  1.531876E-04  9.000014E+00  1.777216E-06 -3.819567E-05 -4.533408E-15 -6.486970E-15 _shell_0000000112   
       112  18  1.604447E-04  9.000018E+00  2.922691E-06 -3.701230E-05 -1.139860E-14  1.160739E-14 _shell_0000000112   
       112  19  1.917474E-04  9.000009E+00  5.940871E-06 -3.114125E-05 -1.103578E-06 -3.765105E-06 _shell_0000000112   
       112  20  2.000684E-04  9.000000E+00  1.888419E-06 -3.260640E-05  7.694045E-06  1.162892E-05 _shell_0000000112   
       112  21  2.040854E-04  8.999983E+00 -8.727721E-06 -3.655399E-05  1.649167E-05  2.821256E-05 _shell_0000000112   
       112  22  1.680374E-04  9.000009E+00  3.794609E-06 -3.636625E-05 -1.548624E-06 -2.408522E-06 _shell_0000000112   
       112  23  1.717250E-04  8.999998E+00 -3.047315E-06 -3.692333E-05  3.424018E-06  6.336310E-06 _shell_0000000112   
       112  24  1.722981E-04  8.999981E+00 -1.367715E-05 -3.996287E-05  8.396660E-06  1.627076E-05 _shell_0000000112   
       112  25  1.470388E-04  9.000010E+00  2.048671E-06 -4.152802E-05 -1.370731E-06 -1.051939E-06 _shell_0000000112   
       112  26  1.473387E-04  8.999998E+00 -4.675678E-06 -4.117705E-05 -2.230700E-07  1.043700E-06 _shell_0000000112   
       112  27  1.457139E-04  8.999981E+00 -1.241216E-05 -4.330852E-05  9.245905E-07  4.328959E-06 _shell_0000000112   
       113   1  1.883296E-04  8.999982E+00 -2.464122E-05 -5.465002E-05 -1.753034E-06 -1.653292E-05 _shell_0000000113   
       113   2  2.052911E-04  9.000012E+00 -9.874182E-06 -2.431301E-05  3.249641E-05  4.679686E-05 _shell_0000000113   
       113   3  2.264255E-04  9.000018E+00  4.323549E-05  4.952253E-06  6.674585E-05  1.191759E-04 _shell_0000000113   
       113   4  1.657008E-04  8.999984E+00 -1.750343E-05 -4.718003E-05 -4.441482E-06 -1.070976E-05 _shell_0000000113   
       113   5  1.855112E-04  9.000013E+00  1.248274E-05 -2.338746E-05  1.294679E-05  2.494419E-05 _shell_0000000113   
       113   6  2.004452E-04  9.000009E+00  5.969665E-05 -6.666358E-07  3.033507E-05  6.964737E-05 _shell_0000000113   
       113   7  1.447942E-04  8.999987E+00 -8.370499E-06 -4.095985E-05 -4.046534E-06 -4.886592E-06 _shell_0000000113   
       113   8  1.612868E-04  9.000009E+00  2.244561E-05 -2.371171E-05 -3.519430E-06  3.091520E-06 _shell_0000000113   
       113   9  1.638537E-04  8.999988E+00  4.937458E-05 -7.535323E-06 -2.992326E-06  2.011887E-05 _shell_0000000113   
       113  10  2.573934E-04  9.000025E+00  9.125262E-06 -2.370929E-05 -8.914839E-15 -1.141395E-14 _shell_0000000113   
       113  11  2.362820E-04  8.999967E+00 -1.418065E-05 -9.411624E-06 -1.145625E-14 -3.713078E-14 _shell_0000000113   
       113  12  2.193434E-04  8.999884E+00  8.560619E-07  3.814299E-06 -7.358545E-15  6.688127E-15 _shell_0000000113   
       113  13  2.066957E-04  9.000015E+00  4.233551E-06 -2.893029E-05 -9.430545E-15 -8.913370E-15 _shell_0000000113   
       113  14  1.884332E-04  8.999955E+00 -3.853238E-06 -2.117706E-05 -1.322287E-14 -2.525810E-14 _shell_0000000113   
       113  15  1.652943E-04  8.999862E+00  5.287718E-06 -1.449558E-05 -6.097785E-15 -6.481880E-15 _shell_0000000113   
       113  16  1.577204E-04  9.000006E+00  1.336975E-06 -3.540109E-05 -1.523353E-14  7.318445E-15 _shell_0000000113   
       113  17  1.361400E-04  8.999939E+00 -5.919873E-06 -3.419230E-05 -1.767250E-14 -1.493681E-14 _shell_0000000113   
       113  18  1.006339E-04  8.999830E+00 -1.706386E-05 -3.405525E-05 -1.021811E-14 -2.791911E-14 _shell_0000000113   
       113  19  1.883296E-04  8.999982E+00 -2.464122E-05 -5.465002E-05  1.753034E-06  1.653292E-05 _shell_0000000113   
       113  20  2.052911E-04  9.000012E+00 -9.874182E-06 -2.431301E-05 -3.249641E-05 -4.679686E-05 _shell_0000000113   
       113  21  2.264255E-04  9.000018E+00  4.323549E-05  4.952253E-06 -6.674585E-05 -1.191759E-04 _shell_0000000113   
       113  22  1.657008E-04  8.999984E+00 -1.750343E-05 -4.718003E-05  4.441482E-06  1.070976E-05 _shell_0000000113   
       113  23  1.855112E-04  9.000013E+00  1.248274E-05 -2.338746E-05 -1.294679E-05 -2.494419E-05 _shell_0000000113   
       113  24  2.004452E-04  9.000009E+00  5.969665E-05 -6.666358E-07 -3.033507E-05 -6.964737E-05 _shell_0000000113   
       113  25  1.447942E-04  8.999987E+00 -8.370498E-06 -4.095985E-05  4.046534E-06  4.886592E-06 _shell_0000000113   
       113  26  1.612868E-04  9.000009E+00  2.244561E-05 -2.371171E-05  3.519430E-06 -3.091520E-06 _shell_0000000113   
       113  27  1.638537E-04  8.999988E+00  4.937458E-05 -7.535323E-06  2.992326E-06 -2.011887E-05 _shell_0000000113   
       114   1  3.451482E-04  9.000039E+00  1.056737E-04  3.758428E-05  4.203688E-05  6.586391E-05 _shell_0000000114   
       114   2  4.127885E-04  8.999773E+00  5.540663E-05  7.528463E-05 -1.619549E-04 -2.017054E-04 _shell_0000000114   
       114   3  3.165069E-04  8.999111E+00 -1.446227E-04  8.692366E-05 -3.659466E-04 -4.787913E-04 _shell_0000000114   
       114   4  2.025972E-04  8.999982E+00  5.738464E-05  2.982517E-05  3.867534E-05  4.263798E-05 _shell_0000000114   
       114   5  2.247314E-04  8.999722E+00 -3.714974E-05  4.440831E-05 -6.651680E-05 -1.068669E-04 _shell_0000000114   
       114   6  9.246040E-05  8.999075E+00 -2.592410E-04  3.293013E-05 -1.717089E-04 -2.658884E-04 _shell_0000000114   
       114   7  1.137831E-04  8.999945E+00  1.760429E-05  2.830548E-05  2.527163E-05  1.941206E-05 _shell_0000000114   
       114   8  1.104956E-04  8.999710E+00 -7.433395E-05  1.977141E-05  1.887910E-05 -1.202842E-05 _shell_0000000114   
       114   9 -3.768045E-05  8.999098E+00 -2.716238E-04 -1.482397E-05  1.248656E-05 -5.298546E-05 _shell_0000000114   
       114  10  4.967237E-05  8.999846E+00 -4.079074E-05 -8.478827E-05  2.321309E-15  2.482869E-14 _shell_0000000114   
       114  11  2.727299E-04  8.999943E+00  6.435954E-05  3.058049E-05  3.365635E-15  9.598275E-15 _shell_0000000114   
       114  12  3.318657E-04  8.999643E+00  1.974756E-05  1.198879E-04 -1.570072E-14  3.898617E-14 _shell_0000000114   
       114  13  4.304102E-05  8.999848E+00 -3.082850E-05 -4.074160E-05 -5.650237E-15  5.731371E-15 _shell_0000000114   
       114  14  2.205926E-04  8.999950E+00  3.005447E-05  5.150995E-05  1.413321E-15  5.133864E-17 _shell_0000000114   
       114  15  2.437389E-04  8.999666E+00 -3.661948E-05  1.177002E-04  8.998284E-16  1.957855E-14 _shell_0000000114   
       114  16  9.014664E-05  8.999869E+00 -1.235754E-05  9.544498E-06 -4.682389E-15 -1.874353E-14 _shell_0000000114   
       114  17  2.422766E-04  8.999997E+00  5.112157E-05  7.867884E-05  6.880983E-15  3.795227E-15 _shell_0000000114   
       114  18  2.495178E-04  8.999747E+00  9.249065E-06  1.217519E-04  6.291058E-15  2.041398E-14 _shell_0000000114   
       114  19  3.451482E-04  9.000039E+00  1.056737E-04  3.758428E-05 -4.203688E-05 -6.586391E-05 _shell_0000000114   
       114  20  4.127885E-04  8.999773E+00  5.540663E-05  7.528463E-05  1.619549E-04  2.017054E-04 _shell_0000000114   
       114  21  3.165069E-04  8.999111E+00 -1.446227E-04  8.692366E-05  3.659466E-04  4.787913E-04 _shell_0000000114   
       114  22  2.025972E-04  8.999982E+00  5.738464E-05  2.982517E-05 -3.867534E-05 -4.263798E-05 _shell_0000000114   
       114  23  2.247314E-04  8.999722E+00 -3.714974E-05  4.440831E-05  6.651680E-05  1.068669E-04 _shell_0000000114   
       114  24  9.246040E-05  8.999075E+00 -2.592410E-04  3.293013E-05  1.717089E-04  2.658884E-04 _shell_0000000114   
       114  25  1.137831E-04  8.999945E+00  1.760429E-05  2.830548E-05 -2.527163E-05 -1.941206E-05 _shell_0000000114   
       114  26  1.104956E-04  8.999710E+00 -7.433395E-05  1.977141E-05 -1.887910E-05  1.202842E-05 _shell_0000000114   
       114  27 -3.768045E-05  8.999098E+00 -2.716238E-04 -1.482397E-05 -1.248656E-05  5.298546E-05 _shell_0000000114   
       115   1 -7.608660E-04  8.998708E+00 -5.906085E-04 -6.986952E-04 -3.376100E-04 -4.680152E-04 _shell_0000000115   
       115   2 -3.298258E-04  8.999672E+00 -1.916347E-04 -2.936985E-04 -1.298025E-04 -1.470905E-04 _shell_0000000115   
       115   3 -8.983945E-05  9.000159E+00  4.806750E-05  3.513273E-05  7.800509E-05  1.748626E-04 _shell_0000000115   
       115   4 -3.329567E-04  8.998934E+00 -4.233466E-04 -4.654328E-04 -1.597568E-04 -2.639355E-04 _shell_0000000115   
       115   5 -7.272711E-05  8.999730E+00 -9.541424E-05 -2.122620E-04 -7.253586E-05 -9.139612E-05 _shell_0000000115   
       115   6 -4.579761E-06  9.000048E+00  7.084694E-05 -3.525684E-05  1.468503E-05  8.217161E-05 _shell_0000000115   
       115   7 -1.210241E-05  8.999133E+00 -2.385603E-04 -2.505781E-04  2.686239E-05 -5.985577E-05 _shell_0000000115   
       115   8  5.978472E-05  8.999744E+00 -2.257693E-05 -1.492334E-04 -6.503375E-06 -3.570179E-05 _shell_0000000115   
       115   9 -6.143873E-05  8.999874E+00  2.933573E-05 -1.240543E-04 -3.986914E-05 -1.051943E-05 _shell_0000000115   
       115  10 -2.054375E-04  8.999455E+00 -1.999744E-04 -4.282015E-04 -1.537227E-14  2.544023E-14 _shell_0000000115   
       115  11  3.894592E-05  8.999984E+00  1.234263E-05 -1.140303E-04  3.353577E-15 -1.850018E-14 _shell_0000000115   
       115  12  9.227546E-05  9.000035E+00  6.538801E-05  1.239752E-04 -2.002139E-14  2.223907E-14 _shell_0000000115   
       115  13  6.352701E-05  8.999613E+00 -1.008317E-04 -2.571579E-04 -2.800844E-15  9.004823E-15 _shell_0000000115   
       115  14  1.370998E-04  8.999973E+00  4.044385E-05 -9.481282E-05 -1.058791E-14 -1.541396E-14 _shell_0000000115   
       115  15  1.859029E-05  8.999855E+00  2.004822E-05 -8.633284E-06 -3.684072E-14  1.979229E-14 _shell_0000000115   
       115  16  2.254364E-04  8.999744E+00  1.583538E-05 -1.045222E-04 -5.696362E-17  1.322345E-14 _shell_0000000115   
       115  17  1.106667E-04  8.999919E+00  4.516193E-05 -9.400316E-05 -1.689991E-14 -7.199616E-15 _shell_0000000115   
       115  18 -1.972135E-04  8.999614E+00 -8.958222E-05 -1.596496E-04 -4.292355E-14  3.081086E-15 _shell_0000000115   
       115  19 -7.608660E-04  8.998708E+00 -5.906085E-04 -6.986952E-04  3.376100E-04  4.680152E-04 _shell_0000000115   
       115  20 -3.298258E-04  8.999672E+00 -1.916347E-04 -2.936985E-04  1.298025E-04  1.470905E-04 _shell_0000000115   
       115  21 -8.983945E-05  9.000159E+00  4.806750E-05  3.513273E-05 -7.800509E-05 -1.748626E-04 _shell_0000000115   
       115  22 -3.329567E-04  8.998934E+00 -4.233466E-04 -4.654328E-04  1.597568E-04  2.639355E-04 _shell_0000000115   
       115  23 -7.272711E-05  8.999730E+00 -9.541424E-05 -2.122620E-04  7.253586E-05  9.139612E-05 _shell_0000000115   
       115  24 -4.579761E-06  9.000048E+00  7.084694E-05 -3.525684E-05 -1.468503E-05 -8.217161E-05 _shell_0000000115   
       115  25 -1.210241E-05  8.999133E+00 -2.385603E-04 -2.505781E-04 -2.686239E-05  5.985577E-05 _shell_0000000115   
       115  26  5.978472E-05  8.999744E+00 -2.257693E-05 -1.492334E-04  6.503375E-06  3.570179E-05 _shell_0000000115   
       115  27 -6.143873E-05  8.999874E+00  2.933573E-05 -1.240543E-04  3.986914E-05  1.051943E-05 _shell_0000000115   
       201   1 -6.563753E-05  8.999840E+00  2.006782E-05  9.264771E-05  4.425739E-05 -1.000606E-05 _shell_0000000201   
       201   2  5.875946E-05  8.999677E+00 -2.047561E-05  1.364056E-04 -1.502535E-05 -7.354880E-06 _shell_0000000201   
       201   3  2.178636E-04  8.999571E+00 -2.531493E-06  1.293453E-04 -7.430809E-05  7.823571E-06 _shell_0000000201   
       201   4 -1.595083E-05  8.999764E+00  2.902552E-06  7.089984E-05  1.523551E-05 -4.838211E-06 _shell_0000000201   
       201   5  7.489627E-05  8.999668E+00  4.123651E-06  1.055104E-04 -1.252405E-05 -2.015547E-06 _shell_0000000201   
       201   6  1.879233E-04  8.999616E+00  3.460200E-05  8.930281E-05 -4.028361E-05  1.333439E-05 _shell_0000000201   
       201   7  1.557636E-05  8.999685E+00 -7.397294E-06  6.148856E-05 -6.359950E-06  3.296374E-07 _shell_0000000201   
       201   8  5.802071E-05  8.999640E+00  9.316697E-07  8.695180E-05 -2.596326E-06  3.323787E-06 _shell_0000000201   
       201   9  1.101177E-04  8.999628E+00  9.287581E-06  6.159687E-05  1.167299E-06  1.884521E-05 _shell_0000000201   
       201  10 -1.172764E-04  8.999845E+00  6.202793E-06  9.078840E-05  1.060234E-14  9.038155E-14 _shell_0000000201   
       201  11 -9.395925E-06  8.999644E+00 -5.085718E-05  1.534910E-04  9.423901E-15  3.528842E-15 _shell_0000000201   
       201  12  1.331917E-04  8.999499E+00 -4.942960E-05  1.653753E-04  2.736357E-15 -2.502862E-15 _shell_0000000201   
       201  13 -3.443652E-05  8.999784E+00  3.246023E-06  6.353502E-05  1.135150E-14  5.452261E-14 _shell_0000000201   
       201  14  3.989404E-05  8.999649E+00 -1.204942E-05  1.170903E-04  9.715814E-15 -5.090779E-17 _shell_0000000201   
       201  15  1.364045E-04  8.999558E+00  1.912385E-06  1.198273E-04  9.912718E-15 -7.364511E-15 _shell_0000000201   
       201  16  3.024383E-05  8.999719E+00  7.154672E-06  4.861822E-05  9.916779E-15  1.613134E-14 _shell_0000000201   
       201  17  5.617163E-05  8.999636E+00 -1.032905E-06  9.302613E-05  1.151761E-14  9.736076E-16 _shell_0000000201   
       201  18  9.175206E-05  8.999584E+00 -9.193534E-06  8.661586E-05  1.460331E-14 -2.490324E-14 _shell_0000000201   
       201  19 -6.563753E-05  8.999840E+00  2.006782E-05  9.264771E-05 -4.425739E-05  1.000606E-05 _shell_0000000201   
       201  20  5.875946E-05  8.999677E+00 -2.047561E-05  1.364056E-04  1.502535E-05  7.354880E-06 _shell_0000000201   
       201  21  2.178636E-04  8.999571E+00 -2.531493E-06  1.293453E-04  7.430809E-05 -7.823571E-06 _shell_0000000201   
       201  22 -1.595083E-05  8.999764E+00  2.902552E-06  7.089984E-05 -1.523551E-05  4.838211E-06 _shell_0000000201   
       201  23  7.489627E-05  8.999668E+00  4.123651E-06  1.055104E-04  1.252405E-05  2.015547E-06 _shell_0000000201   
       201  24  1.879233E-04  8.999616E+00  3.460200E-05  8.930281E-05  4.028361E-05 -1.333439E-05 _shell_0000000201   
       201  25  1.557636E-05  8.999685E+00 -7.397295E-06  6.148856E-05  6.359950E-06 -3.296374E-07 _shell_0000000201   
       201  26  5.802071E-05  8.999640E+00  9.316697E-07  8.695180E-05  2.596326E-06 -3.323787E-06 _shell_0000000201   
       201  27  1.101177E-04  8.999628E+00  9.287581E-06  6.159687E-05 -1.167299E-06 -1.884521E-05 _shell_0000000201   
       202   1  1.240916E-04  8.999551E+00 -5.316728E-05 -4.140231E-05 -5.338657E-05  8.994249E-06 _shell_0000000202   
       202   2  9.958673E-05  8.999737E+00 -5.235078E-05 -4.205351E-05 -3.419007E-05 -1.486815E-06 _shell_0000000202   
       202   3  7.677810E-05  8.999888E+00 -1.187444E-05 -3.099889E-05 -1.499357E-05  1.604109E-06 _shell_0000000202   
       202   4  1.344541E-04  8.999624E+00  7.195757E-06 -2.486894E-05 -2.014980E-05  1.352646E-05 _shell_0000000202   
       202   5  1.103180E-04  8.999773E+00 -4.924836E-06 -3.128961E-05 -1.181638E-05 -4.890602E-07 _shell_0000000202   
       202   6  7.430624E-05  8.999874E+00 -9.053565E-06 -2.600444E-05 -3.482960E-06 -9.325935E-07 _shell_0000000202   
       202   7  1.275399E-04  8.999677E+00  1.672661E-05 -1.464100E-05  7.007962E-06  1.805867E-05 _shell_0000000202   
       202   8  1.159307E-04  8.999802E+00  2.003764E-05 -2.683113E-05  4.478300E-06  5.086943E-07 _shell_0000000202   
       202   9  7.887379E-05  8.999865E+00 -3.274346E-07 -2.731542E-05  1.948638E-06 -3.469296E-06 _shell_0000000202   
       202  10  1.474213E-04  8.999522E+00 -5.491218E-05 -2.104007E-05  1.997980E-15 -4.706054E-15 _shell_0000000202   
       202  11  1.326180E-04  8.999730E+00 -4.439417E-05 -3.492808E-05  7.503044E-15 -1.398190E-14 _shell_0000000202   
       202  12  1.195109E-04  8.999904E+00  5.783678E-06 -3.711027E-05  5.336725E-15  4.023058E-14 _shell_0000000202   
       202  13  1.346194E-04  8.999585E+00 -4.476750E-06 -1.272869E-06  1.323643E-14 -5.747023E-15 _shell_0000000202   
       202  14  1.201848E-04  8.999757E+00 -6.895831E-06 -2.093034E-05  9.773457E-15 -8.195451E-15 _shell_0000000202   
       202  15  9.387458E-05  8.999881E+00 -1.323050E-06 -2.888198E-05  5.886107E-15  1.850597E-14 _shell_0000000202   
       202  16  1.045408E-04  8.999628E+00 -4.873502E-06  1.218891E-05  1.174592E-14 -2.846004E-14 _shell_0000000202   
       202  17  1.026331E-04  8.999775E+00  8.139042E-06 -1.323802E-05  6.077680E-15 -3.505883E-15 _shell_0000000202   
       202  18  7.527772E-05  8.999861E+00 -2.524524E-06 -2.695912E-05  4.063211E-15  1.050012E-14 _shell_0000000202   
       202  19  1.240916E-04  8.999551E+00 -5.316728E-05 -4.140231E-05  5.338657E-05 -8.994249E-06 _shell_0000000202   
       202  20  9.958673E-05  8.999737E+00 -5.235078E-05 -4.205351E-05  3.419007E-05  1.486815E-06 _shell_0000000202   
       202  21  7.677810E-05  8.999888E+00 -1.187444E-05 -3.099889E-05  1.499357E-05 -1.604109E-06 _shell_0000000202   
       202  22  1.344541E-04  8.999624E+00  7.195757E-06 -2.486894E-05  2.014980E-05 -1.352646E-05 _shell_0000000202   
       202  23  1.103180E-04  8.999773E+00 -4.924835E-06 -3.128961E-05  1.181638E-05  4.890602E-07 _shell_0000000202   
       202  24  7.430624E-05  8.999874E+00 -9.053565E-06 -2.600444E-05  3.482960E-06  9.325935E-07 _shell_0000000202   
       202  25  1.275399E-04  8.999677E+00  1.672661E-05 -1.464100E-05 -7.007962E-06 -1.805867E-05 _shell_0000000202   
       202  26  1.159307E-04  8.999802E+00  2.003764E-05 -2.683113E-05 -4.478300E-06 -5.086943E-07 _shell_0000000202   
       202  27  7.887379E-05  8.999865E+00 -3.274347E-07 -2.731542E-05 -1.948638E-06  3.469296E-06 _shell_0000000202   
       203   1  1.355018E-04  8.999962E+00  2.929115E-05  9.237761E-06  1.007010E-05  4.046059E-06 _shell_0000000203   
       203   2  1.355125E-04  8.999983E+00  1.152636E-05  2.461341E-05  6.261566E-06  1.077462E-06 _shell_0000000203   
       203   3  1.317610E-04  8.999989E+00 -3.768455E-06  3.825971E-05  2.453028E-06 -1.130067E-06 _shell_0000000203   
       203   4  9.625998E-05  8.999923E+00  3.781144E-06  3.400138E-06  3.971264E-06  1.038734E-06 _shell_0000000203   
       203   5  1.041897E-04  8.999963E+00  9.033700E-07  1.982383E-05  2.124500E-06 -1.269507E-08 _shell_0000000203   
       203   6  1.075961E-04  8.999987E+00 -1.280254E-06  3.451819E-05  2.777357E-07 -3.030557E-07 _shell_0000000203   
       203   7  6.800234E-05  8.999891E+00 -8.966345E-06 -9.869943E-08 -7.092833E-07 -1.968591E-06 _shell_0000000203   
       203   8  8.101449E-05  8.999947E+00 -3.575803E-06  1.737305E-05 -5.942739E-07 -1.102852E-06 _shell_0000000203   
       203   9  8.874226E-05  8.999986E+00  7.330641E-07  3.311545E-05 -4.792645E-07  5.239552E-07 _shell_0000000203   
       203  10  1.349448E-04  8.999964E+00  2.983770E-05  7.171717E-06  4.376955E-15  3.601669E-14 _shell_0000000203   
       203  11  1.339211E-04  8.999983E+00  1.103856E-05  2.373329E-05  7.948402E-15 -2.049764E-14 _shell_0000000203   
       203  12  1.291353E-04  8.999986E+00 -5.290594E-06  3.856552E-05  2.003018E-15  5.794399E-15 _shell_0000000203   
       203  13  9.777831E-05  8.999926E+00  5.217140E-06  9.893120E-07  3.693545E-15  1.705774E-14 _shell_0000000203   
       203  14  1.046737E-04  8.999964E+00  1.305022E-06  1.859894E-05  4.072274E-15 -1.384573E-14 _shell_0000000203   
       203  15  1.070458E-04  8.999985E+00 -1.912946E-06  3.447922E-05 -6.497567E-16  1.648377E-14 _shell_0000000203   
       203  16  7.159605E-05  8.999895E+00 -6.640902E-06 -2.854306E-06  4.696568E-15  6.566991E-16 _shell_0000000203   
       203  17  8.357385E-05  8.999949E+00 -2.284704E-06  1.580337E-05  7.065735E-16 -9.716229E-15 _shell_0000000203   
       203  18  9.026728E-05  8.999986E+00  9.898191E-07  3.273171E-05  9.097586E-16  1.192545E-14 _shell_0000000203   
       203  19  1.355018E-04  8.999962E+00  2.929115E-05  9.237761E-06 -1.007010E-05 -4.046059E-06 _shell_0000000203   
       203  20  1.355125E-04  8.999983E+00  1.152636E-05  2.461341E-05 -6.261566E-06 -1.077462E-06 _shell_0000000203   
       203  21  1.317610E-04  8.999989E+00 -3.768455E-06  3.825971E-05 -2.453028E-06  1.130067E-06 _shell_0000000203   
       203  22  9.625998E-05  8.999923E+00  3.781144E-06  3.400138E-06 -3.971264E-06 -1.038734E-06 _shell_0000000203   
       203  23  1.041897E-04  8.999963E+00  9.033700E-07  1.982383E-05 -2.124500E-06  1.269502E-08 _shell_0000000203   
       203  24  1.075961E-04  8.999987E+00 -1.280254E-06  3.451819E-05 -2.777357E-07  3.030558E-07 _shell_0000000203   
       203  25  6.800234E-05  8.999891E+00 -8.966345E-06 -9.869949E-08  7.092833E-07  1.968591E-06 _shell_0000000203   
       203  26  8.101449E-05  8.999947E+00 -3.575803E-06  1.737305E-05  5.942739E-07  1.102852E-06 _shell_0000000203   
       203  27  8.874226E-05  8.999986E+00  7.330641E-07  3.311545E-05  4.792645E-07 -5.239552E-07 _shell_0000000203   
       204   1  1.371008E-04  8.999994E+00 -4.234509E-06  4.293219E-05 -8.428409E-07 -1.350150E-06 _shell_0000000204   
       204   2  1.364895E-04  9.000003E+00 -2.195305E-06  4.130606E-05 -8.721519E-07 -4.815918E-07 _shell_0000000204   
       204   3  1.353164E-04  9.000009E+00  7.113072E-07  4.206005E-05 -9.014629E-07  2.453883E-07 _shell_0000000204   
       204   4  1.160158E-04  8.999997E+00  1.009507E-06  4.065659E-05 -1.659128E-07 -1.616117E-07 _shell_0000000204   
       204   5  1.169439E-04  9.000004E+00 -2.908758E-07  4.028987E-05 -1.770062E-07  3.216426E-08 _shell_0000000204   
       204   6  1.174519E-04  9.000008E+00 -3.935002E-07  4.230328E-05 -1.880996E-07  8.436206E-08 _shell_0000000204   
       204   7  9.610587E-05  8.999999E+00  2.982133E-06  3.813046E-05  1.640009E-08  1.026927E-06 _shell_0000000204   
       204   8  9.956265E-05  9.000005E+00  6.503691E-07  3.902316E-05  2.352426E-08  5.459203E-07 _shell_0000000204   
       204   9  1.027408E-04  9.000009E+00 -1.532874E-07  4.229598E-05  3.064841E-08 -7.666416E-08 _shell_0000000204   
       204  10  1.368733E-04  8.999992E+00 -4.842027E-06  4.214793E-05 -2.153675E-15  5.271019E-15 _shell_0000000204   
       204  11  1.366157E-04  9.000002E+00 -2.449069E-06  4.058855E-05  4.416486E-16 -1.632350E-14 _shell_0000000204   
       204  12  1.357963E-04  9.000009E+00  8.112979E-07  4.140930E-05  4.863496E-15  2.121811E-14 _shell_0000000204   
       204  13  1.159051E-04  8.999995E+00  4.520551E-07  3.999024E-05 -1.521045E-15  1.379747E-14 _shell_0000000204   
       204  14  1.171869E-04  9.000003E+00 -4.945732E-07  3.969028E-05  1.574988E-15 -8.982023E-15 _shell_0000000204   
       204  15  1.180486E-04  9.000008E+00 -2.434432E-07  4.177044E-05  4.033352E-15  1.869807E-14 _shell_0000000204   
       204  16  9.611196E-05  8.999997E+00  2.474748E-06  3.758203E-05  3.688967E-15  1.307711E-14 _shell_0000000204   
       204  17  9.992249E-05  9.000005E+00  4.967379E-07  3.854149E-05  8.002276E-15 -6.254733E-15 _shell_0000000204   
       204  18  1.034544E-04  9.000009E+00  4.683582E-08  4.188106E-05  9.614417E-15  8.845751E-15 _shell_0000000204   
       204  19  1.371008E-04  8.999994E+00 -4.234509E-06  4.293219E-05  8.428409E-07  1.350150E-06 _shell_0000000204   
       204  20  1.364895E-04  9.000003E+00 -2.195305E-06  4.130606E-05  8.721519E-07  4.815918E-07 _shell_0000000204   
       204  21  1.353164E-04  9.000009E+00  7.113072E-07  4.206005E-05  9.014629E-07 -2.453882E-07 _shell_0000000204   
       204  22  1.160158E-04  8.999997E+00  1.009507E-06  4.065659E-05  1.659128E-07  1.616118E-07 _shell_0000000204   
       204  23  1.169439E-04  9.000004E+00 -2.908758E-07  4.028987E-05  1.770062E-07 -3.216427E-08 _shell_0000000204   
       204  24  1.174519E-04  9.000008E+00 -3.935002E-07  4.230328E-05  1.880996E-07 -8.436202E-08 _shell_0000000204   
       204  25  9.610587E-05  8.999999E+00  2.982133E-06  3.813046E-05 -1.640009E-08 -1.026927E-06 _shell_0000000204   
       204  26  9.956265E-05  9.000005E+00  6.503691E-07  3.902316E-05 -2.352423E-08 -5.459203E-07 _shell_0000000204   
       204  27  1.027408E-04  9.000009E+00 -1.532874E-07  4.229598E-05 -3.064839E-08  7.666419E-08 _shell_0000000204   
       205   1  1.339044E-04  9.000010E+00  1.471938E-06  4.000935E-05 -6.990476E-08  3.681035E-07 _shell_0000000205   
       205   2  1.299114E-04  9.000010E+00  5.287410E-07  3.510400E-05  5.521260E-08  1.435367E-07 _shell_0000000205   
       205   3  1.258668E-04  9.000009E+00 -1.277933E-07  3.168935E-05  1.803300E-07 -9.758318E-08 _shell_0000000205   
       205   4  1.183468E-04  9.000010E+00  1.921590E-07  4.044916E-05 -3.989736E-08  6.322875E-08 _shell_0000000205   
       205   5  1.168711E-04  9.000011E+00 -9.514895E-08  3.582673E-05  3.041096E-09  1.910993E-08 _shell_0000000205   
       205   6  1.153604E-04  9.000011E+00 -5.717040E-08  3.269500E-05  4.597956E-08 -4.156194E-08 _shell_0000000205   
       205   7  1.037005E-04  9.000010E+00 -2.437586E-07  4.095119E-05  6.992900E-08 -2.416460E-07 _shell_0000000205   
       205   8  1.045824E-04  9.000012E+00 -2.476660E-07  3.661167E-05  3.068853E-08 -1.053168E-07 _shell_0000000205   
       205   9  1.054459E-04  9.000014E+00  1.123371E-07  3.376286E-05 -8.551921E-09  1.445928E-08 _shell_0000000205   
       205  10  1.341599E-04  9.000010E+00  1.538443E-06  3.976594E-05  8.970226E-15  2.156013E-14 _shell_0000000205   
       205  11  1.301903E-04  9.000010E+00  6.186572E-07  3.480516E-05  7.180407E-15 -4.921106E-15 _shell_0000000205   
       205  12  1.261691E-04  9.000009E+00 -1.446584E-08  3.133509E-05  4.942913E-15  2.920998E-14 _shell_0000000205   
       205  13  1.185053E-04  9.000010E+00  2.170937E-07  4.021355E-05  2.519731E-15  1.868172E-14 _shell_0000000205   
       205  14  1.170530E-04  9.000011E+00 -4.680290E-08  3.553570E-05  2.497287E-15  1.628913E-15 _shell_0000000205   
       205  15  1.155657E-04  9.000011E+00  1.458702E-08  3.234854E-05 -3.593375E-16  3.437878E-14 _shell_0000000205   
       205  16  1.037620E-04  9.000010E+00 -2.603940E-07  4.072338E-05  6.337464E-15  1.144821E-14 _shell_0000000205   
       205  17  1.046673E-04  9.000012E+00 -2.408900E-07  3.632844E-05  1.398321E-15  4.645269E-16 _shell_0000000205   
       205  18  1.055542E-04  9.000014E+00  1.425244E-07  3.342420E-05  1.600496E-15  2.055353E-14 _shell_0000000205   
       205  19  1.339044E-04  9.000010E+00  1.471938E-06  4.000935E-05  6.990478E-08 -3.681035E-07 _shell_0000000205   
       205  20  1.299114E-04  9.000010E+00  5.287411E-07  3.510400E-05 -5.521259E-08 -1.435367E-07 _shell_0000000205   
       205  21  1.258668E-04  9.000009E+00 -1.277933E-07  3.168935E-05 -1.803300E-07  9.758323E-08 _shell_0000000205   
       205  22  1.183468E-04  9.000010E+00  1.921590E-07  4.044916E-05  3.989737E-08 -6.322873E-08 _shell_0000000205   
       205  23  1.168711E-04  9.000011E+00 -9.514894E-08  3.582673E-05 -3.041094E-09 -1.910994E-08 _shell_0000000205   
       205  24  1.153604E-04  9.000011E+00 -5.717040E-08  3.269500E-05 -4.597955E-08  4.156201E-08 _shell_0000000205   
       205  25  1.037005E-04  9.000010E+00 -2.437587E-07  4.095119E-05 -6.992899E-08  2.416460E-07 _shell_0000000205   
       205  26  1.045824E-04  9.000012E+00 -2.476660E-07  3.661167E-05 -3.068854E-08  1.053168E-07 _shell_0000000205   
       205  27  1.054459E-04  9.000014E+00  1.123370E-07  3.376286E-05  8.551918E-09 -1.445922E-08 _shell_0000000205   
       206   1  1.230271E-04  9.000008E+00 -4.054115E-07  2.832727E-05  1.215789E-07 -1.301507E-07 _shell_0000000206   
       206   2  1.195180E-04  9.000008E+00 -5.575212E-08  2.290686E-05  1.086129E-08 -2.208024E-08 _shell_0000000206   
       206   3  1.158270E-04  9.000008E+00  6.341879E-08  1.870169E-05 -9.985631E-08  3.670087E-08 _shell_0000000206   
       206   4  1.141898E-04  9.000011E+00 -4.685795E-09  2.953253E-05  5.551023E-08 -3.802736E-08 _shell_0000000206   
       206   5  1.120750E-04  9.000011E+00  5.044109E-08  2.400954E-05  1.106193E-08  1.365993E-08 _shell_0000000206   
       206   6  1.098277E-04  9.000010E+00 -9.911672E-09  1.970179E-05 -3.338637E-08  1.605782E-08 _shell_0000000206   
       206   7  1.051505E-04  9.000014E+00  1.049409E-07  3.061209E-05 -4.551962E-08  5.409601E-08 _shell_0000000206   
       206   8  1.045000E-04  9.000013E+00  2.868741E-08  2.498653E-05 -2.369860E-08  4.940008E-08 _shell_0000000206   
       206   9  1.037662E-04  9.000013E+00 -4.803687E-08  2.057620E-05 -1.877595E-09 -4.585259E-09 _shell_0000000206   
       206  10  1.228407E-04  9.000008E+00 -4.950925E-07  2.802947E-05  2.115514E-15  2.665047E-14 _shell_0000000206   
       206  11  1.193469E-04  9.000008E+00 -1.302017E-07  2.267725E-05  5.239240E-16 -2.579549E-15 _shell_0000000206   
       206  12  1.156711E-04  9.000008E+00  4.200801E-09  1.854026E-05  4.615713E-15  3.239143E-14 _shell_0000000206   
       206  13  1.141227E-04  9.000011E+00 -4.322770E-08  2.923980E-05  4.072339E-16  3.171789E-14 _shell_0000000206   
       206  14  1.120232E-04  9.000011E+00  2.713070E-08  2.378500E-05 -1.018068E-15  1.651914E-15 _shell_0000000206   
       206  15  1.097911E-04  9.000010E+00 -1.799053E-08  1.954544E-05  1.804054E-15  3.743299E-14 _shell_0000000206   
       206  16  1.052027E-04  9.000014E+00  1.175381E-07  3.032444E-05  1.784635E-15  1.714939E-14 _shell_0000000206   
       206  17  1.045675E-04  9.000013E+00  5.651616E-08  2.476707E-05  3.799853E-15 -3.302327E-15 _shell_0000000206   
       206  18  1.038489E-04  9.000013E+00 -4.976612E-09  2.042493E-05  4.839545E-15  4.183115E-14 _shell_0000000206   
       206  19  1.230271E-04  9.000008E+00 -4.054114E-07  2.832727E-05 -1.215789E-07  1.301508E-07 _shell_0000000206   
       206  20  1.195180E-04  9.000008E+00 -5.575208E-08  2.290686E-05 -1.086129E-08  2.208021E-08 _shell_0000000206   
       206  21  1.158270E-04  9.000008E+00  6.341883E-08  1.870169E-05  9.985631E-08 -3.670079E-08 _shell_0000000206   
       206  22  1.141898E-04  9.000011E+00 -4.685812E-09  2.953253E-05 -5.551023E-08  3.802743E-08 _shell_0000000206   
       206  23  1.120750E-04  9.000011E+00  5.044111E-08  2.400954E-05 -1.106193E-08 -1.365994E-08 _shell_0000000206   
       206  24  1.098277E-04  9.000010E+00 -9.911648E-09  1.970179E-05  3.338636E-08 -1.605774E-08 _shell_0000000206   
       206  25  1.051505E-04  9.000014E+00  1.049408E-07  3.061209E-05  4.551962E-08 -5.409598E-08 _shell_0000000206   
       206  26  1.045000E-04  9.000013E+00  2.868743E-08  2.498653E-05  2.369861E-08 -4.940008E-08 _shell_0000000206   
       206  27  1.037662E-04  9.000013E+00 -4.803685E-08  2.057620E-05  1.877600E-09  4.585338E-09 _shell_0000000206   
       207   1  1.140908E-04  9.000008E+00  4.708504E-08  1.573950E-05  7.479504E-09  4.089182E-08 _shell_0000000207   
       207   2  1.121337E-04  9.000007E+00  5.309530E-08  1.104369E-05 -1.262185E-08  2.701679E-08 _shell_0000000207   
       207   3  1.101229E-04  9.000007E+00 -4.693643E-08  6.901656E-06 -3.272319E-08  1.110885E-08 _shell_0000000207   
       207   4  1.088584E-04  9.000010E+00  6.805139E-09  1.661554E-05  1.325361E-08  7.159110E-09 _shell_0000000207   
       207   5  1.076323E-04  9.000010E+00  5.034472E-08  1.168893E-05 -5.859814E-09  4.684873E-09 _shell_0000000207   
       207   6  1.063546E-04  9.000009E+00 -7.414157E-09  7.316095E-06 -2.497323E-08  1.777102E-10 _shell_0000000207   
       207   7  1.032816E-04  9.000012E+00 -8.374161E-08  1.744717E-05  2.198828E-08 -2.657360E-08 _shell_0000000207   
       207   8  1.027807E-04  9.000012E+00 -1.648864E-08  1.228975E-05  3.862786E-09 -1.764708E-08 _shell_0000000207   
       207   9  1.022301E-04  9.000011E+00 -4.579055E-08  7.686119E-06 -1.426272E-08 -1.075343E-08 _shell_0000000207   
       207  10  1.140582E-04  9.000008E+00  4.427011E-08  1.566075E-05  8.001545E-15  4.355041E-14 _shell_0000000207   
       207  11  1.121072E-04  9.000007E+00  5.644500E-08  1.096644E-05  9.222363E-15  2.215952E-14 _shell_0000000207   
       207  12  1.101026E-04  9.000007E+00 -3.742209E-08  6.825909E-06  1.070541E-14  3.422396E-14 _shell_0000000207   
       207  13  1.088284E-04  9.000010E+00  5.117688E-09  1.653884E-05  2.233712E-15  4.312026E-14 _shell_0000000207   
       207  14  1.076085E-04  9.000010E+00  5.482190E-08  1.161373E-05  4.287971E-15  1.053700E-14 _shell_0000000207   
       207  15  1.063370E-04  9.000009E+00  3.227673E-09  7.242403E-06  3.593224E-15  3.580163E-14 _shell_0000000207   
       207  16  1.032542E-04  9.000012E+00 -8.430159E-08  1.737252E-05  3.528081E-15  4.158303E-14 _shell_0000000207   
       207  17  1.027595E-04  9.000012E+00 -1.088402E-08  1.221661E-05 -1.805563E-15  5.351256E-15 _shell_0000000207   
       207  18  1.022151E-04  9.000011E+00 -3.402128E-08  7.614482E-06 -2.042122E-15  3.159956E-14 _shell_0000000207   
       207  19  1.140908E-04  9.000008E+00  4.708503E-08  1.573950E-05 -7.479491E-09 -4.089174E-08 _shell_0000000207   
       207  20  1.121337E-04  9.000007E+00  5.309527E-08  1.104369E-05  1.262186E-08 -2.701677E-08 _shell_0000000207   
       207  21  1.101229E-04  9.000007E+00 -4.693644E-08  6.901656E-06  3.272321E-08 -1.110879E-08 _shell_0000000207   
       207  22  1.088584E-04  9.000010E+00  6.805137E-09  1.661554E-05 -1.325361E-08 -7.159031E-09 _shell_0000000207   
       207  23  1.076323E-04  9.000010E+00  5.034469E-08  1.168893E-05  5.859811E-09 -4.684845E-09 _shell_0000000207   
       207  24  1.063546E-04  9.000009E+00 -7.414157E-09  7.316095E-06  2.497324E-08 -1.776282E-10 _shell_0000000207   
       207  25  1.032816E-04  9.000012E+00 -8.374164E-08  1.744717E-05 -2.198827E-08  2.657369E-08 _shell_0000000207   
       207  26  1.027807E-04  9.000012E+00 -1.648869E-08  1.228975E-05 -3.862778E-09  1.764708E-08 _shell_0000000207   
       207  27  1.022301E-04  9.000011E+00 -4.579059E-08  7.686119E-06  1.426272E-08  1.075351E-08 _shell_0000000207   
       208   1  1.095222E-04  9.000007E+00 -5.775121E-08  4.222434E-06  6.836793E-08  8.270657E-09 _shell_0000000208   
       208   2  1.095533E-04  9.000007E+00  1.640064E-08  1.435477E-14  3.665046E-15  1.152980E-08 _shell_0000000208   
       208   3  1.095222E-04  9.000007E+00 -5.775132E-08 -4.222434E-06 -6.836792E-08  8.270498E-09 _shell_0000000208   
       208   4  1.059867E-04  9.000009E+00 -9.927223E-10  4.483395E-06  3.866902E-08  6.570897E-10 _shell_0000000208   
       208   5  1.060146E-04  9.000009E+00  6.555436E-08  9.773457E-15 -2.182484E-15  3.916239E-09 _shell_0000000208   
       208   6  1.059867E-04  9.000009E+00 -9.927872E-10 -4.483395E-06 -3.866902E-08  6.569755E-10 _shell_0000000208   
       208   7  1.020307E-04  9.000011E+00 -5.298798E-08  4.744357E-06  8.970109E-09 -6.956494E-09 _shell_0000000208   
       208   8  1.020553E-04  9.000011E+00  5.954279E-09 -1.198776E-14  4.867640E-16 -3.697336E-09 _shell_0000000208   
       208   9  1.020307E-04  9.000011E+00 -5.298803E-08 -4.744357E-06 -8.970112E-09 -6.956597E-09 _shell_0000000208   
       208  10  1.094237E-04  9.000007E+00 -8.071871E-08  4.197715E-06  5.618788E-15  3.846007E-14 _shell_0000000208   
       208  11  1.094548E-04  9.000007E+00 -6.566816E-09 -2.901495E-14 -1.736313E-16  8.924622E-15 _shell_0000000208   
       208  12  1.094237E-04  9.000007E+00 -8.071873E-08 -4.197715E-06  2.617106E-15 -3.342669E-14 _shell_0000000208   
       208  13  1.059315E-04  9.000009E+00 -5.421266E-09  4.458677E-06  2.443365E-15  4.800699E-14 _shell_0000000208   
       208  14  1.059594E-04  9.000009E+00  6.112581E-08 -1.700174E-14  1.628910E-15  1.628910E-14 _shell_0000000208   
       208  15  1.059315E-04  9.000009E+00 -5.421292E-09 -4.458677E-06  1.832523E-15 -2.037274E-14 _shell_0000000208   
       208  16  1.020188E-04  9.000011E+00 -3.887762E-08  4.719638E-06  2.166417E-15  4.504447E-14 _shell_0000000208   
       208  17  1.020434E-04  9.000011E+00  2.006465E-08 -2.229570E-14  8.107243E-15  1.044160E-14 _shell_0000000208   
       208  18  1.020188E-04  9.000011E+00 -3.887765E-08 -4.719638E-06  4.326849E-15 -1.581697E-14 _shell_0000000208   
       208  19  1.095222E-04  9.000007E+00 -5.775119E-08  4.222434E-06 -6.836793E-08 -8.270591E-09 _shell_0000000208   
       208  20  1.095533E-04  9.000007E+00  1.640070E-08 -4.540585E-14 -5.472118E-15 -1.152979E-08 _shell_0000000208   
       208  21  1.095222E-04  9.000007E+00 -5.775119E-08 -4.222434E-06  6.836793E-08 -8.270569E-09 _shell_0000000208   
       208  22  1.059867E-04  9.000009E+00 -9.927095E-10  4.483395E-06 -3.866901E-08 -6.569984E-10 _shell_0000000208   
       208  23  1.060146E-04  9.000009E+00  6.555437E-08 -2.741149E-14 -1.883427E-15 -3.916210E-09 _shell_0000000208   
       208  24  1.059867E-04  9.000009E+00 -9.927379E-10 -4.483395E-06  3.866901E-08 -6.570162E-10 _shell_0000000208   
       208  25  1.020307E-04  9.000011E+00 -5.298799E-08  4.744357E-06 -8.970106E-09  6.956592E-09 _shell_0000000208   
       208  26  1.020553E-04  9.000011E+00  5.954269E-09 -3.988283E-14  4.352243E-15  3.697357E-09 _shell_0000000208   
       208  27  1.020307E-04  9.000011E+00 -5.298808E-08 -4.744357E-06  8.970111E-09  6.956554E-09 _shell_0000000208   
       209   1  1.101229E-04  9.000007E+00 -4.693651E-08 -6.901656E-06  3.272319E-08  1.110870E-08 _shell_0000000209   
       209   2  1.121337E-04  9.000007E+00  5.309530E-08 -1.104369E-05  1.262185E-08  2.701676E-08 _shell_0000000209   
       209   3  1.140908E-04  9.000008E+00  4.708507E-08 -1.573950E-05 -7.479499E-09  4.089187E-08 _shell_0000000209   
       209   4  1.063546E-04  9.000009E+00 -7.414219E-09 -7.316095E-06  2.497324E-08  1.776014E-10 _shell_0000000209   
       209   5  1.076323E-04  9.000010E+00  5.034470E-08 -1.168893E-05  5.859813E-09  4.684854E-09 _shell_0000000209   
       209   6  1.088584E-04  9.000010E+00  6.805121E-09 -1.661554E-05 -1.325362E-08  7.159151E-09 _shell_0000000209   
       209   7  1.022301E-04  9.000011E+00 -4.579060E-08 -7.686119E-06  1.426273E-08 -1.075353E-08 _shell_0000000209   
       209   8  1.027807E-04  9.000012E+00 -1.648869E-08 -1.228975E-05 -3.862775E-09 -1.764708E-08 _shell_0000000209   
       209   9  1.032816E-04  9.000012E+00 -8.374163E-08 -1.744717E-05 -2.198829E-08 -2.657357E-08 _shell_0000000209   
       209  10  1.101026E-04  9.000007E+00 -3.742210E-08 -6.825909E-06  3.404489E-15 -3.809868E-14 _shell_0000000209   
       209  11  1.121072E-04  9.000007E+00  5.644504E-08 -1.096644E-05  6.267159E-15  3.223441E-15 _shell_0000000209   
       209  12  1.140582E-04  9.000008E+00  4.427014E-08 -1.566075E-05  2.986800E-15  4.280118E-14 _shell_0000000209   
       209  13  1.063370E-04  9.000009E+00  3.227647E-09 -7.242403E-06  3.442391E-16 -2.366503E-14 _shell_0000000209   
       209  14  1.076085E-04  9.000010E+00  5.482189E-08 -1.161373E-05  7.126479E-16  8.653582E-16 _shell_0000000209   
       209  15  1.088284E-04  9.000010E+00  5.117689E-09 -1.653884E-05 -8.720445E-16  3.847161E-14 _shell_0000000209   
       209  16  1.022151E-04  9.000011E+00 -3.402131E-08 -7.614482E-06  3.817769E-16 -1.950107E-14 _shell_0000000209   
       209  17  1.027595E-04  9.000012E+00 -1.088404E-08 -1.221661E-05 -2.004639E-15  6.369327E-15 _shell_0000000209   
       209  18  1.032542E-04  9.000012E+00 -8.430161E-08 -1.737252E-05 -6.120382E-15  5.007751E-14 _shell_0000000209   
       209  19  1.101229E-04  9.000007E+00 -4.693644E-08 -6.901656E-06 -3.272318E-08 -1.110877E-08 _shell_0000000209   
       209  20  1.121337E-04  9.000007E+00  5.309531E-08 -1.104369E-05 -1.262185E-08 -2.701676E-08 _shell_0000000209   
       209  21  1.140908E-04  9.000008E+00  4.708504E-08 -1.573950E-05  7.479495E-09 -4.089179E-08 _shell_0000000209   
       209  22  1.063546E-04  9.000009E+00 -7.414175E-09 -7.316095E-06 -2.497323E-08 -1.776487E-10 _shell_0000000209   
       209  23  1.076323E-04  9.000010E+00  5.034470E-08 -1.168893E-05 -5.859817E-09 -4.684834E-09 _shell_0000000209   
       209  24  1.088584E-04  9.000010E+00  6.805145E-09 -1.661554E-05  1.325362E-08 -7.159061E-09 _shell_0000000209   
       209  25  1.022301E-04  9.000011E+00 -4.579062E-08 -7.686119E-06 -1.426273E-08  1.075349E-08 _shell_0000000209   
       209  26  1.027807E-04  9.000012E+00 -1.648868E-08 -1.228975E-05  3.862762E-09  1.764710E-08 _shell_0000000209   
       209  27  1.032816E-04  9.000012E+00 -8.374159E-08 -1.744717E-05  2.198828E-08  2.657368E-08 _shell_0000000209   
       210   1  1.158270E-04  9.000008E+00  6.341882E-08 -1.870169E-05  9.985630E-08  3.670094E-08 _shell_0000000210   
       210   2  1.195180E-04  9.000008E+00 -5.575213E-08 -2.290686E-05 -1.086128E-08 -2.208020E-08 _shell_0000000210   
       210   3  1.230271E-04  9.000008E+00 -4.054115E-07 -2.832727E-05 -1.215789E-07 -1.301507E-07 _shell_0000000210   
       210   4  1.098277E-04  9.000010E+00 -9.911691E-09 -1.970179E-05  3.338636E-08  1.605783E-08 _shell_0000000210   
       210   5  1.120750E-04  9.000011E+00  5.044109E-08 -2.400954E-05 -1.106193E-08  1.365993E-08 _shell_0000000210   
       210   6  1.141898E-04  9.000011E+00 -4.685810E-09 -2.953253E-05 -5.551023E-08 -3.802735E-08 _shell_0000000210   
       210   7  1.037662E-04  9.000013E+00 -4.803686E-08 -2.057620E-05  1.877571E-09 -4.585235E-09 _shell_0000000210   
       210   8  1.045000E-04  9.000013E+00  2.868744E-08 -2.498653E-05  2.369859E-08  4.940010E-08 _shell_0000000210   
       210   9  1.051505E-04  9.000014E+00  1.049409E-07 -3.061209E-05  4.551962E-08  5.409602E-08 _shell_0000000210   
       210  10  1.156711E-04  9.000008E+00  4.200803E-09 -1.854026E-05  1.033339E-14  3.642393E-14 _shell_0000000210   
       210  11  1.193469E-04  9.000008E+00 -1.302017E-07 -2.267725E-05  2.475717E-14  4.954159E-15 _shell_0000000210   
       210  12  1.228407E-04  9.000008E+00 -4.950925E-07 -2.802947E-05  1.143752E-14  4.178311E-14 _shell_0000000210   
       210  13  1.097911E-04  9.000010E+00 -1.799055E-08 -1.954544E-05  3.422606E-15  3.171790E-14 _shell_0000000210   
       210  14  1.120232E-04  9.000011E+00  2.713070E-08 -2.378500E-05  8.348161E-15  5.752087E-15 _shell_0000000210   
       210  15  1.141227E-04  9.000011E+00 -4.322770E-08 -2.923980E-05  5.792634E-15  4.741251E-14 _shell_0000000210   
       210  16  1.038489E-04  9.000013E+00 -4.976555E-09 -2.042493E-05 -7.571880E-15  4.239749E-14 _shell_0000000210   
       210  17  1.045675E-04  9.000013E+00  5.651618E-08 -2.476707E-05 -5.129153E-15 -2.386060E-15 _shell_0000000210   
       210  18  1.052027E-04  9.000014E+00  1.175381E-07 -3.032444E-05 -4.571489E-15  3.786069E-14 _shell_0000000210   
       210  19  1.158270E-04  9.000008E+00  6.341880E-08 -1.870169E-05 -9.985628E-08 -3.670086E-08 _shell_0000000210   
       210  20  1.195180E-04  9.000008E+00 -5.575210E-08 -2.290686E-05  1.086133E-08  2.208022E-08 _shell_0000000210   
       210  21  1.230271E-04  9.000008E+00 -4.054115E-07 -2.832727E-05  1.215789E-07  1.301508E-07 _shell_0000000210   
       210  22  1.098277E-04  9.000010E+00 -9.911654E-09 -1.970179E-05 -3.338635E-08 -1.605778E-08 _shell_0000000210   
       210  23  1.120750E-04  9.000011E+00  5.044108E-08 -2.400954E-05  1.106194E-08 -1.365995E-08 _shell_0000000210   
       210  24  1.141898E-04  9.000011E+00 -4.685828E-09 -2.953253E-05  5.551024E-08  3.802745E-08 _shell_0000000210   
       210  25  1.037662E-04  9.000013E+00 -4.803682E-08 -2.057620E-05 -1.877587E-09  4.585330E-09 _shell_0000000210   
       210  26  1.045000E-04  9.000013E+00  2.868743E-08 -2.498653E-05 -2.369861E-08 -4.940010E-08 _shell_0000000210   
       210  27  1.051505E-04  9.000014E+00  1.049408E-07 -3.061209E-05 -4.551963E-08 -5.409594E-08 _shell_0000000210   
       211   1  1.258668E-04  9.000009E+00 -1.277934E-07 -3.168935E-05 -1.803300E-07 -9.758319E-08 _shell_0000000211   
       211   2  1.299114E-04  9.000010E+00  5.287410E-07 -3.510400E-05 -5.521262E-08  1.435367E-07 _shell_0000000211   
       211   3  1.339044E-04  9.000010E+00  1.471938E-06 -4.000935E-05  6.990476E-08  3.681035E-07 _shell_0000000211   
       211   4  1.153604E-04  9.000011E+00 -5.717036E-08 -3.269500E-05 -4.597955E-08 -4.156196E-08 _shell_0000000211   
       211   5  1.168711E-04  9.000011E+00 -9.514892E-08 -3.582673E-05 -3.041110E-09  1.910992E-08 _shell_0000000211   
       211   6  1.183468E-04  9.000010E+00  1.921590E-07 -4.044916E-05  3.989736E-08  6.322876E-08 _shell_0000000211   
       211   7  1.054459E-04  9.000014E+00  1.123372E-07 -3.376286E-05  8.551930E-09  1.445925E-08 _shell_0000000211   
       211   8  1.045824E-04  9.000012E+00 -2.476660E-07 -3.661167E-05 -3.068855E-08 -1.053168E-07 _shell_0000000211   
       211   9  1.037005E-04  9.000010E+00 -2.437586E-07 -4.095119E-05 -6.992901E-08 -2.416460E-07 _shell_0000000211   
       211  10  1.261691E-04  9.000009E+00 -1.446585E-08 -3.133509E-05  3.556544E-15  4.151427E-14 _shell_0000000211   
       211  11  1.301903E-04  9.000010E+00  6.186572E-07 -3.480516E-05 -5.508939E-16 -1.072411E-14 _shell_0000000211   
       211  12  1.341599E-04  9.000010E+00  1.538443E-06 -3.976594E-05 -8.047482E-16 -3.307036E-14 _shell_0000000211   
       211  13  1.155657E-04  9.000011E+00  1.458702E-08 -3.234854E-05  3.397147E-15  5.123934E-14 _shell_0000000211   
       211  14  1.170530E-04  9.000011E+00 -4.680288E-08 -3.553570E-05 -2.036137E-16 -7.330093E-15 _shell_0000000211   
       211  15  1.185053E-04  9.000010E+00  2.170937E-07 -4.021355E-05  2.605123E-15 -1.102708E-14 _shell_0000000211   
       211  16  1.055542E-04  9.000014E+00  1.425244E-07 -3.342420E-05 -1.851924E-15  3.180957E-14 _shell_0000000211   
       211  17  1.046673E-04  9.000012E+00 -2.408900E-07 -3.632844E-05  6.318080E-15 -2.203479E-14 _shell_0000000211   
       211  18  1.037620E-04  9.000010E+00 -2.603940E-07 -4.072338E-05  7.444738E-15  7.904008E-15 _shell_0000000211   
       211  19  1.258668E-04  9.000009E+00 -1.277933E-07 -3.168935E-05  1.803300E-07  9.758329E-08 _shell_0000000211   
       211  20  1.299114E-04  9.000010E+00  5.287411E-07 -3.510400E-05  5.521262E-08 -1.435367E-07 _shell_0000000211   
       211  21  1.339044E-04  9.000010E+00  1.471938E-06 -4.000935E-05 -6.990476E-08 -3.681035E-07 _shell_0000000211   
       211  22  1.153604E-04  9.000011E+00 -5.717041E-08 -3.269500E-05  4.597957E-08  4.156204E-08 _shell_0000000211   
       211  23  1.168711E-04  9.000011E+00 -9.514895E-08 -3.582673E-05  3.041113E-09 -1.910995E-08 _shell_0000000211   
       211  24  1.183468E-04  9.000010E+00  1.921590E-07 -4.044916E-05 -3.989734E-08 -6.322876E-08 _shell_0000000211   
       211  25  1.054459E-04  9.000014E+00  1.123370E-07 -3.376286E-05 -8.551934E-09 -1.445920E-08 _shell_0000000211   
       211  26  1.045824E-04  9.000012E+00 -2.476660E-07 -3.661167E-05  3.068856E-08  1.053168E-07 _shell_0000000211   
       211  27  1.037005E-04  9.000010E+00 -2.437586E-07 -4.095119E-05  6.992903E-08  2.416460E-07 _shell_0000000211   
       212   1  1.353164E-04  9.000009E+00  7.113071E-07 -4.206005E-05  9.014629E-07  2.453882E-07 _shell_0000000212   
       212   2  1.364895E-04  9.000003E+00 -2.195305E-06 -4.130606E-05  8.721519E-07 -4.815918E-07 _shell_0000000212   
       212   3  1.371008E-04  8.999994E+00 -4.234509E-06 -4.293219E-05  8.428409E-07 -1.350150E-06 _shell_0000000212   
       212   4  1.174519E-04  9.000008E+00 -3.935002E-07 -4.230328E-05  1.880996E-07  8.436204E-08 _shell_0000000212   
       212   5  1.169439E-04  9.000004E+00 -2.908758E-07 -4.028987E-05  1.770062E-07  3.216428E-08 _shell_0000000212   
       212   6  1.160158E-04  8.999997E+00  1.009507E-06 -4.065659E-05  1.659128E-07 -1.616117E-07 _shell_0000000212   
       212   7  1.027408E-04  9.000009E+00 -1.532874E-07 -4.229598E-05 -3.064845E-08 -7.666415E-08 _shell_0000000212   
       212   8  9.956265E-05  9.000005E+00  6.503691E-07 -3.902316E-05 -2.352429E-08  5.459203E-07 _shell_0000000212   
       212   9  9.610587E-05  8.999999E+00  2.982133E-06 -3.813046E-05 -1.640009E-08  1.026927E-06 _shell_0000000212   
       212  10  1.357963E-04  9.000009E+00  8.112979E-07 -4.140930E-05  1.138625E-15 -2.527105E-14 _shell_0000000212   
       212  11  1.366157E-04  9.000002E+00 -2.449069E-06 -4.058855E-05 -5.659338E-15 -2.986732E-15 _shell_0000000212   
       212  12  1.368733E-04  8.999992E+00 -4.842027E-06 -4.214793E-05 -1.295860E-14  1.681494E-14 _shell_0000000212   
       212  13  1.180486E-04  9.000008E+00 -2.434432E-07 -4.177044E-05  1.296720E-15 -4.092787E-15 _shell_0000000212   
       212  14  1.171869E-04  9.000003E+00 -4.945732E-07 -3.969028E-05 -1.058791E-14  1.628910E-15 _shell_0000000212   
       212  15  1.159051E-04  8.999995E+00  4.520552E-07 -3.999024E-05 -1.423658E-14  1.480646E-14 _shell_0000000212   
       212  16  1.034544E-04  9.000009E+00  4.683585E-08 -4.188106E-05 -3.283257E-15  1.714939E-14 _shell_0000000212   
       212  17  9.992249E-05  9.000005E+00  4.967379E-07 -3.854149E-05 -1.532493E-14 -2.589661E-15 _shell_0000000212   
       212  18  9.611196E-05  8.999997E+00  2.474748E-06 -3.758203E-05 -1.049506E-14  6.046028E-15 _shell_0000000212   
       212  19  1.353164E-04  9.000009E+00  7.113073E-07 -4.206005E-05 -9.014629E-07 -2.453883E-07 _shell_0000000212   
       212  20  1.364895E-04  9.000003E+00 -2.195305E-06 -4.130606E-05 -8.721519E-07  4.815917E-07 _shell_0000000212   
       212  21  1.371008E-04  8.999994E+00 -4.234509E-06 -4.293219E-05 -8.428410E-07  1.350150E-06 _shell_0000000212   
       212  22  1.174519E-04  9.000008E+00 -3.935001E-07 -4.230328E-05 -1.880996E-07 -8.436205E-08 _shell_0000000212   
       212  23  1.169439E-04  9.000004E+00 -2.908758E-07 -4.028987E-05 -1.770062E-07 -3.216428E-08 _shell_0000000212   
       212  24  1.160158E-04  8.999997E+00  1.009507E-06 -4.065659E-05 -1.659128E-07  1.616118E-07 _shell_0000000212   
       212  25  1.027408E-04  9.000009E+00 -1.532873E-07 -4.229598E-05  3.064845E-08  7.666418E-08 _shell_0000000212   
       212  26  9.956265E-05  9.000005E+00  6.503691E-07 -3.902316E-05  2.352424E-08 -5.459203E-07 _shell_0000000212   
       212  27  9.610587E-05  8.999999E+00  2.982133E-06 -3.813046E-05  1.640006E-08 -1.026927E-06 _shell_0000000212   
       213   1  1.317610E-04  8.999989E+00 -3.768455E-06 -3.825971E-05 -2.453029E-06 -1.130067E-06 _shell_0000000213   
       213   2  1.355125E-04  8.999983E+00  1.152636E-05 -2.461341E-05 -6.261566E-06  1.077462E-06 _shell_0000000213   
       213   3  1.355018E-04  8.999962E+00  2.929115E-05 -9.237761E-06 -1.007010E-05  4.046059E-06 _shell_0000000213   
       213   4  1.075961E-04  8.999987E+00 -1.280254E-06 -3.451819E-05 -2.777358E-07 -3.030557E-07 _shell_0000000213   
       213   5  1.041897E-04  8.999963E+00  9.033700E-07 -1.982383E-05 -2.124500E-06 -1.269504E-08 _shell_0000000213   
       213   6  9.625998E-05  8.999923E+00  3.781144E-06 -3.400137E-06 -3.971264E-06  1.038734E-06 _shell_0000000213   
       213   7  8.874226E-05  8.999986E+00  7.330642E-07 -3.311545E-05  4.792645E-07  5.239552E-07 _shell_0000000213   
       213   8  8.101449E-05  8.999947E+00 -3.575803E-06 -1.737305E-05  5.942739E-07 -1.102852E-06 _shell_0000000213   
       213   9  6.800234E-05  8.999891E+00 -8.966345E-06  9.869960E-08  7.092833E-07 -1.968591E-06 _shell_0000000213   
       213  10  1.291353E-04  8.999986E+00 -5.290594E-06 -3.856552E-05 -1.704663E-14  1.769138E-14 _shell_0000000213   
       213  11  1.339211E-04  8.999983E+00  1.103856E-05 -2.373329E-05 -1.613942E-14 -9.095149E-15 _shell_0000000213   
       213  12  1.349448E-04  8.999964E+00  2.983770E-05 -7.171717E-06 -1.001827E-14 -4.124032E-14 _shell_0000000213   
       213  13  1.070458E-04  8.999985E+00 -1.912946E-06 -3.447922E-05 -1.182299E-14  2.517664E-14 _shell_0000000213   
       213  14  1.046737E-04  8.999964E+00  1.305022E-06 -1.859894E-05 -1.037222E-14 -1.587961E-15 _shell_0000000213   
       213  15  9.777831E-05  8.999926E+00  5.217140E-06 -9.893119E-07 -4.036075E-15 -5.992276E-14 _shell_0000000213   
       213  16  9.026728E-05  8.999986E+00  9.898191E-07 -3.273171E-05 -8.234247E-15  1.470587E-14 _shell_0000000213   
       213  17  8.357385E-05  8.999949E+00 -2.284704E-06 -1.580337E-05 -1.461832E-14  1.686335E-15 _shell_0000000213   
       213  18  7.159605E-05  8.999895E+00 -6.640902E-06  2.854307E-06 -1.519392E-14 -5.997570E-14 _shell_0000000213   
       213  19  1.317610E-04  8.999989E+00 -3.768455E-06 -3.825971E-05  2.453028E-06  1.130067E-06 _shell_0000000213   
       213  20  1.355125E-04  8.999983E+00  1.152636E-05 -2.461341E-05  6.261566E-06 -1.077462E-06 _shell_0000000213   
       213  21  1.355018E-04  8.999962E+00  2.929115E-05 -9.237761E-06  1.007010E-05 -4.046059E-06 _shell_0000000213   
       213  22  1.075961E-04  8.999987E+00 -1.280254E-06 -3.451819E-05  2.777357E-07  3.030558E-07 _shell_0000000213   
       213  23  1.041897E-04  8.999963E+00  9.033701E-07 -1.982383E-05  2.124500E-06  1.269502E-08 _shell_0000000213   
       213  24  9.625998E-05  8.999923E+00  3.781144E-06 -3.400138E-06  3.971264E-06 -1.038734E-06 _shell_0000000213   
       213  25  8.874226E-05  8.999986E+00  7.330641E-07 -3.311545E-05 -4.792645E-07 -5.239551E-07 _shell_0000000213   
       213  26  8.101449E-05  8.999947E+00 -3.575803E-06 -1.737305E-05 -5.942739E-07  1.102852E-06 _shell_0000000213   
       213  27  6.800234E-05  8.999891E+00 -8.966345E-06  9.869945E-08 -7.092833E-07  1.968591E-06 _shell_0000000213   
       214   1  7.677810E-05  8.999888E+00 -1.187444E-05  3.099889E-05  1.499357E-05  1.604109E-06 _shell_0000000214   
       214   2  9.958673E-05  8.999737E+00 -5.235078E-05  4.205351E-05  3.419007E-05 -1.486815E-06 _shell_0000000214   
       214   3  1.240916E-04  8.999551E+00 -5.316728E-05  4.140231E-05  5.338657E-05  8.994249E-06 _shell_0000000214   
       214   4  7.430624E-05  8.999874E+00 -9.053565E-06  2.600444E-05  3.482960E-06 -9.325935E-07 _shell_0000000214   
       214   5  1.103180E-04  8.999773E+00 -4.924836E-06  3.128961E-05  1.181638E-05 -4.890602E-07 _shell_0000000214   
       214   6  1.344541E-04  8.999624E+00  7.195757E-06  2.486894E-05  2.014980E-05  1.352646E-05 _shell_0000000214   
       214   7  7.887379E-05  8.999865E+00 -3.274347E-07  2.731542E-05 -1.948638E-06 -3.469296E-06 _shell_0000000214   
       214   8  1.159307E-04  8.999802E+00  2.003764E-05  2.683113E-05 -4.478300E-06  5.086944E-07 _shell_0000000214   
       214   9  1.275399E-04  8.999677E+00  1.672661E-05  1.464100E-05 -7.007962E-06  1.805867E-05 _shell_0000000214   
       214  10  1.195109E-04  8.999904E+00  5.783678E-06  3.711027E-05  3.615814E-16 -3.728478E-14 _shell_0000000214   
       214  11  1.326180E-04  8.999730E+00 -4.439417E-05  3.492808E-05  6.419804E-15  5.462987E-15 _shell_0000000214   
       214  12  1.474213E-04  8.999522E+00 -5.491218E-05  2.104007E-05  5.284222E-15  3.183140E-14 _shell_0000000214   
       214  13  9.387458E-05  8.999881E+00 -1.323050E-06  2.888198E-05 -4.046853E-15 -5.783691E-14 _shell_0000000214   
       214  14  1.201848E-04  8.999757E+00 -6.895831E-06  2.093034E-05 -9.174635E-15 -7.632367E-16 _shell_0000000214   
       214  15  1.346194E-04  8.999585E+00 -4.476750E-06  1.272869E-06 -8.288274E-15  3.358462E-14 _shell_0000000214   
       214  16  7.527772E-05  8.999861E+00 -2.524524E-06  2.695912E-05 -1.593205E-14 -5.961270E-14 _shell_0000000214   
       214  17  1.026331E-04  8.999775E+00  8.139042E-06  1.323802E-05 -1.124058E-14  4.740250E-15 _shell_0000000214   
       214  18  1.045408E-04  8.999628E+00 -4.873502E-06 -1.218891E-05 -2.008969E-14  2.821466E-14 _shell_0000000214   
       214  19  7.677810E-05  8.999888E+00 -1.187444E-05  3.099889E-05 -1.499357E-05 -1.604109E-06 _shell_0000000214   
       214  20  9.958673E-05  8.999737E+00 -5.235078E-05  4.205352E-05 -3.419007E-05  1.486815E-06 _shell_0000000214   
       214  21  1.240916E-04  8.999551E+00 -5.316728E-05  4.140231E-05 -5.338657E-05 -8.994249E-06 _shell_0000000214   
       214  22  7.430624E-05  8.999874E+00 -9.053565E-06  2.600444E-05 -3.482960E-06  9.325934E-07 _shell_0000000214   
       214  23  1.103180E-04  8.999773E+00 -4.924836E-06  3.128961E-05 -1.181638E-05  4.890602E-07 _shell_0000000214   
       214  24  1.344541E-04  8.999624E+00  7.195757E-06  2.486894E-05 -2.014980E-05 -1.352646E-05 _shell_0000000214   
       214  25  7.887379E-05  8.999865E+00 -3.274347E-07  2.731542E-05  1.948638E-06  3.469296E-06 _shell_0000000214   
       214  26  1.159307E-04  8.999802E+00  2.003764E-05  2.683113E-05  4.478300E-06 -5.086944E-07 _shell_0000000214   
       214  27  1.275399E-04  8.999677E+00  1.672661E-05  1.464100E-05  7.007962E-06 -1.805867E-05 _shell_0000000214   
       215   1  2.178636E-04  8.999571E+00 -2.531493E-06 -1.293453E-04  7.430809E-05  7.823571E-06 _shell_0000000215   
       215   2  5.875946E-05  8.999677E+00 -2.047561E-05 -1.364056E-04  1.502535E-05 -7.354880E-06 _shell_0000000215   
       215   3 -6.563753E-05  8.999840E+00  2.006782E-05 -9.264771E-05 -4.425739E-05 -1.000606E-05 _shell_0000000215   
       215   4  1.879233E-04  8.999616E+00  3.460200E-05 -8.930281E-05  4.028361E-05  1.333439E-05 _shell_0000000215   
       215   5  7.489627E-05  8.999668E+00  4.123651E-06 -1.055104E-04  1.252405E-05 -2.015547E-06 _shell_0000000215   
       215   6 -1.595083E-05  8.999764E+00  2.902552E-06 -7.089984E-05 -1.523551E-05 -4.838211E-06 _shell_0000000215   
       215   7  1.101177E-04  8.999628E+00  9.287581E-06 -6.159687E-05 -1.167299E-06  1.884521E-05 _shell_0000000215   
       215   8  5.802071E-05  8.999640E+00  9.316697E-07 -8.695180E-05  2.596326E-06  3.323787E-06 _shell_0000000215   
       215   9  1.557636E-05  8.999685E+00 -7.397295E-06 -6.148856E-05  6.359950E-06  3.296375E-07 _shell_0000000215   
       215  10  1.331917E-04  8.999499E+00 -4.942960E-05 -1.653753E-04  2.607474E-17  2.563248E-14 _shell_0000000215   
       215  11 -9.395925E-06  8.999644E+00 -5.085718E-05 -1.534910E-04 -1.374999E-14  4.750567E-15 _shell_0000000215   
       215  12 -1.172764E-04  8.999845E+00  6.202792E-06 -9.078840E-05 -2.836960E-14  2.943731E-15 _shell_0000000215   
       215  13  1.364045E-04  8.999558E+00  1.912385E-06 -1.198273E-04 -7.865943E-15  2.683085E-14 _shell_0000000215   
       215  14  3.989404E-05  8.999649E+00 -1.204942E-05 -1.170903E-04  2.443364E-15  2.504030E-15 _shell_0000000215   
       215  15 -3.443652E-05  8.999784E+00  3.246023E-06 -6.353502E-05 -7.698505E-15  2.178519E-14 _shell_0000000215   
       215  16  9.175206E-05  8.999584E+00 -9.193534E-06 -8.661586E-05 -9.512196E-15  1.531700E-14 _shell_0000000215   
       215  17  5.617163E-05  8.999636E+00 -1.032905E-06 -9.302613E-05  4.545165E-20 -3.498931E-16 _shell_0000000215   
       215  18  3.024383E-05  8.999719E+00  7.154672E-06 -4.861822E-05 -2.435654E-14  3.098871E-14 _shell_0000000215   
       215  19  2.178636E-04  8.999571E+00 -2.531493E-06 -1.293453E-04 -7.430809E-05 -7.823571E-06 _shell_0000000215   
       215  20  5.875946E-05  8.999677E+00 -2.047561E-05 -1.364056E-04 -1.502535E-05  7.354880E-06 _shell_0000000215   
       215  21 -6.563753E-05  8.999840E+00  2.006782E-05 -9.264771E-05  4.425739E-05  1.000606E-05 _shell_0000000215   
       215  22  1.879233E-04  8.999616E+00  3.460200E-05 -8.930281E-05 -4.028361E-05 -1.333439E-05 _shell_0000000215   
       215  23  7.489627E-05  8.999668E+00  4.123651E-06 -1.055104E-04 -1.252405E-05  2.015547E-06 _shell_0000000215   
       215  24 -1.595083E-05  8.999764E+00  2.902552E-06 -7.089984E-05  1.523551E-05  4.838211E-06 _shell_0000000215   
       215  25  1.101177E-04  8.999628E+00  9.287581E-06 -6.159687E-05  1.167299E-06 -1.884521E-05 _shell_0000000215   
       215  26  5.802071E-05  8.999640E+00  9.316697E-07 -8.695180E-05 -2.596326E-06 -3.323787E-06 _shell_0000000215   
       215  27  1.557636E-05  8.999685E+00 -7.397295E-06 -6.148856E-05 -6.359950E-06 -3.296374E-07 _shell_0000000215   
       301   1  1.944521E-05  8.999656E+00 -6.258027E-06  5.199356E-05 -9.418299E-06 -5.767447E-07 _shell_0000000301   
       301   2  5.532275E-05  8.999658E+00  6.940781E-06  6.064630E-05  1.730788E-06  3.062583E-06 _shell_0000000301   
       301   3  8.076833E-05  8.999649E+00 -2.651276E-06  6.127019E-05  1.287987E-05  1.219189E-06 _shell_0000000301   
       301   4  1.188288E-05  8.999629E+00 -9.437731E-07  3.230877E-05 -3.658940E-06 -1.366662E-06 _shell_0000000301   
       301   5  4.025569E-05  8.999651E+00  2.744619E-06  4.317968E-05  1.347043E-06  2.251465E-06 _shell_0000000301   
       301   6  6.367927E-05  8.999666E+00 -3.564833E-06  4.602173E-05  6.353026E-06  3.868689E-07 _shell_0000000301   
       301   7  6.865037E-06  8.999603E+00  1.621769E-06  1.731454E-05  1.275676E-06 -2.156580E-06 _shell_0000000301   
       301   8  2.938262E-05  8.999645E+00 -3.514502E-07  3.040361E-05  1.385549E-07  1.440346E-06 _shell_0000000301   
       301   9  5.243369E-05  8.999687E+00  4.705057E-07  3.546383E-05 -9.985664E-07 -4.454507E-07 _shell_0000000301   
       301  10  2.483930E-05  8.999652E+00 -5.749812E-06  5.069611E-05  9.787868E-15  9.569845E-15 _shell_0000000301   
       301  11  6.254866E-05  8.999659E+00  9.280818E-06  5.679754E-05  1.064562E-14 -3.145939E-15 _shell_0000000301   
       301  12  8.982606E-05  8.999654E+00  1.520583E-06  5.487013E-05  1.259888E-14 -3.218780E-14 _shell_0000000301   
       301  13  1.281218E-05  8.999624E+00 -2.349038E-06  3.162193E-05 -3.359626E-15  1.628910E-14 _shell_0000000301   
       301  14  4.301682E-05  8.999650E+00  3.171176E-06  3.994152E-05 -8.721629E-16 -7.289262E-15 _shell_0000000301   
       301  15  6.827222E-05  8.999669E+00 -1.306454E-06  4.023228E-05  1.052356E-14 -3.099516E-14 _shell_0000000301   
       301  16  3.329550E-06  8.999595E+00 -1.696976E-06  1.723830E-05 -1.710018E-14  1.547464E-14 _shell_0000000301   
       301  17  2.767895E-05  8.999642E+00 -1.838374E-06  2.777607E-05 -1.210163E-14 -7.192471E-15 _shell_0000000301   
       301  18  5.256185E-05  8.999688E+00  8.154037E-07  3.028498E-05 -6.422826E-16 -3.369233E-14 _shell_0000000301   
       301  19  1.944521E-05  8.999656E+00 -6.258027E-06  5.199356E-05  9.418299E-06  5.767447E-07 _shell_0000000301   
       301  20  5.532275E-05  8.999658E+00  6.940781E-06  6.064630E-05 -1.730788E-06 -3.062583E-06 _shell_0000000301   
       301  21  8.076833E-05  8.999649E+00 -2.651276E-06  6.127019E-05 -1.287987E-05 -1.219189E-06 _shell_0000000301   
       301  22  1.188288E-05  8.999629E+00 -9.437731E-07  3.230877E-05  3.658940E-06  1.366662E-06 _shell_0000000301   
       301  23  4.025569E-05  8.999651E+00  2.744619E-06  4.317968E-05 -1.347043E-06 -2.251465E-06 _shell_0000000301   
       301  24  6.367927E-05  8.999666E+00 -3.564832E-06  4.602173E-05 -6.353026E-06 -3.868690E-07 _shell_0000000301   
       301  25  6.865037E-06  8.999603E+00  1.621769E-06  1.731454E-05 -1.275676E-06  2.156580E-06 _shell_0000000301   
       301  26  2.938262E-05  8.999645E+00 -3.514502E-07  3.040361E-05 -1.385549E-07 -1.440346E-06 _shell_0000000301   
       301  27  5.243369E-05  8.999687E+00  4.705057E-07  3.546383E-05  9.985663E-07  4.454506E-07 _shell_0000000301   
       302   1  1.079054E-04  8.999678E+00  2.002473E-06  1.334657E-05  1.179053E-05 -4.208284E-08 _shell_0000000302   
       302   2  9.081309E-05  8.999764E+00  2.296072E-06 -8.375337E-06  6.874243E-06  3.426762E-07 _shell_0000000302   
       302   3  7.716026E-05  8.999860E+00  2.933707E-06 -2.303729E-05  1.957953E-06 -3.002522E-07 _shell_0000000302   
       302   4  8.319703E-05  8.999696E+00 -1.682607E-07  1.491743E-05  5.321458E-06 -7.201310E-07 _shell_0000000302   
       302   5  7.143931E-05  8.999769E+00 -3.137171E-07 -3.623870E-06  3.066622E-06  2.159815E-07 _shell_0000000302   
       302   6  6.414881E-05  8.999854E+00  2.282800E-06 -1.510523E-05  8.117855E-07  1.244065E-07 _shell_0000000302   
       302   7  6.216035E-05  8.999717E+00  2.027675E-06  1.382665E-05 -6.372590E-07 -1.398179E-06 _shell_0000000302   
       302   8  5.471657E-05  8.999776E+00 -9.385087E-07 -1.534053E-06 -2.306413E-07  8.928668E-08 _shell_0000000302   
       302   9  5.276768E-05  8.999849E+00  1.235219E-06 -9.834811E-06  1.759763E-07  5.490651E-07 _shell_0000000302   
       302  10  1.008161E-04  8.999677E+00 -5.290446E-07  9.361253E-06  1.300582E-14 -3.278180E-14 _shell_0000000302   
       302  11  8.319572E-05  8.999761E+00 -7.634788E-07 -9.979179E-06  3.838027E-15 -1.720606E-15 _shell_0000000302   
       302  12  6.901485E-05  8.999856E+00 -6.538774E-07 -2.225966E-05  3.453291E-15  9.451194E-15 _shell_0000000302   
       302  13  8.027526E-05  8.999697E+00 -9.136738E-07  1.075611E-05  1.160749E-14 -3.260362E-14 _shell_0000000302   
       302  14  6.798952E-05  8.999768E+00 -1.587163E-06 -5.403723E-06  3.257767E-15 -7.289277E-15 _shell_0000000302   
       302  15  6.017098E-05  8.999852E+00  4.813200E-07 -1.450361E-05  6.344239E-15  6.277683E-15 _shell_0000000302   
       302  16  6.340616E-05  8.999719E+00  3.068366E-06  9.489315E-06  1.628910E-15 -2.932037E-14 _shell_0000000302   
       302  17  5.543435E-05  8.999777E+00 -4.258501E-07 -3.489917E-06  1.394535E-15 -1.898541E-15 _shell_0000000302   
       302  18  5.295743E-05  8.999849E+00  1.219844E-06 -9.409202E-06  8.822674E-15  5.452417E-15 _shell_0000000302   
       302  19  1.079054E-04  8.999678E+00  2.002473E-06  1.334657E-05 -1.179053E-05  4.208278E-08 _shell_0000000302   
       302  20  9.081309E-05  8.999764E+00  2.296072E-06 -8.375337E-06 -6.874243E-06 -3.426762E-07 _shell_0000000302   
       302  21  7.716026E-05  8.999860E+00  2.933707E-06 -2.303729E-05 -1.957953E-06  3.002522E-07 _shell_0000000302   
       302  22  8.319703E-05  8.999696E+00 -1.682607E-07  1.491743E-05 -5.321458E-06  7.201310E-07 _shell_0000000302   
       302  23  7.143931E-05  8.999769E+00 -3.137171E-07 -3.623870E-06 -3.066622E-06 -2.159815E-07 _shell_0000000302   
       302  24  6.414881E-05  8.999854E+00  2.282800E-06 -1.510523E-05 -8.117855E-07 -1.244065E-07 _shell_0000000302   
       302  25  6.216035E-05  8.999717E+00  2.027675E-06  1.382665E-05  6.372590E-07  1.398179E-06 _shell_0000000302   
       302  26  5.471657E-05  8.999776E+00 -9.385087E-07 -1.534053E-06  2.306414E-07 -8.928669E-08 _shell_0000000302   
       302  27  5.276768E-05  8.999849E+00  1.235219E-06 -9.834811E-06 -1.759763E-07 -5.490651E-07 _shell_0000000302   
       303   1  6.789978E-05  8.999904E+00 -6.879639E-09 -2.631460E-06 -1.532683E-06 -6.020279E-07 _shell_0000000303   
       303   2  7.607464E-05  8.999952E+00  1.089231E-06  1.408063E-05 -9.659034E-07 -2.874626E-07 _shell_0000000303   
       303   3  7.696755E-05  8.999979E+00 -1.216441E-06  2.953477E-05 -3.991240E-07  9.730755E-08 _shell_0000000303   
       303   4  5.470921E-05  8.999895E+00 -3.492023E-07 -2.286115E-06 -6.551421E-07 -1.035085E-07 _shell_0000000303   
       303   5  6.195105E-05  8.999945E+00  1.089257E-06  1.246876E-05 -4.976322E-07 -8.647468E-08 _shell_0000000303   
       303   6  6.184073E-05  8.999974E+00 -1.037878E-06  2.596569E-05 -3.401224E-07  7.639788E-10 _shell_0000000303   
       303   7  4.321900E-05  8.999886E+00 -1.524507E-06 -1.522328E-06  1.327045E-07  3.950110E-07 _shell_0000000303   
       303   8  4.970720E-05  8.999938E+00  6.748730E-07  1.127534E-05 -1.190553E-07  1.145133E-07 _shell_0000000303   
       303   9  4.877304E-05  8.999969E+00 -8.551521E-07  2.281505E-05 -3.708150E-07 -9.577958E-08 _shell_0000000303   
       303  10  7.019190E-05  8.999904E+00  7.688576E-07 -1.866015E-06  3.906082E-15 -8.144642E-16 _shell_0000000303   
       303  11  7.823385E-05  8.999952E+00  1.732057E-06  1.451280E-05  4.147029E-16 -7.523659E-15 _shell_0000000303   
       303  12  7.899384E-05  8.999979E+00 -7.065255E-07  2.963366E-05  2.104818E-15  1.197090E-14 _shell_0000000303   
       303  13  5.641809E-05  8.999895E+00  1.765757E-07 -1.564973E-06  2.828165E-15 -3.283236E-15 _shell_0000000303   
       303  14  6.352701E-05  8.999945E+00  1.482124E-06  1.285663E-05  4.072234E-15 -1.131067E-14 _shell_0000000303   
       303  15  6.328379E-05  8.999973E+00 -7.779223E-07  2.602027E-05  6.094947E-15  9.702154E-15 _shell_0000000303   
       303  16  4.434464E-05  8.999886E+00 -1.248688E-06 -8.454906E-07  9.519697E-15 -3.054198E-15 _shell_0000000303   
       303  17  5.069993E-05  8.999938E+00  8.177808E-07  1.161889E-05  2.335444E-15 -1.024682E-14 _shell_0000000303   
       303  18  4.963286E-05  8.999968E+00 -8.451554E-07  2.282533E-05  1.322839E-14  5.885123E-15 _shell_0000000303   
       303  19  6.789978E-05  8.999904E+00 -6.879656E-09 -2.631460E-06  1.532683E-06  6.020279E-07 _shell_0000000303   
       303  20  7.607464E-05  8.999952E+00  1.089231E-06  1.408063E-05  9.659034E-07  2.874626E-07 _shell_0000000303   
       303  21  7.696755E-05  8.999979E+00 -1.216441E-06  2.953477E-05  3.991239E-07 -9.730752E-08 _shell_0000000303   
       303  22  5.470921E-05  8.999895E+00 -3.492024E-07 -2.286115E-06  6.551421E-07  1.035085E-07 _shell_0000000303   
       303  23  6.195105E-05  8.999945E+00  1.089257E-06  1.246876E-05  4.976322E-07  8.647466E-08 _shell_0000000303   
       303  24  6.184073E-05  8.999974E+00 -1.037878E-06  2.596569E-05  3.401224E-07 -7.639743E-10 _shell_0000000303   
       303  25  4.321900E-05  8.999886E+00 -1.524507E-06 -1.522328E-06 -1.327044E-07 -3.950110E-07 _shell_0000000303   
       303  26  4.970720E-05  8.999938E+00  6.748730E-07  1.127534E-05  1.190553E-07 -1.145133E-07 _shell_0000000303   
       303  27  4.877304E-05  8.999969E+00 -8.551521E-07  2.281505E-05  3.708150E-07  9.577961E-08 _shell_0000000303   
       304   1  8.215741E-05  8.999990E+00 -6.859488E-07  3.489500E-05  2.711782E-08  1.910565E-07 _shell_0000000304   
       304   2  8.950710E-05  9.000003E+00 -8.767121E-08  3.822685E-05  1.185281E-08  5.826155E-08 _shell_0000000304   
       304   3  9.465511E-05  9.000010E+00  1.854946E-07  4.135180E-05 -3.412203E-09 -1.130704E-07 _shell_0000000304   
       304   4  6.758253E-05  8.999986E+00 -2.792130E-07  3.132716E-05  1.787743E-07  3.966926E-08 _shell_0000000304   
       304   5  7.499808E-05  9.000001E+00 -1.562775E-07  3.500457E-05  6.835154E-08  1.593574E-08 _shell_0000000304   
       304   6  8.025047E-05  9.000009E+00 -2.685342E-07  3.847509E-05 -4.207126E-08 -4.633470E-08 _shell_0000000304   
       304   7  5.532875E-05  8.999983E+00  3.813991E-07  2.808898E-05  2.961398E-07 -1.117181E-07 _shell_0000000304   
       304   8  6.287873E-05  9.000000E+00  1.890177E-07  3.211196E-05  9.055916E-08 -2.639007E-08 _shell_0000000304   
       304   9  6.830410E-05  9.000010E+00 -1.486364E-07  3.592804E-05 -1.150214E-07  2.040099E-08 _shell_0000000304   
       304  10  8.245311E-05  8.999989E+00 -9.065879E-07  3.451806E-05  4.769172E-15  1.119874E-14 _shell_0000000304   
       304  11  9.000265E-05  9.000003E+00 -1.084611E-07  3.779299E-05  1.082595E-14 -4.774815E-15 _shell_0000000304   
       304  12  9.535050E-05  9.000010E+00  3.645539E-07  4.086103E-05  1.118823E-14  8.662157E-15 _shell_0000000304   
       304  13  6.777862E-05  8.999985E+00 -5.425399E-07  3.101683E-05  1.140842E-14  9.771038E-15 _shell_0000000304   
       304  14  7.539402E-05  9.000001E+00 -2.197552E-07  3.463733E-05  6.054453E-15 -8.075885E-15 _shell_0000000304   
       304  15  8.084626E-05  9.000009E+00 -1.321627E-07  3.805093E-05  7.876561E-15  2.214805E-14 _shell_0000000304   
       304  16  5.542523E-05  8.999982E+00  7.538449E-08  2.784527E-05  1.287705E-14  3.665040E-15 _shell_0000000304   
       304  17  6.317506E-05  8.999999E+00  8.285229E-08  3.181133E-05  7.187794E-15 -6.072704E-15 _shell_0000000304   
       304  18  6.880028E-05  9.000010E+00 -5.495260E-08  3.557049E-05  6.916537E-15  2.375219E-14 _shell_0000000304   
       304  19  8.215741E-05  8.999990E+00 -6.859488E-07  3.489500E-05 -2.711781E-08 -1.910565E-07 _shell_0000000304   
       304  20  8.950710E-05  9.000003E+00 -8.767119E-08  3.822685E-05 -1.185279E-08 -5.826155E-08 _shell_0000000304   
       304  21  9.465511E-05  9.000010E+00  1.854947E-07  4.135180E-05  3.412221E-09  1.130704E-07 _shell_0000000304   
       304  22  6.758253E-05  8.999986E+00 -2.792130E-07  3.132716E-05 -1.787743E-07 -3.966924E-08 _shell_0000000304   
       304  23  7.499808E-05  9.000001E+00 -1.562775E-07  3.500457E-05 -6.835153E-08 -1.593574E-08 _shell_0000000304   
       304  24  8.025047E-05  9.000009E+00 -2.685342E-07  3.847509E-05  4.207127E-08  4.633473E-08 _shell_0000000304   
       304  25  5.532875E-05  8.999983E+00  3.813991E-07  2.808898E-05 -2.961397E-07  1.117181E-07 _shell_0000000304   
       304  26  6.287873E-05  9.000000E+00  1.890177E-07  3.211196E-05 -9.055914E-08  2.639007E-08 _shell_0000000304   
       304  27  6.830410E-05  9.000010E+00 -1.486363E-07  3.592804E-05  1.150214E-07 -2.040094E-08 _shell_0000000304   
       305   1  9.612837E-05  9.000012E+00  1.221112E-07  4.002736E-05  1.108070E-07 -1.190392E-07 _shell_0000000305   
       305   2  9.819996E-05  9.000014E+00  2.070073E-07  3.626985E-05  5.482264E-08 -1.477342E-08 _shell_0000000305   
       305   3  9.965361E-05  9.000015E+00  1.057435E-07  3.344205E-05 -1.161696E-09 -2.116615E-08 _shell_0000000305   
       305   4  8.374172E-05  9.000012E+00  1.500383E-07  3.787792E-05  7.180883E-08 -3.048994E-08 _shell_0000000305   
       305   5  8.708365E-05  9.000015E+00 -1.760534E-08  3.459924E-05  4.046318E-08  3.967653E-08 _shell_0000000305   
       305   6  8.991830E-05  9.000017E+00 -1.132056E-07  3.225027E-05  9.117536E-09 -8.154943E-10 _shell_0000000305   
       305   7  7.252689E-05  9.000013E+00  2.697039E-07  3.575790E-05  4.730406E-09  5.805932E-08 _shell_0000000305   
       305   8  7.719532E-05  9.000017E+00 -1.943827E-08  3.295805E-05 -1.976565E-09  9.412649E-08 _shell_0000000305   
       305   9  8.146714E-05  9.000019E+00  2.166623E-08  3.108791E-05 -8.683519E-09  1.953515E-08 _shell_0000000305   
       305  10  9.612459E-05  9.000011E+00  3.888166E-08  3.967227E-05  6.755918E-15  1.221682E-14 _shell_0000000305   
       305  11  9.822100E-05  9.000014E+00  1.485966E-07  3.597474E-05  3.718991E-15 -1.313359E-15 _shell_0000000305   
       305  12  9.969947E-05  9.000015E+00  7.215168E-08  3.320691E-05  4.510241E-15  1.609408E-14 _shell_0000000305   
       305  13  8.384290E-05  9.000012E+00  1.117907E-07  3.753111E-05  5.650280E-15  1.791311E-14 _shell_0000000305   
       305  14  8.720965E-05  9.000015E+00 -3.103409E-08  3.431240E-05  5.347865E-15 -6.474859E-15 _shell_0000000305   
       305  15  9.006912E-05  9.000017E+00 -1.018154E-07  3.202341E-05  6.716235E-15  1.196981E-14 _shell_0000000305   
       305  16  7.273302E-05  9.000013E+00  2.764382E-07  3.541935E-05  4.937632E-15  2.769146E-14 _shell_0000000305   
       305  17  7.742628E-05  9.000017E+00  1.211496E-08  3.267948E-05  2.619985E-15 -2.102232E-15 _shell_0000000305   
       305  18  8.172291E-05  9.000019E+00  7.803835E-08  3.086932E-05  7.632554E-15  6.724985E-15 _shell_0000000305   
       305  19  9.612837E-05  9.000012E+00  1.221113E-07  4.002736E-05 -1.108070E-07  1.190392E-07 _shell_0000000305   
       305  20  9.819996E-05  9.000014E+00  2.070073E-07  3.626985E-05 -5.482263E-08  1.477342E-08 _shell_0000000305   
       305  21  9.965361E-05  9.000015E+00  1.057435E-07  3.344205E-05  1.161707E-09  2.116617E-08 _shell_0000000305   
       305  22  8.374172E-05  9.000012E+00  1.500384E-07  3.787792E-05 -7.180882E-08  3.048998E-08 _shell_0000000305   
       305  23  8.708365E-05  9.000015E+00 -1.760533E-08  3.459924E-05 -4.046316E-08 -3.967654E-08 _shell_0000000305   
       305  24  8.991830E-05  9.000017E+00 -1.132056E-07  3.225027E-05 -9.117510E-09  8.155165E-10 _shell_0000000305   
       305  25  7.252689E-05  9.000013E+00  2.697039E-07  3.575790E-05 -4.730399E-09 -5.805926E-08 _shell_0000000305   
       305  26  7.719532E-05  9.000017E+00 -1.943825E-08  3.295805E-05  1.976565E-09 -9.412648E-08 _shell_0000000305   
       305  27  8.146714E-05  9.000019E+00  2.166625E-08  3.108791E-05  8.683529E-09 -1.953513E-08 _shell_0000000305   
       306   1  9.983130E-05  9.000015E+00 -4.955304E-08  3.037383E-05 -6.944632E-08 -2.995858E-08 _shell_0000000306   
       306   2  1.000845E-04  9.000015E+00 -1.726642E-08  2.510721E-05 -3.101772E-08 -2.662841E-09 _shell_0000000306   
       306   3  1.002617E-04  9.000014E+00  5.313579E-08  2.067097E-05  7.410888E-09 -6.833755E-09 _shell_0000000306   
       306   4  9.148442E-05  9.000017E+00  1.896320E-08  2.951550E-05 -3.653692E-08 -1.994988E-08 _shell_0000000306   
       306   5  9.279873E-05  9.000017E+00 -6.214421E-08  2.446354E-05 -7.305768E-09  5.905136E-09 _shell_0000000306   
       306   6  9.406840E-05  9.000017E+00 -3.171372E-08  2.024196E-05  2.192540E-08  2.935157E-10 _shell_0000000306   
       306   7  8.352835E-05  9.000019E+00  1.041136E-07  2.861250E-05 -1.673967E-08 -9.941160E-09 _shell_0000000306   
       306   8  8.592997E-05  9.000019E+00 -2.919791E-08  2.377521E-05  3.294057E-09  1.447314E-08 _shell_0000000306   
       306   9  8.831841E-05  9.000019E+00  2.245079E-08  1.976829E-05  2.332778E-08  7.420795E-09 _shell_0000000306   
       306  10  9.986011E-05  9.000015E+00 -8.168610E-08  3.020437E-05  4.698863E-15  1.160598E-14 _shell_0000000306   
       306  11  1.001412E-04  9.000015E+00 -2.151797E-08  2.494266E-05  2.152828E-15 -1.720587E-15 _shell_0000000306   
       306  12  1.003462E-04  9.000014E+00  7.676573E-08  2.051132E-05  4.653884E-15  3.821161E-14 _shell_0000000306   
       306  13  9.152181E-05  9.000017E+00 -9.493433E-09  2.935533E-05  7.228286E-15  8.169999E-15 _shell_0000000306   
       306  14  9.286400E-05  9.000017E+00 -6.271933E-08  2.430828E-05  2.239740E-15 -2.277777E-15 _shell_0000000306   
       306  15  9.416156E-05  9.000017E+00 -4.407359E-09  2.009160E-05  1.600438E-15  2.945514E-14 _shell_0000000306   
       306  16  8.357432E-05  9.000019E+00  7.933338E-08  2.846163E-05  7.536732E-15  9.569843E-15 _shell_0000000306   
       306  17  8.600382E-05  9.000019E+00 -2.609656E-08  2.362924E-05  2.272749E-15  3.700757E-15 _shell_0000000306   
       306  18  8.842015E-05  9.000019E+00  5.343360E-08  1.962723E-05  1.301753E-15  2.558470E-14 _shell_0000000306   
       306  19  9.983130E-05  9.000015E+00 -4.955304E-08  3.037383E-05  6.944633E-08  2.995859E-08 _shell_0000000306   
       306  20  1.000845E-04  9.000015E+00 -1.726642E-08  2.510721E-05  3.101772E-08  2.662851E-09 _shell_0000000306   
       306  21  1.002617E-04  9.000014E+00  5.313575E-08  2.067097E-05 -7.410882E-09  6.833833E-09 _shell_0000000306   
       306  22  9.148442E-05  9.000017E+00  1.896319E-08  2.951550E-05  3.653694E-08  1.994989E-08 _shell_0000000306   
       306  23  9.279873E-05  9.000017E+00 -6.214420E-08  2.446354E-05  7.305767E-09 -5.905149E-09 _shell_0000000306   
       306  24  9.406840E-05  9.000017E+00 -3.171375E-08  2.024196E-05 -2.192541E-08 -2.934561E-10 _shell_0000000306   
       306  25  8.352835E-05  9.000019E+00  1.041136E-07  2.861250E-05  1.673968E-08  9.941186E-09 _shell_0000000306   
       306  26  8.592997E-05  9.000019E+00 -2.919787E-08  2.377521E-05 -3.294055E-09 -1.447313E-08 _shell_0000000306   
       306  27  8.831841E-05  9.000019E+00  2.245082E-08  1.976829E-05 -2.332778E-08 -7.420727E-09 _shell_0000000306   
       307   1  1.001300E-04  9.000014E+00  3.149759E-08  1.752851E-05  1.913323E-08 -7.930838E-09 _shell_0000000307   
       307   2  9.993703E-05  9.000013E+00  2.372754E-08  1.240482E-05  7.173034E-09  3.354055E-09 _shell_0000000307   
       307   3  9.980270E-05  9.000013E+00  3.415075E-08  7.738857E-06 -4.787144E-09  3.399329E-11 _shell_0000000307   
       307   4  9.463226E-05  9.000016E+00  2.250670E-08  1.722048E-05 -3.816707E-09 -1.710180E-09 _shell_0000000307   
       307   5  9.501092E-05  9.000016E+00 -1.646874E-08  1.219941E-05  4.422252E-09  7.899960E-09 _shell_0000000307   
       307   6  9.546282E-05  9.000015E+00 -3.172484E-09  7.636050E-06  1.266122E-08  2.905111E-09 _shell_0000000307   
       307   7  8.924531E-05  9.000019E+00  2.885569E-08  1.687228E-05 -3.062860E-08  4.510506E-09 _shell_0000000307   
       307   8  9.020333E-05  9.000018E+00 -2.330266E-08  1.195381E-05 -2.190475E-09  1.244586E-08 _shell_0000000307   
       307   9  9.124919E-05  9.000018E+00  1.088909E-08  7.493063E-06  2.624762E-08  5.776225E-09 _shell_0000000307   
       307  10  1.000824E-04  9.000014E+00  4.253401E-09  1.742971E-05  2.427616E-15  3.787215E-14 _shell_0000000307   
       307  11  9.989625E-05  9.000013E+00  3.288657E-09  1.232665E-05 -5.794157E-15 -1.211549E-15 _shell_0000000307   
       307  12  9.976872E-05  9.000013E+00  2.051713E-08  7.681315E-06 -3.407567E-15  2.642747E-14 _shell_0000000307   
       307  13  9.462077E-05  9.000016E+00  1.073220E-08  1.712396E-05 -5.659843E-16  2.769146E-14 _shell_0000000307   
       307  14  9.500623E-05  9.000016E+00 -2.143794E-08  1.212351E-05 -8.023660E-16 -6.423962E-15 _shell_0000000307   
       307  15  9.546494E-05  9.000015E+00 -1.336415E-09  7.580777E-06 -2.515183E-15  1.502157E-14 _shell_0000000307   
       307  16  8.926992E-05  9.000019E+00  3.255088E-08  1.677802E-05  3.388102E-15  2.361919E-14 _shell_0000000307   
       307  17  9.023474E-05  9.000018E+00 -1.280216E-08  1.188018E-05  3.832810E-16 -9.823560E-16 _shell_0000000307   
       307  18  9.128740E-05  9.000018E+00  2.819485E-08  7.440057E-06 -2.271187E-15  1.005916E-14 _shell_0000000307   
       307  19  1.001300E-04  9.000014E+00  3.149753E-08  1.752851E-05 -1.913322E-08  7.930926E-09 _shell_0000000307   
       307  20  9.993703E-05  9.000013E+00  2.372752E-08  1.240482E-05 -7.173049E-09 -3.354050E-09 _shell_0000000307   
       307  21  9.980270E-05  9.000013E+00  3.415069E-08  7.738857E-06  4.787138E-09 -3.394861E-11 _shell_0000000307   
       307  22  9.463226E-05  9.000016E+00  2.250667E-08  1.722048E-05  3.816708E-09  1.710226E-09 _shell_0000000307   
       307  23  9.501092E-05  9.000016E+00 -1.646874E-08  1.219941E-05 -4.422264E-09 -7.899957E-09 _shell_0000000307   
       307  24  9.546282E-05  9.000015E+00 -3.172523E-09  7.636050E-06 -1.266122E-08 -2.905083E-09 _shell_0000000307   
       307  25  8.924531E-05  9.000019E+00  2.885570E-08  1.687228E-05  3.062860E-08 -4.510454E-09 _shell_0000000307   
       307  26  9.020333E-05  9.000018E+00 -2.330261E-08  1.195381E-05  2.190492E-09 -1.244586E-08 _shell_0000000307   
       307  27  9.124919E-05  9.000018E+00  1.088907E-08  7.493063E-06 -2.624763E-08 -5.776213E-09 _shell_0000000307   
       308   1  9.970937E-05  9.000013E+00  1.415916E-08  4.764703E-06 -3.080245E-09 -2.181452E-09 _shell_0000000308   
       308   2  9.965698E-05  9.000013E+00 -6.009760E-09  2.010685E-15  8.529505E-15  5.956278E-11 _shell_0000000308   
       308   3  9.970937E-05  9.000013E+00  1.415917E-08 -4.764703E-06  3.080246E-09 -2.181535E-09 _shell_0000000308   
       308   4  9.560462E-05  9.000015E+00  7.712122E-09  4.705567E-06 -1.479228E-08  2.023269E-10 _shell_0000000308   
       308   5  9.554999E-05  9.000015E+00 -1.768596E-08 -4.835825E-16 -3.308722E-16  2.443342E-09 _shell_0000000308   
       308   6  9.560462E-05  9.000015E+00  7.712128E-09 -4.705567E-06  1.479228E-08  2.022572E-10 _shell_0000000308   
       308   7  9.151487E-05  9.000017E+00  9.250838E-09  4.646431E-06 -2.650432E-08  2.586099E-09 _shell_0000000308   
       308   8  9.145799E-05  9.000017E+00 -2.137640E-08 -1.827433E-14 -1.765712E-15  4.827119E-09 _shell_0000000308   
       308   9  9.151487E-05  9.000017E+00  9.250808E-09 -4.646431E-06  2.650431E-08  2.586049E-09 _shell_0000000308   
       308  10  9.968530E-05  9.000013E+00  5.902010E-09  4.754238E-06  8.465876E-16  3.848299E-14 _shell_0000000308   
       308  11  9.963291E-05  9.000013E+00 -1.426692E-08 -2.891314E-14  8.327243E-15  9.274550E-15 _shell_0000000308   
       308  12  9.968530E-05  9.000013E+00  5.902021E-09 -4.754238E-06  5.486793E-15 -1.584782E-14 _shell_0000000308   
       308  13  9.559887E-05  9.000015E+00  7.303568E-09  4.695102E-06  3.563240E-16  2.117582E-14 _shell_0000000308   
       308  14  9.554423E-05  9.000015E+00 -1.809452E-08 -2.015776E-14  7.330093E-15  1.669686E-15 _shell_0000000308   
       308  15  9.559887E-05  9.000015E+00  7.303595E-09 -4.695102E-06  4.606759E-15 -6.742087E-15 _shell_0000000308   
       308  16  9.152742E-05  9.000017E+00  1.669089E-08  4.635966E-06  7.283978E-16  1.221682E-14 _shell_0000000308   
       308  17  9.147055E-05  9.000017E+00 -1.393633E-08 -2.199028E-14  8.947159E-15 -6.769348E-16 _shell_0000000308   
       308  18  9.152742E-05  9.000017E+00  1.669089E-08 -4.635966E-06  5.103131E-15  6.470465E-15 _shell_0000000308   
       308  19  9.970937E-05  9.000013E+00  1.415912E-08  4.764703E-06  3.080241E-09  2.181528E-09 _shell_0000000308   
       308  20  9.965698E-05  9.000013E+00 -6.009791E-09 -4.764560E-14  6.515638E-15 -5.954418E-11 _shell_0000000308   
       308  21  9.970937E-05  9.000013E+00  1.415920E-08 -4.764703E-06 -3.080238E-09  2.181503E-09 _shell_0000000308   
       308  22  9.560462E-05  9.000015E+00  7.712088E-09  4.705567E-06  1.479228E-08 -2.022813E-10 _shell_0000000308   
       308  23  9.554999E-05  9.000015E+00 -1.768597E-08 -2.361919E-14  7.788224E-15 -2.443335E-09 _shell_0000000308   
       308  24  9.560462E-05  9.000015E+00  7.712164E-09 -4.705567E-06 -1.479228E-08 -2.022732E-10 _shell_0000000308   
       308  25  9.151487E-05  9.000017E+00  9.250840E-09  4.646431E-06  2.650432E-08 -2.586072E-09 _shell_0000000308   
       308  26  9.145799E-05  9.000017E+00 -2.137638E-08 -2.168486E-14  8.297258E-15 -4.827112E-09 _shell_0000000308   
       308  27  9.151487E-05  9.000017E+00  9.250871E-09 -4.646431E-06 -2.650431E-08 -2.586035E-09 _shell_0000000308   
       309   1  9.980270E-05  9.000013E+00  3.415076E-08 -7.738857E-06  4.787146E-09  3.390692E-11 _shell_0000000309   
       309   2  9.993703E-05  9.000013E+00  2.372757E-08 -1.240482E-05 -7.173049E-09  3.354040E-09 _shell_0000000309   
       309   3  1.001300E-04  9.000014E+00  3.149759E-08 -1.752851E-05 -1.913325E-08 -7.930828E-09 _shell_0000000309   
       309   4  9.546282E-05  9.000015E+00 -3.172484E-09 -7.636050E-06 -1.266122E-08  2.905056E-09 _shell_0000000309   
       309   5  9.501092E-05  9.000016E+00 -1.646870E-08 -1.219941E-05 -4.422261E-09  7.899954E-09 _shell_0000000309   
       309   6  9.463226E-05  9.000016E+00  2.250670E-08 -1.722048E-05  3.816685E-09 -1.710133E-09 _shell_0000000309   
       309   7  9.124919E-05  9.000018E+00  1.088910E-08 -7.493063E-06 -2.624762E-08  5.776199E-09 _shell_0000000309   
       309   8  9.020333E-05  9.000018E+00 -2.330264E-08 -1.195381E-05  2.190488E-09  1.244587E-08 _shell_0000000309   
       309   9  8.924531E-05  9.000019E+00  2.885567E-08 -1.687228E-05  3.062859E-08  4.510536E-09 _shell_0000000309   
       309  10  9.976872E-05  9.000013E+00  2.051716E-08 -7.681315E-06 -6.423375E-16 -1.751078E-14 _shell_0000000309   
       309  11  9.989625E-05  9.000013E+00  3.288678E-09 -1.232665E-05 -2.081000E-15  9.987200E-15 _shell_0000000309   
       309  12  1.000824E-04  9.000014E+00  4.253423E-09 -1.742971E-05 -7.193886E-15  5.628233E-14 _shell_0000000309   
       309  13  9.546494E-05  9.000015E+00 -1.336398E-09 -7.580777E-06 -1.131969E-15 -9.773461E-15 _shell_0000000309   
       309  14  9.500623E-05  9.000016E+00 -2.143793E-08 -1.212351E-05 -2.087036E-15  4.978408E-15 _shell_0000000309   
       309  15  9.462077E-05  9.000016E+00  1.073220E-08 -1.712396E-05 -3.582648E-15  5.312034E-14 _shell_0000000309   
       309  16  9.128740E-05  9.000018E+00  2.819486E-08 -7.440057E-06  1.654361E-16  2.036137E-15 _shell_0000000309   
       309  17  9.023474E-05  9.000018E+00 -1.280221E-08 -1.188018E-05 -1.928275E-15  5.431477E-15 _shell_0000000309   
       309  18  8.926992E-05  9.000019E+00  3.255084E-08 -1.677802E-05 -3.931533E-15  3.861598E-14 _shell_0000000309   
       309  19  9.980270E-05  9.000013E+00  3.415078E-08 -7.738857E-06 -4.787138E-09 -3.395543E-11 _shell_0000000309   
       309  20  9.993703E-05  9.000013E+00  2.372757E-08 -1.240482E-05  7.173037E-09 -3.354025E-09 _shell_0000000309   
       309  21  1.001300E-04  9.000014E+00  3.149761E-08 -1.752851E-05  1.913322E-08  7.930937E-09 _shell_0000000309   
       309  22  9.546282E-05  9.000015E+00 -3.172444E-09 -7.636050E-06  1.266122E-08 -2.905072E-09 _shell_0000000309   
       309  23  9.501092E-05  9.000016E+00 -1.646872E-08 -1.219941E-05  4.422251E-09 -7.899945E-09 _shell_0000000309   
       309  24  9.463226E-05  9.000016E+00  2.250668E-08 -1.722048E-05 -3.816693E-09  1.710240E-09 _shell_0000000309   
       309  25  9.124919E-05  9.000018E+00  1.088915E-08 -7.493063E-06  2.624762E-08 -5.776193E-09 _shell_0000000309   
       309  26  9.020333E-05  9.000018E+00 -2.330267E-08 -1.195381E-05 -2.190502E-09 -1.244585E-08 _shell_0000000309   
       309  27  8.924531E-05  9.000019E+00  2.885561E-08 -1.687228E-05 -3.062859E-08 -4.510449E-09 _shell_0000000309   
       310   1  1.002617E-04  9.000014E+00  5.313579E-08 -2.067097E-05 -7.410904E-09 -6.833722E-09 _shell_0000000310   
       310   2  1.000845E-04  9.000015E+00 -1.726643E-08 -2.510721E-05  3.101771E-08 -2.662842E-09 _shell_0000000310   
       310   3  9.983130E-05  9.000015E+00 -4.955303E-08 -3.037383E-05  6.944633E-08 -2.995858E-08 _shell_0000000310   
       310   4  9.406840E-05  9.000017E+00 -3.171372E-08 -2.024196E-05 -2.192541E-08  2.935605E-10 _shell_0000000310   
       310   5  9.279873E-05  9.000017E+00 -6.214419E-08 -2.446354E-05  7.305759E-09  5.905145E-09 _shell_0000000310   
       310   6  9.148442E-05  9.000017E+00  1.896322E-08 -2.951550E-05  3.653692E-08 -1.994987E-08 _shell_0000000310   
       310   7  8.831841E-05  9.000019E+00  2.245077E-08 -1.976829E-05 -2.332779E-08  7.420823E-09 _shell_0000000310   
       310   8  8.592997E-05  9.000019E+00 -2.919789E-08 -2.377521E-05 -3.294058E-09  1.447314E-08 _shell_0000000310   
       310   9  8.352835E-05  9.000019E+00  1.041136E-07 -2.861250E-05  1.673967E-08 -9.941166E-09 _shell_0000000310   
       310  10  1.003462E-04  9.000014E+00  7.676572E-08 -2.051132E-05 -8.195451E-15  4.662753E-14 _shell_0000000310   
       310  11  1.001412E-04  9.000015E+00 -2.151797E-08 -2.494266E-05 -5.275832E-15  1.740848E-15 _shell_0000000310   
       310  12  9.986011E-05  9.000015E+00 -8.168611E-08 -3.020437E-05 -7.867600E-15  2.324601E-14 _shell_0000000310   
       310  13  9.416156E-05  9.000017E+00 -4.407374E-09 -2.009160E-05 -9.296185E-16  4.723838E-14 _shell_0000000310   
       310  14  9.286400E-05  9.000017E+00 -6.271932E-08 -2.430828E-05  6.108515E-16 -3.980594E-15 _shell_0000000310   
       310  15  9.152181E-05  9.000017E+00 -9.493411E-09 -2.935533E-05  2.280314E-15  8.281767E-15 _shell_0000000310   
       310  16  8.842015E-05  9.000019E+00  5.343359E-08 -1.962723E-05  4.835825E-16  3.461433E-14 _shell_0000000310   
       310  17  8.600382E-05  9.000019E+00 -2.609660E-08 -2.362924E-05  9.887380E-15 -4.138366E-15 _shell_0000000310   
       310  18  8.357432E-05  9.000019E+00  7.933341E-08 -2.846163E-05  5.571031E-15  6.165730E-16 _shell_0000000310   
       310  19  1.002617E-04  9.000014E+00  5.313578E-08 -2.067097E-05  7.410888E-09  6.833822E-09 _shell_0000000310   
       310  20  1.000845E-04  9.000015E+00 -1.726643E-08 -2.510721E-05 -3.101773E-08  2.662850E-09 _shell_0000000310   
       310  21  9.983130E-05  9.000015E+00 -4.955310E-08 -3.037383E-05 -6.944634E-08  2.995862E-08 _shell_0000000310   
       310  22  9.406840E-05  9.000017E+00 -3.171374E-08 -2.024196E-05  2.192540E-08 -2.934579E-10 _shell_0000000310   
       310  23  9.279873E-05  9.000017E+00 -6.214420E-08 -2.446354E-05 -7.305764E-09 -5.905154E-09 _shell_0000000310   
       310  24  9.148442E-05  9.000017E+00  1.896318E-08 -2.951550E-05 -3.653693E-08  1.994990E-08 _shell_0000000310   
       310  25  8.831841E-05  9.000019E+00  2.245075E-08 -1.976829E-05  2.332779E-08 -7.420749E-09 _shell_0000000310   
       310  26  8.592997E-05  9.000019E+00 -2.919790E-08 -2.377521E-05  3.294074E-09 -1.447316E-08 _shell_0000000310   
       310  27  8.352835E-05  9.000019E+00  1.041136E-07 -2.861250E-05 -1.673966E-08  9.941178E-09 _shell_0000000310   
       311   1  9.965361E-05  9.000015E+00  1.057435E-07 -3.344205E-05  1.161719E-09 -2.116616E-08 _shell_0000000311   
       311   2  9.819996E-05  9.000014E+00  2.070073E-07 -3.626985E-05 -5.482265E-08 -1.477345E-08 _shell_0000000311   
       311   3  9.612837E-05  9.000012E+00  1.221113E-07 -4.002736E-05 -1.108070E-07 -1.190392E-07 _shell_0000000311   
       311   4  8.991830E-05  9.000017E+00 -1.132056E-07 -3.225027E-05 -9.117520E-09 -8.155127E-10 _shell_0000000311   
       311   5  8.708365E-05  9.000015E+00 -1.760534E-08 -3.459924E-05 -4.046317E-08  3.967651E-08 _shell_0000000311   
       311   6  8.374172E-05  9.000012E+00  1.500384E-07 -3.787792E-05 -7.180882E-08 -3.048995E-08 _shell_0000000311   
       311   7  8.146714E-05  9.000019E+00  2.166629E-08 -3.108791E-05  8.683517E-09  1.953515E-08 _shell_0000000311   
       311   8  7.719532E-05  9.000017E+00 -1.943829E-08 -3.295805E-05  1.976561E-09  9.412646E-08 _shell_0000000311   
       311   9  7.252689E-05  9.000013E+00  2.697039E-07 -3.575790E-05 -4.730386E-09  5.805928E-08 _shell_0000000311   
       311  10  9.969947E-05  9.000015E+00  7.215162E-08 -3.320691E-05 -2.195528E-15  1.710354E-14 _shell_0000000311   
       311  11  9.822100E-05  9.000014E+00  1.485966E-07 -3.597474E-05  6.575591E-15 -2.228558E-14 _shell_0000000311   
       311  12  9.612459E-05  9.000011E+00  3.888167E-08 -3.967227E-05  3.547493E-15  1.365072E-14 _shell_0000000311   
       311  13  9.006912E-05  9.000017E+00 -1.018155E-07 -3.202341E-05  1.971880E-15  6.515626E-15 _shell_0000000311   
       311  14  8.720965E-05  9.000015E+00 -3.103410E-08 -3.431240E-05  1.425314E-15 -2.026969E-14 _shell_0000000311   
       311  15  8.384290E-05  9.000012E+00  1.117907E-07 -3.753111E-05  7.471620E-16  2.540831E-14 _shell_0000000311   
       311  16  8.172291E-05  9.000019E+00  7.803836E-08 -3.086932E-05  1.482252E-15  6.108353E-16 _shell_0000000311   
       311  17  7.742628E-05  9.000017E+00  1.211494E-08 -3.267948E-05 -1.419215E-15 -1.248653E-14 _shell_0000000311   
       311  18  7.273302E-05  9.000013E+00  2.764382E-07 -3.541935E-05 -3.079520E-15  1.448774E-14 _shell_0000000311   
       311  19  9.965361E-05  9.000015E+00  1.057434E-07 -3.344205E-05 -1.161715E-09  2.116619E-08 _shell_0000000311   
       311  20  9.819996E-05  9.000014E+00  2.070073E-07 -3.626985E-05  5.482266E-08  1.477341E-08 _shell_0000000311   
       311  21  9.612837E-05  9.000012E+00  1.221113E-07 -4.002736E-05  1.108070E-07  1.190392E-07 _shell_0000000311   
       311  22  8.991830E-05  9.000017E+00 -1.132056E-07 -3.225027E-05  9.117527E-09  8.155225E-10 _shell_0000000311   
       311  23  8.708365E-05  9.000015E+00 -1.760531E-08 -3.459924E-05  4.046318E-08 -3.967655E-08 _shell_0000000311   
       311  24  8.374172E-05  9.000012E+00  1.500384E-07 -3.787792E-05  7.180883E-08  3.048999E-08 _shell_0000000311   
       311  25  8.146714E-05  9.000019E+00  2.166623E-08 -3.108791E-05 -8.683519E-09 -1.953515E-08 _shell_0000000311   
       311  26  7.719532E-05  9.000017E+00 -1.943825E-08 -3.295805E-05 -1.976570E-09 -9.412648E-08 _shell_0000000311   
       311  27  7.252689E-05  9.000013E+00  2.697038E-07 -3.575790E-05  4.730380E-09 -5.805925E-08 _shell_0000000311   
       312   1  9.465511E-05  9.000010E+00  1.854947E-07 -4.135180E-05  3.412167E-09 -1.130704E-07 _shell_0000000312   
       312   2  8.950710E-05  9.000003E+00 -8.767115E-08 -3.822685E-05 -1.185281E-08  5.826152E-08 _shell_0000000312   
       312   3  8.215741E-05  8.999990E+00 -6.859488E-07 -3.489500E-05 -2.711781E-08  1.910565E-07 _shell_0000000312   
       312   4  8.025047E-05  9.000009E+00 -2.685342E-07 -3.847509E-05  4.207125E-08 -4.633469E-08 _shell_0000000312   
       312   5  7.499808E-05  9.000001E+00 -1.562775E-07 -3.500457E-05 -6.835154E-08  1.593569E-08 _shell_0000000312   
       312   6  6.758253E-05  8.999986E+00 -2.792131E-07 -3.132716E-05 -1.787743E-07  3.966920E-08 _shell_0000000312   
       312   7  6.830410E-05  9.000010E+00 -1.486363E-07 -3.592804E-05  1.150214E-07  2.040095E-08 _shell_0000000312   
       312   8  6.287873E-05  9.000000E+00  1.890177E-07 -3.211196E-05 -9.055913E-08 -2.639012E-08 _shell_0000000312   
       312   9  5.532875E-05  8.999983E+00  3.813990E-07 -2.808898E-05 -2.961397E-07 -1.117181E-07 _shell_0000000312   
       312  10  9.535050E-05  9.000010E+00  3.645539E-07 -4.086103E-05 -1.991912E-15  2.748782E-14 _shell_0000000312   
       312  11  9.000265E-05  9.000003E+00 -1.084611E-07 -3.779299E-05 -1.584006E-14 -7.024798E-16 _shell_0000000312   
       312  12  8.245311E-05  8.999989E+00 -9.065879E-07 -3.451806E-05 -1.024797E-14 -4.496401E-15 _shell_0000000312   
       312  13  8.084626E-05  9.000009E+00 -1.321627E-07 -3.805093E-05 -3.066673E-16  2.771680E-14 _shell_0000000312   
       312  14  7.539402E-05  9.000001E+00 -2.197552E-07 -3.463733E-05 -6.922836E-15 -6.423956E-15 _shell_0000000312   
       312  15  6.777862E-05  8.999985E+00 -5.425399E-07 -3.101683E-05 -6.321118E-15 -5.133697E-15 _shell_0000000312   
       312  16  6.880028E-05  9.000010E+00 -5.495262E-08 -3.557049E-05 -6.999221E-16  1.689994E-14 _shell_0000000312   
       312  17  6.317506E-05  8.999999E+00  8.285228E-08 -3.181133E-05  6.461750E-15 -5.258227E-15 _shell_0000000312   
       312  18  5.542523E-05  8.999982E+00  7.538439E-08 -2.784527E-05  7.575671E-15  4.256150E-15 _shell_0000000312   
       312  19  9.465511E-05  9.000010E+00  1.854947E-07 -4.135180E-05 -3.412174E-09  1.130704E-07 _shell_0000000312   
       312  20  8.950710E-05  9.000003E+00 -8.767116E-08 -3.822685E-05  1.185280E-08 -5.826152E-08 _shell_0000000312   
       312  21  8.215741E-05  8.999990E+00 -6.859488E-07 -3.489500E-05  2.711780E-08 -1.910565E-07 _shell_0000000312   
       312  22  8.025047E-05  9.000009E+00 -2.685342E-07 -3.847509E-05 -4.207125E-08  4.633475E-08 _shell_0000000312   
       312  23  7.499808E-05  9.000001E+00 -1.562775E-07 -3.500457E-05  6.835152E-08 -1.593570E-08 _shell_0000000312   
       312  24  6.758253E-05  8.999986E+00 -2.792130E-07 -3.132716E-05  1.787743E-07 -3.966920E-08 _shell_0000000312   
       312  25  6.830410E-05  9.000010E+00 -1.486364E-07 -3.592804E-05 -1.150214E-07 -2.040091E-08 _shell_0000000312   
       312  26  6.287873E-05  9.000000E+00  1.890177E-07 -3.211196E-05  9.055913E-08  2.639012E-08 _shell_0000000312   
       312  27  5.532875E-05  8.999983E+00  3.813990E-07 -2.808898E-05  2.961397E-07  1.117181E-07 _shell_0000000312   
       313   1  7.696755E-05  8.999979E+00 -1.216441E-06 -2.953477E-05  3.991239E-07  9.730750E-08 _shell_0000000313   
       313   2  7.607464E-05  8.999952E+00  1.089231E-06 -1.408063E-05  9.659034E-07 -2.874626E-07 _shell_0000000313   
       313   3  6.789978E-05  8.999904E+00 -6.879634E-09  2.631460E-06  1.532683E-06 -6.020279E-07 _shell_0000000313   
       313   4  6.184073E-05  8.999974E+00 -1.037878E-06 -2.596569E-05  3.401224E-07  7.639365E-10 _shell_0000000313   
       313   5  6.195105E-05  8.999945E+00  1.089257E-06 -1.246876E-05  4.976322E-07 -8.647467E-08 _shell_0000000313   
       313   6  5.470921E-05  8.999895E+00 -3.492024E-07  2.286115E-06  6.551421E-07 -1.035085E-07 _shell_0000000313   
       313   7  4.877304E-05  8.999969E+00 -8.551522E-07 -2.281505E-05  3.708150E-07 -9.577963E-08 _shell_0000000313   
       313   8  4.970720E-05  8.999938E+00  6.748730E-07 -1.127534E-05  1.190553E-07  1.145132E-07 _shell_0000000313   
       313   9  4.321900E-05  8.999886E+00 -1.524507E-06  1.522328E-06 -1.327044E-07  3.950110E-07 _shell_0000000313   
       313  10  7.899384E-05  8.999979E+00 -7.065255E-07 -2.963366E-05 -6.267801E-15  8.144472E-15 _shell_0000000313   
       313  11  7.823385E-05  8.999952E+00  1.732057E-06 -1.451280E-05 -9.012968E-15  2.962550E-15 _shell_0000000313   
       313  12  7.019190E-05  8.999904E+00  7.688576E-07  1.866015E-06 -1.223257E-14 -5.237099E-14 _shell_0000000313   
       313  13  6.328379E-05  8.999973E+00 -7.779223E-07 -2.602027E-05 -1.413196E-15  4.886591E-15 _shell_0000000313   
       313  14  6.352701E-05  8.999945E+00  1.482124E-06 -1.285663E-05  1.844663E-15 -1.371306E-14 _shell_0000000313   
       313  15  5.641809E-05  8.999895E+00  1.765757E-07  1.564973E-06  9.784282E-15 -3.768934E-14 _shell_0000000313   
       313  16  4.963286E-05  8.999968E+00 -8.451554E-07 -2.282533E-05  1.005281E-14  8.144423E-15 _shell_0000000313   
       313  17  5.069993E-05  8.999938E+00  8.177808E-07 -1.161889E-05  1.225870E-14 -1.248642E-14 _shell_0000000313   
       313  18  4.434464E-05  8.999886E+00 -1.248688E-06  8.454906E-07  1.757517E-14 -3.028181E-14 _shell_0000000313   
       313  19  7.696755E-05  8.999979E+00 -1.216441E-06 -2.953477E-05 -3.991239E-07 -9.730751E-08 _shell_0000000313   
       313  20  7.607464E-05  8.999952E+00  1.089231E-06 -1.408063E-05 -9.659034E-07  2.874626E-07 _shell_0000000313   
       313  21  6.789978E-05  8.999904E+00 -6.879575E-09  2.631460E-06 -1.532683E-06  6.020278E-07 _shell_0000000313   
       313  22  6.184073E-05  8.999974E+00 -1.037878E-06 -2.596569E-05 -3.401224E-07 -7.639218E-10 _shell_0000000313   
       313  23  6.195105E-05  8.999945E+00  1.089257E-06 -1.246876E-05 -4.976323E-07  8.647466E-08 _shell_0000000313   
       313  24  5.470921E-05  8.999895E+00 -3.492023E-07  2.286115E-06 -6.551421E-07  1.035084E-07 _shell_0000000313   
       313  25  4.877304E-05  8.999969E+00 -8.551521E-07 -2.281505E-05 -3.708150E-07  9.577964E-08 _shell_0000000313   
       313  26  4.970720E-05  8.999938E+00  6.748730E-07 -1.127534E-05 -1.190553E-07 -1.145133E-07 _shell_0000000313   
       313  27  4.321900E-05  8.999886E+00 -1.524507E-06  1.522328E-06  1.327045E-07 -3.950110E-07 _shell_0000000313   
       314   1  7.716026E-05  8.999860E+00  2.933707E-06  2.303729E-05 -1.957953E-06 -3.002522E-07 _shell_0000000314   
       314   2  9.081309E-05  8.999764E+00  2.296072E-06  8.375337E-06 -6.874243E-06  3.426762E-07 _shell_0000000314   
       314   3  1.079054E-04  8.999678E+00  2.002473E-06 -1.334657E-05 -1.179053E-05 -4.208282E-08 _shell_0000000314   
       314   4  6.414881E-05  8.999854E+00  2.282800E-06  1.510523E-05 -8.117856E-07  1.244064E-07 _shell_0000000314   
       314   5  7.143931E-05  8.999769E+00 -3.137171E-07  3.623870E-06 -3.066622E-06  2.159815E-07 _shell_0000000314   
       314   6  8.319703E-05  8.999696E+00 -1.682607E-07 -1.491743E-05 -5.321458E-06 -7.201310E-07 _shell_0000000314   
       314   7  5.276768E-05  8.999849E+00  1.235219E-06  9.834811E-06 -1.759763E-07  5.490651E-07 _shell_0000000314   
       314   8  5.471657E-05  8.999776E+00 -9.385087E-07  1.534053E-06  2.306413E-07  8.928669E-08 _shell_0000000314   
       314   9  6.216035E-05  8.999717E+00  2.027675E-06 -1.382665E-05  6.372590E-07 -1.398179E-06 _shell_0000000314   
       314  10  6.901485E-05  8.999856E+00 -6.538775E-07  2.225966E-05 -9.577222E-15 -5.293992E-14 _shell_0000000314   
       314  11  8.319572E-05  8.999761E+00 -7.634788E-07  9.979179E-06 -1.068375E-14  4.693083E-15 _shell_0000000314   
       314  12  1.008161E-04  8.999677E+00 -5.290446E-07 -9.361253E-06 -1.538254E-14  2.853991E-14 _shell_0000000314   
       314  13  6.017098E-05  8.999852E+00  4.813199E-07  1.450361E-05  4.835825E-15 -3.748059E-14 _shell_0000000314   
       314  14  6.798952E-05  8.999768E+00 -1.587163E-06  5.403723E-06 -8.360169E-15 -6.716208E-16 _shell_0000000314   
       314  15  8.027526E-05  8.999697E+00 -9.136738E-07 -1.075611E-05 -9.128148E-15  2.784661E-14 _shell_0000000314   
       314  16  5.295743E-05  8.999849E+00  1.219844E-06  9.409202E-06  1.188660E-14 -2.626598E-14 _shell_0000000314   
       314  17  5.543435E-05  8.999777E+00 -4.258501E-07  3.489917E-06  5.690690E-16 -7.192652E-15 _shell_0000000314   
       314  18  6.340616E-05  8.999719E+00  3.068366E-06 -9.489315E-06 -3.646192E-16  2.217430E-14 _shell_0000000314   
       314  19  7.716026E-05  8.999860E+00  2.933707E-06  2.303729E-05  1.957953E-06  3.002521E-07 _shell_0000000314   
       314  20  9.081309E-05  8.999764E+00  2.296072E-06  8.375337E-06  6.874243E-06 -3.426762E-07 _shell_0000000314   
       314  21  1.079054E-04  8.999678E+00  2.002473E-06 -1.334657E-05  1.179053E-05  4.208288E-08 _shell_0000000314   
       314  22  6.414881E-05  8.999854E+00  2.282800E-06  1.510523E-05  8.117856E-07 -1.244065E-07 _shell_0000000314   
       314  23  7.143931E-05  8.999769E+00 -3.137172E-07  3.623870E-06  3.066622E-06 -2.159815E-07 _shell_0000000314   
       314  24  8.319703E-05  8.999696E+00 -1.682608E-07 -1.491743E-05  5.321458E-06  7.201311E-07 _shell_0000000314   
       314  25  5.276768E-05  8.999849E+00  1.235219E-06  9.834811E-06  1.759763E-07 -5.490652E-07 _shell_0000000314   
       314  26  5.471657E-05  8.999776E+00 -9.385087E-07  1.534053E-06 -2.306413E-07 -8.928669E-08 _shell_0000000314   
       314  27  6.216035E-05  8.999717E+00  2.027675E-06 -1.382665E-05 -6.372590E-07  1.398179E-06 _shell_0000000314   
       315   1  8.076833E-05  8.999649E+00 -2.651276E-06 -6.127019E-05 -1.287987E-05  1.219189E-06 _shell_0000000315   
       315   2  5.532275E-05  8.999658E+00  6.940781E-06 -6.064630E-05 -1.730788E-06  3.062583E-06 _shell_0000000315   
       315   3  1.944521E-05  8.999656E+00 -6.258027E-06 -5.199356E-05  9.418299E-06 -5.767447E-07 _shell_0000000315   
       315   4  6.367927E-05  8.999666E+00 -3.564833E-06 -4.602173E-05 -6.353026E-06  3.868690E-07 _shell_0000000315   
       315   5  4.025569E-05  8.999651E+00  2.744619E-06 -4.317968E-05 -1.347043E-06  2.251465E-06 _shell_0000000315   
       315   6  1.188288E-05  8.999629E+00 -9.437731E-07 -3.230877E-05  3.658939E-06 -1.366662E-06 _shell_0000000315   
       315   7  5.243369E-05  8.999687E+00  4.705056E-07 -3.546383E-05  9.985664E-07 -4.454506E-07 _shell_0000000315   
       315   8  2.938262E-05  8.999645E+00 -3.514502E-07 -3.040361E-05 -1.385549E-07  1.440346E-06 _shell_0000000315   
       315   9  6.865037E-06  8.999603E+00  1.621769E-06 -1.731454E-05 -1.275676E-06 -2.156579E-06 _shell_0000000315   
       315  10  8.982606E-05  8.999654E+00  1.520583E-06 -5.487013E-05 -1.076539E-14  1.404954E-14 _shell_0000000315   
       315  11  6.254866E-05  8.999659E+00  9.280818E-06 -5.679754E-05 -6.419918E-15 -2.738618E-15 _shell_0000000315   
       315  12  2.483930E-05  8.999652E+00 -5.749812E-06 -5.069611E-05 -3.373993E-14  3.039779E-14 _shell_0000000315   
       315  13  6.827222E-05  8.999669E+00 -1.306454E-06 -4.023228E-05 -4.455396E-15  1.789216E-14 _shell_0000000315   
       315  14  4.301682E-05  8.999650E+00  3.171176E-06 -3.994153E-05 -1.140230E-14 -3.970766E-15 _shell_0000000315   
       315  15  1.281218E-05  8.999624E+00 -2.349038E-06 -3.162193E-05 -1.986442E-14  1.828688E-14 _shell_0000000315   
       315  16  5.256185E-05  8.999688E+00  8.154037E-07 -3.028498E-05  1.085019E-16  1.812171E-14 _shell_0000000315   
       315  17  2.767895E-05  8.999642E+00 -1.838374E-06 -2.777607E-05  1.629007E-15 -4.732309E-16 _shell_0000000315   
       315  18  3.329550E-06  8.999595E+00 -1.696976E-06 -1.723830E-05  5.434699E-15  1.283338E-14 _shell_0000000315   
       315  19  8.076833E-05  8.999649E+00 -2.651276E-06 -6.127019E-05  1.287987E-05 -1.219189E-06 _shell_0000000315   
       315  20  5.532275E-05  8.999658E+00  6.940781E-06 -6.064630E-05  1.730788E-06 -3.062583E-06 _shell_0000000315   
       315  21  1.944521E-05  8.999656E+00 -6.258027E-06 -5.199356E-05 -9.418299E-06  5.767447E-07 _shell_0000000315   
       315  22  6.367927E-05  8.999666E+00 -3.564833E-06 -4.602173E-05  6.353026E-06 -3.868689E-07 _shell_0000000315   
       315  23  4.025569E-05  8.999651E+00  2.744619E-06 -4.317968E-05  1.347043E-06 -2.251465E-06 _shell_0000000315   
       315  24  1.188288E-05  8.999629E+00 -9.437732E-07 -3.230877E-05 -3.658940E-06  1.366662E-06 _shell_0000000315   
       315  25  5.243369E-05  8.999687E+00  4.705056E-07 -3.546383E-05 -9.985663E-07  4.454507E-07 _shell_0000000315   
       315  26  2.938262E-05  8.999645E+00 -3.514502E-07 -3.040361E-05  1.385549E-07 -1.440346E-06 _shell_0000000315   
       315  27  6.865037E-06  8.999603E+00  1.621769E-06 -1.731454E-05  1.275676E-06  2.156579E-06 _shell_0000000315   
       401   1  2.814958E-06  8.999588E+00  2.375626E-07  1.306910E-05  2.301547E-06  2.855837E-07 _shell_0000000401   
       401   2  2.586852E-05  8.999648E+00  8.303563E-07  2.207863E-05 -2.682389E-07 -3.266934E-07 _shell_0000000401   
       401   3  4.318040E-05  8.999689E+00 -1.246258E-07  2.532589E-05 -2.838025E-06 -4.362913E-07 _shell_0000000401   
       401   4 -5.466627E-07  8.999578E+00 -1.902567E-07  6.570214E-06  1.316145E-06  3.631877E-07 _shell_0000000401   
       401   5  1.724496E-05  8.999645E+00  7.929984E-07  1.467569E-05 -3.387810E-08 -1.796715E-07 _shell_0000000401   
       401   6  2.879223E-05  8.999693E+00 -9.444403E-07  1.701890E-05 -1.383901E-06 -2.198516E-07 _shell_0000000401   
       401   7 -1.156929E-06  8.999569E+00 -1.059321E-06  1.706144E-06  1.625720E-07  4.407916E-07 _shell_0000000401   
       401   8  1.170910E-05  8.999643E+00  1.099191E-06  8.907573E-06  3.231222E-08 -3.264970E-08 _shell_0000000401   
       401   9  1.782809E-05  8.999698E+00 -6.359087E-07  1.034673E-05 -9.794760E-08 -3.411861E-09 _shell_0000000401   
       401  10  6.365598E-07  8.999586E+00 -1.193032E-06  1.206983E-05 -2.130142E-14  1.022656E-14 _shell_0000000401   
       401  11  2.414660E-05  8.999646E+00 -1.437597E-07  2.180568E-05 -1.256641E-14 -9.162610E-15 _shell_0000000401   
       401  12  4.191496E-05  8.999689E+00 -6.422631E-07  2.577925E-05 -1.895836E-15 -2.904682E-14 _shell_0000000401   
       401  13 -1.454005E-06  8.999576E+00 -1.076113E-06  5.723101E-06 -2.265207E-14  2.535115E-15 _shell_0000000401   
       401  14  1.679410E-05  8.999644E+00  3.636206E-07  1.455490E-05 -1.146006E-14 -1.049618E-14 _shell_0000000401   
       401  15  2.879784E-05  8.999693E+00 -9.173394E-07  1.762442E-05  6.737050E-16 -2.359627E-14 _shell_0000000401   
       401  16 -7.932153E-07  8.999568E+00 -1.400439E-06  1.011190E-06 -2.678453E-14  5.044469E-15 _shell_0000000401   
       401  17  1.252930E-05  8.999643E+00  1.214551E-06  8.938937E-06 -1.413767E-14 -9.264414E-15 _shell_0000000401   
       401  18  1.910477E-05  8.999699E+00 -6.406957E-08  1.110441E-05 -1.133203E-14 -2.507175E-14 _shell_0000000401   
       401  19  2.814958E-06  8.999588E+00  2.375626E-07  1.306910E-05 -2.301547E-06 -2.855837E-07 _shell_0000000401   
       401  20  2.586852E-05  8.999648E+00  8.303563E-07  2.207863E-05  2.682389E-07  3.266933E-07 _shell_0000000401   
       401  21  4.318040E-05  8.999689E+00 -1.246257E-07  2.532589E-05  2.838025E-06  4.362913E-07 _shell_0000000401   
       401  22 -5.466627E-07  8.999578E+00 -1.902567E-07  6.570214E-06 -1.316145E-06 -3.631877E-07 _shell_0000000401   
       401  23  1.724496E-05  8.999645E+00  7.929985E-07  1.467569E-05  3.387809E-08  1.796715E-07 _shell_0000000401   
       401  24  2.879223E-05  8.999693E+00 -9.444402E-07  1.701890E-05  1.383901E-06  2.198515E-07 _shell_0000000401   
       401  25 -1.156929E-06  8.999569E+00 -1.059321E-06  1.706144E-06 -1.625721E-07 -4.407916E-07 _shell_0000000401   
       401  26  1.170910E-05  8.999643E+00  1.099191E-06  8.907573E-06 -3.231225E-08  3.264968E-08 _shell_0000000401   
       401  27  1.782809E-05  8.999698E+00 -6.359087E-07  1.034673E-05  9.794758E-08  3.411813E-09 _shell_0000000401   
       402   1  4.939384E-05  8.999717E+00  2.764814E-07  9.641086E-06 -1.970889E-06 -2.313634E-07 _shell_0000000402   
       402   2  4.741824E-05  8.999782E+00  1.452711E-07  7.106601E-07 -9.584858E-07  1.105609E-07 _shell_0000000402   
       402   3  4.711708E-05  8.999850E+00  1.820874E-06 -6.669022E-06  5.391751E-08  2.240901E-07 _shell_0000000402   
       402   4  3.614781E-05  8.999723E+00 -5.294516E-08  7.836782E-06 -8.900261E-07 -3.552021E-08 _shell_0000000402   
       402   5  3.477061E-05  8.999783E+00 -7.138184E-07  1.229132E-06 -4.572994E-07  1.662066E-07 _shell_0000000402   
       402   6  3.529627E-05  8.999847E+00  9.650432E-07 -3.827774E-06 -2.457268E-08  1.395381E-07 _shell_0000000402   
       402   7  2.593644E-05  8.999730E+00  7.061249E-07  5.221681E-06  2.444224E-07  1.603230E-07 _shell_0000000402   
       402   8  2.505049E-05  8.999785E+00 -7.344775E-07  9.368071E-07  9.747255E-08  2.218522E-07 _shell_0000000402   
       402   9  2.629578E-05  8.999845E+00  6.975771E-07 -1.797322E-06 -4.947727E-08  5.498613E-08 _shell_0000000402   
       402  10  5.088284E-05  8.999718E+00  9.689458E-07  1.079498E-05  2.443343E-15 -2.907089E-14 _shell_0000000402   
       402  11  4.862894E-05  8.999782E+00  5.594456E-07  1.515441E-06  2.412682E-15 -2.239735E-15 _shell_0000000402   
       402  12  4.804949E-05  8.999849E+00  1.956758E-06 -6.213350E-06  9.383567E-15  8.239950E-15 _shell_0000000402   
       402  13  3.702586E-05  8.999724E+00  3.776873E-07  8.897909E-06  3.513804E-15 -2.352744E-14 _shell_0000000402   
       402  14  3.537038E-05  8.999783E+00 -5.614759E-07  1.941150E-06 -8.144931E-16 -1.537193E-15 _shell_0000000402   
       402  15  3.561774E-05  8.999846E+00  8.390959E-07 -3.464865E-06  1.508383E-15  4.590292E-15 _shell_0000000402   
       402  16  2.620355E-05  8.999730E+00  8.749255E-07  6.190044E-06 -1.259858E-14 -2.020362E-14 _shell_0000000402   
       402  17  2.503931E-05  8.999785E+00 -8.439669E-07  1.556062E-06 -1.652339E-14 -2.646966E-15 _shell_0000000402   
       402  18  2.600631E-05  8.999844E+00  3.097978E-07 -1.527177E-06 -5.455758E-15  1.168948E-15 _shell_0000000402   
       402  19  4.939384E-05  8.999717E+00  2.764815E-07  9.641086E-06  1.970889E-06  2.313634E-07 _shell_0000000402   
       402  20  4.741824E-05  8.999782E+00  1.452711E-07  7.106601E-07  9.584858E-07 -1.105609E-07 _shell_0000000402   
       402  21  4.711708E-05  8.999850E+00  1.820874E-06 -6.669022E-06 -5.391751E-08 -2.240901E-07 _shell_0000000402   
       402  22  3.614781E-05  8.999723E+00 -5.294517E-08  7.836782E-06  8.900262E-07  3.552018E-08 _shell_0000000402   
       402  23  3.477061E-05  8.999783E+00 -7.138184E-07  1.229132E-06  4.572994E-07 -1.662065E-07 _shell_0000000402   
       402  24  3.529627E-05  8.999847E+00  9.650433E-07 -3.827774E-06  2.457269E-08 -1.395381E-07 _shell_0000000402   
       402  25  2.593644E-05  8.999730E+00  7.061249E-07  5.221680E-06 -2.444224E-07 -1.603230E-07 _shell_0000000402   
       402  26  2.505049E-05  8.999785E+00 -7.344775E-07  9.368071E-07 -9.747258E-08 -2.218522E-07 _shell_0000000402   
       402  27  2.629578E-05  8.999845E+00  6.975771E-07 -1.797322E-06  4.947725E-08 -5.498613E-08 _shell_0000000402   
       403   1  3.751471E-05  8.999883E+00 -1.845125E-06 -1.286606E-06  3.204854E-07  9.529439E-08 _shell_0000000403   
       403   2  4.273338E-05  8.999933E+00 -3.520860E-07  9.837713E-06 -3.130855E-08 -1.112744E-07 _shell_0000000403   
       403   3  4.234659E-05  8.999966E+00 -9.202942E-07  2.095081E-05 -3.831025E-07 -4.693492E-09 _shell_0000000403   
       403   4  2.926998E-05  8.999880E+00 -1.030451E-06 -2.306958E-09  2.350971E-07 -1.281563E-08 _shell_0000000403   
       403   5  3.429736E-05  8.999930E+00  5.397148E-07  9.072896E-06 -5.119399E-08 -1.601439E-07 _shell_0000000403   
       403   6  3.340612E-05  8.999962E+00 -6.820487E-07  1.813688E-05 -3.374851E-07  5.677532E-09 _shell_0000000403   
       403   7  2.190356E-05  8.999878E+00 -5.178308E-07  1.160465E-06  1.485521E-07 -1.209257E-07 _shell_0000000403   
       403   8  2.674194E-05  8.999927E+00  1.134861E-06  8.186552E-06 -7.223620E-08 -2.090134E-07 _shell_0000000403   
       403   9  2.534857E-05  8.999958E+00 -7.350598E-07  1.520142E-05 -2.930245E-07  1.604855E-08 _shell_0000000403   
       403  10  3.827505E-05  8.999882E+00 -1.817745E-06 -1.225147E-06  9.098214E-15  4.584297E-17 _shell_0000000403   
       403  11  4.356297E-05  8.999932E+00 -2.554574E-07  9.830868E-06  5.301383E-15 -7.228337E-15 _shell_0000000403   
       403  12  4.324543E-05  8.999966E+00 -7.544173E-07  2.087567E-05  1.350721E-14  5.694785E-15 _shell_0000000403   
       403  13  2.991080E-05  8.999879E+00 -1.054299E-06  8.223488E-08  2.853588E-15  3.349545E-15 _shell_0000000403   
       403  14  3.500742E-05  8.999929E+00  5.851154E-07  9.089134E-06  4.072244E-15 -5.609490E-15 _shell_0000000403   
       403  15  3.418543E-05  8.999962E+00 -5.673998E-07  1.808482E-05  6.883924E-15  6.131326E-15 _shell_0000000403   
       403  16  2.242484E-05  8.999877E+00 -5.929066E-07  1.268089E-06 -6.609708E-16  2.193906E-15 _shell_0000000403   
       403  17  2.733247E-05  8.999926E+00  1.129033E-06  8.225873E-06 -1.125936E-15 -7.126925E-16 _shell_0000000403   
       403  18  2.600835E-05  8.999958E+00 -6.716390E-07  1.517244E-05  8.842928E-16  8.880822E-15 _shell_0000000403   
       403  19  3.751471E-05  8.999883E+00 -1.845125E-06 -1.286606E-06 -3.204854E-07 -9.529438E-08 _shell_0000000403   
       403  20  4.273338E-05  8.999933E+00 -3.520860E-07  9.837713E-06  3.130856E-08  1.112744E-07 _shell_0000000403   
       403  21  4.234659E-05  8.999966E+00 -9.202941E-07  2.095081E-05  3.831025E-07  4.693499E-09 _shell_0000000403   
       403  22  2.926998E-05  8.999880E+00 -1.030451E-06 -2.306991E-09 -2.350971E-07  1.281564E-08 _shell_0000000403   
       403  23  3.429736E-05  8.999930E+00  5.397149E-07  9.072896E-06  5.119401E-08  1.601439E-07 _shell_0000000403   
       403  24  3.340612E-05  8.999962E+00 -6.820486E-07  1.813688E-05  3.374851E-07 -5.677529E-09 _shell_0000000403   
       403  25  2.190356E-05  8.999878E+00 -5.178309E-07  1.160465E-06 -1.485521E-07  1.209257E-07 _shell_0000000403   
       403  26  2.674194E-05  8.999927E+00  1.134861E-06  8.186552E-06  7.223619E-08  2.090134E-07 _shell_0000000403   
       403  27  2.534857E-05  8.999958E+00 -7.350598E-07  1.520142E-05  2.930245E-07 -1.604854E-08 _shell_0000000403   
       404   1  4.917121E-05  8.999982E+00  7.958713E-07  2.626050E-05  3.215133E-07  5.741490E-08 _shell_0000000404   
       404   2  5.671059E-05  8.999999E+00  4.449162E-07  3.012004E-05  9.231760E-08 -1.535539E-08 _shell_0000000404   
       404   3  6.183882E-05  9.000009E+00 -3.364235E-07  3.377475E-05 -1.368781E-07 -5.324887E-08 _shell_0000000404   
       404   4  3.860582E-05  8.999977E+00  1.562589E-07  2.270414E-05  3.001575E-07  8.547224E-08 _shell_0000000404   
       404   5  4.656196E-05  8.999997E+00  1.398111E-07  2.648428E-05  8.496634E-08  1.424030E-08 _shell_0000000404   
       404   6  5.207207E-05  9.000008E+00 -3.884004E-07  3.005960E-05 -1.302248E-07 -2.211483E-08 _shell_0000000404   
       404   7  2.983570E-05  8.999973E+00 -3.594480E-07  1.947795E-05  2.581644E-07  1.135296E-07 _shell_0000000404   
       404   8  3.824986E-05  8.999995E+00  5.491892E-08  2.317870E-05  5.697781E-08  4.383599E-08 _shell_0000000404   
       404   9  4.418313E-05  9.000008E+00 -1.238571E-07  2.667463E-05 -1.442087E-07  9.019207E-09 _shell_0000000404   
       404  10  4.949562E-05  8.999981E+00  7.350844E-07  2.605451E-05  1.334638E-14  4.582983E-17 _shell_0000000404   
       404  11  5.708316E-05  8.999999E+00  4.322940E-07  2.991147E-05  5.939188E-15 -6.719267E-15 _shell_0000000404   
       404  12  6.225956E-05  9.000009E+00 -3.008812E-07  3.356361E-05  3.883597E-15  2.816863E-14 _shell_0000000404   
       404  13  3.892572E-05  8.999977E+00  9.354052E-08  2.251420E-05  9.015941E-15  1.147123E-16 _shell_0000000404   
       404  14  4.693002E-05  8.999996E+00  1.252574E-07  2.629178E-05  2.389408E-15 -8.839434E-15 _shell_0000000404   
       404  15  5.248830E-05  9.000008E+00 -3.547896E-07  2.986452E-05  2.353521E-15  2.242042E-14 _shell_0000000404   
       404  16  3.015109E-05  8.999973E+00 -4.240978E-07  1.930407E-05 -2.241254E-15  6.877019E-15 _shell_0000000404   
       404  17  3.861342E-05  8.999994E+00  3.843363E-08  2.300225E-05  6.721965E-16 -6.821066E-15 _shell_0000000404   
       404  18  4.459485E-05  9.000008E+00 -9.217780E-08  2.649561E-05  7.132866E-15  1.806886E-14 _shell_0000000404   
       404  19  4.917121E-05  8.999982E+00  7.958713E-07  2.626050E-05 -3.215133E-07 -5.741489E-08 _shell_0000000404   
       404  20  5.671059E-05  8.999999E+00  4.449162E-07  3.012004E-05 -9.231758E-08  1.535539E-08 _shell_0000000404   
       404  21  6.183882E-05  9.000009E+00 -3.364235E-07  3.377475E-05  1.368781E-07  5.324893E-08 _shell_0000000404   
       404  22  3.860582E-05  8.999977E+00  1.562589E-07  2.270414E-05 -3.001575E-07 -8.547223E-08 _shell_0000000404   
       404  23  4.656196E-05  8.999997E+00  1.398111E-07  2.648428E-05 -8.496634E-08 -1.424032E-08 _shell_0000000404   
       404  24  5.207207E-05  9.000008E+00 -3.884004E-07  3.005960E-05  1.302248E-07  2.211488E-08 _shell_0000000404   
       404  25  2.983570E-05  8.999973E+00 -3.594480E-07  1.947795E-05 -2.581644E-07 -1.135296E-07 _shell_0000000404   
       404  26  3.824986E-05  8.999995E+00  5.491894E-08  2.317870E-05 -5.697781E-08 -4.383601E-08 _shell_0000000404   
       404  27  4.418313E-05  9.000008E+00 -1.238571E-07  2.667463E-05  1.442087E-07 -9.019161E-09 _shell_0000000404   
       405   1  6.632433E-05  9.000013E+00  5.831179E-08  3.391512E-05 -4.754275E-09 -4.266467E-08 _shell_0000000405   
       405   2  7.190518E-05  9.000018E+00  2.534812E-08  3.165205E-05 -8.225197E-09 -1.728050E-08 _shell_0000000405   
       405   3  7.674814E-05  9.000020E+00  4.013727E-08  2.979503E-05 -1.169612E-08 -3.274704E-08 _shell_0000000405   
       405   4  5.721017E-05  9.000013E+00  1.512374E-07  3.048619E-05  3.195534E-08 -1.180233E-08 _shell_0000000405   
       405   5  6.340976E-05  9.000018E+00 -7.609318E-08  2.862703E-05  1.496634E-08  1.110967E-08 _shell_0000000405   
       405   6  6.891230E-05  9.000021E+00 -1.603525E-07  2.717392E-05 -2.022649E-09 -6.829052E-09 _shell_0000000405   
       405   7  4.934703E-05  9.000014E+00  3.422395E-07  2.712841E-05  4.403199E-08  1.905996E-08 _shell_0000000405   
       405   8  5.621462E-05  9.000019E+00  3.549597E-08  2.567316E-05  1.352491E-08  3.949981E-08 _shell_0000000405   
       405   9  6.242601E-05  9.000023E+00 -3.285786E-08  2.462396E-05 -1.698215E-08  1.908892E-08 _shell_0000000405   
       405  10  6.648244E-05  9.000013E+00 -1.933970E-09  3.370630E-05  3.052683E-15  3.018066E-14 _shell_0000000405   
       405  11  7.211594E-05  9.000018E+00  1.774537E-08  3.144842E-05  1.682840E-15  6.108439E-16 _shell_0000000405   
       405  12  7.701154E-05  9.000020E+00  8.517747E-08  2.959658E-05  4.522984E-15  6.967379E-15 _shell_0000000405   
       405  13  5.737735E-05  9.000013E+00  9.487693E-08  3.029492E-05  2.392443E-15  2.614934E-14 _shell_0000000405   
       405  14  6.362958E-05  9.000018E+00 -7.981059E-08  2.844095E-05  4.611441E-16  2.993176E-15 _shell_0000000405   
       405  15  6.918477E-05  9.000021E+00 -1.114269E-07  2.699302E-05 -1.557421E-16  2.977762E-15 _shell_0000000405   
       405  16  4.952328E-05  9.000013E+00  2.897644E-07  2.695469E-05  8.131831E-15  3.069983E-14 _shell_0000000405   
       405  17  5.644351E-05  9.000019E+00  3.566391E-08  2.550463E-05  1.805556E-15  1.272585E-14 _shell_0000000405   
       405  18  6.270754E-05  9.000023E+00  1.995308E-08  2.446061E-05 -2.574815E-16  4.452185E-15 _shell_0000000405   
       405  19  6.632433E-05  9.000013E+00  5.831183E-08  3.391512E-05  4.754282E-09  4.266473E-08 _shell_0000000405   
       405  20  7.190518E-05  9.000018E+00  2.534813E-08  3.165205E-05  8.225205E-09  1.728050E-08 _shell_0000000405   
       405  21  7.674814E-05  9.000020E+00  4.013728E-08  2.979503E-05  1.169613E-08  3.274705E-08 _shell_0000000405   
       405  22  5.721017E-05  9.000013E+00  1.512373E-07  3.048619E-05 -3.195534E-08  1.180241E-08 _shell_0000000405   
       405  23  6.340976E-05  9.000018E+00 -7.609316E-08  2.862703E-05 -1.496634E-08 -1.110966E-08 _shell_0000000405   
       405  24  6.891230E-05  9.000021E+00 -1.603525E-07  2.717392E-05  2.022653E-09  6.829057E-09 _shell_0000000405   
       405  25  4.934703E-05  9.000014E+00  3.422395E-07  2.712841E-05 -4.403197E-08 -1.905990E-08 _shell_0000000405   
       405  26  5.621462E-05  9.000019E+00  3.549599E-08  2.567316E-05 -1.352491E-08 -3.949979E-08 _shell_0000000405   
       405  27  6.242601E-05  9.000023E+00 -3.285786E-08  2.462396E-05  1.698215E-08 -1.908892E-08 _shell_0000000405   
       406   1  7.912509E-05  9.000020E+00  9.937863E-08  2.745143E-05 -1.162468E-08 -3.305113E-08 _shell_0000000406   
       406   2  8.214741E-05  9.000021E+00  2.826319E-08  2.302293E-05  7.409215E-09 -1.166284E-08 _shell_0000000406   
       406   3  8.506572E-05  9.000020E+00  7.513923E-08  1.912215E-05  2.644312E-08 -2.033248E-08 _shell_0000000406   
       406   4  7.219062E-05  9.000022E+00  6.695449E-08  2.517707E-05 -1.251639E-08 -8.572253E-09 _shell_0000000406   
       406   5  7.591617E-05  9.000022E+00 -8.429701E-08  2.115189E-05  1.227902E-08  1.034267E-08 _shell_0000000406   
       406   6  7.956775E-05  9.000022E+00 -4.742187E-08  1.765443E-05  3.707444E-08 -8.003278E-10 _shell_0000000406   
       406   7  6.600908E-05  9.000024E+00  1.463811E-07  2.289319E-05 -2.446306E-08  1.590659E-08 _shell_0000000406   
       406   8  7.045995E-05  9.000024E+00 -3.341673E-08  1.927134E-05  6.093886E-09  3.234817E-08 _shell_0000000406   
       406   9  7.486693E-05  9.000025E+00  4.504725E-08  1.617720E-05  3.665084E-08  1.873181E-08 _shell_0000000406   
       406  10  7.916235E-05  9.000020E+00  5.993099E-08  2.730520E-05  4.647957E-15  7.986772E-15 _shell_0000000406   
       406  11  8.220677E-05  9.000021E+00  1.090669E-08  2.289230E-05 -5.959794E-16  3.665048E-15 _shell_0000000406   
       406  12  8.514717E-05  9.000020E+00  7.987382E-08  1.900711E-05  2.223247E-15  2.239111E-14 _shell_0000000406   
       406  13  7.225518E-05  9.000022E+00  3.920155E-08  2.503820E-05 -5.599489E-16  9.167763E-17 _shell_0000000406   
       406  14  7.600281E-05  9.000022E+00 -8.995885E-08  2.102862E-05 -1.425305E-15 -4.364818E-15 _shell_0000000406   
       406  15  7.967649E-05  9.000022E+00 -3.099262E-08  1.754675E-05  3.992890E-15  8.475335E-15 _shell_0000000406   
       406  16  6.610092E-05  9.000024E+00  1.303228E-07  2.276169E-05 -9.259539E-16  2.804752E-15 _shell_0000000406   
       406  17  7.057389E-05  9.000024E+00 -2.738393E-08  1.915543E-05 -2.723990E-16 -3.054216E-16 _shell_0000000406   
       406  18  7.500295E-05  9.000024E+00  7.317117E-08  1.607688E-05  3.083365E-15  7.811809E-15 _shell_0000000406   
       406  19  7.912509E-05  9.000020E+00  9.937860E-08  2.745143E-05  1.162468E-08  3.305114E-08 _shell_0000000406   
       406  20  8.214741E-05  9.000021E+00  2.826314E-08  2.302293E-05 -7.409220E-09  1.166286E-08 _shell_0000000406   
       406  21  8.506572E-05  9.000020E+00  7.513921E-08  1.912215E-05 -2.644311E-08  2.033252E-08 _shell_0000000406   
       406  22  7.219062E-05  9.000022E+00  6.695447E-08  2.517707E-05  1.251639E-08  8.572274E-09 _shell_0000000406   
       406  23  7.591617E-05  9.000022E+00 -8.429701E-08  2.115189E-05 -1.227902E-08 -1.034267E-08 _shell_0000000406   
       406  24  7.956775E-05  9.000022E+00 -4.742189E-08  1.765443E-05 -3.707445E-08  8.003500E-10 _shell_0000000406   
       406  25  6.600908E-05  9.000024E+00  1.463811E-07  2.289319E-05  2.446306E-08 -1.590658E-08 _shell_0000000406   
       406  26  7.045995E-05  9.000024E+00 -3.341671E-08  1.927134E-05 -6.093896E-09 -3.234817E-08 _shell_0000000406   
       406  27  7.486693E-05  9.000025E+00  4.504729E-08  1.617720E-05 -3.665084E-08 -1.873180E-08 _shell_0000000406   
       407   1  8.623199E-05  9.000020E+00  6.127111E-08  1.631974E-05 -3.921677E-08 -2.273905E-08 _shell_0000000407   
       407   2  8.747108E-05  9.000019E+00 -1.222259E-08  1.163843E-05 -2.567625E-09 -1.130706E-08 _shell_0000000407   
       407   3  8.886188E-05  9.000019E+00  7.519625E-08  7.279867E-06  3.408153E-08 -1.284145E-08 _shell_0000000407   
       407   4  8.131120E-05  9.000022E+00  3.536039E-08  1.511060E-05 -4.302058E-08 -4.505628E-09 _shell_0000000407   
       407   5  8.295119E-05  9.000021E+00 -8.098718E-08  1.077376E-05  1.646587E-09  4.936683E-09 _shell_0000000407   
       407   6  8.475586E-05  9.000021E+00 -6.167361E-09  6.759666E-06  4.631377E-08  1.412622E-09 _shell_0000000407   
       407   7  7.685197E-05  9.000024E+00  9.908929E-08  1.387707E-05 -5.239441E-08  1.372780E-08 _shell_0000000407   
       407   8  7.890401E-05  9.000024E+00 -3.411882E-08  9.884702E-06  2.907921E-10  2.118043E-08 _shell_0000000407   
       407   9  8.113368E-05  9.000023E+00  5.409545E-08  6.215080E-06  5.297598E-08  1.566665E-08 _shell_0000000407   
       407  10  8.624125E-05  9.000020E+00  4.045062E-08  1.624859E-05  3.852907E-15  1.857469E-14 _shell_0000000407   
       407  11  8.749063E-05  9.000019E+00 -2.274889E-08  1.157815E-05  1.106222E-16  7.126528E-16 _shell_0000000407   
       407  12  8.889173E-05  9.000019E+00  7.496405E-08  7.230467E-06 -9.387518E-16  3.073262E-15 _shell_0000000407   
       407  13  8.133949E-05  9.000022E+00  2.269687E-08  1.504288E-05  4.753413E-15  5.818315E-15 _shell_0000000407   
       407  14  8.298978E-05  9.000021E+00 -8.335655E-08  1.071691E-05  6.324123E-15 -6.423963E-15 _shell_0000000407   
       407  15  8.480474E-05  9.000021E+00  1.757397E-09  6.713698E-06  4.305877E-15 -1.288110E-14 _shell_0000000407   
       407  16  7.689929E-05  9.000024E+00  9.458270E-08  1.381278E-05  5.729664E-15  1.054207E-14 _shell_0000000407   
       407  17  7.896162E-05  9.000024E+00 -2.833126E-08  9.831289E-06  4.048335E-15 -3.868660E-15 _shell_0000000407   
       407  18  8.120159E-05  9.000023E+00  7.017713E-08  6.172543E-06  4.969823E-15 -1.977785E-14 _shell_0000000407   
       407  19  8.623199E-05  9.000020E+00  6.127107E-08  1.631974E-05  3.921677E-08  2.273910E-08 _shell_0000000407   
       407  20  8.747108E-05  9.000019E+00 -1.222263E-08  1.163843E-05  2.567619E-09  1.130706E-08 _shell_0000000407   
       407  21  8.886188E-05  9.000019E+00  7.519619E-08  7.279867E-06 -3.408153E-08  1.284144E-08 _shell_0000000407   
       407  22  8.131120E-05  9.000022E+00  3.536037E-08  1.511060E-05  4.302059E-08  4.505647E-09 _shell_0000000407   
       407  23  8.295119E-05  9.000021E+00 -8.098719E-08  1.077376E-05 -1.646587E-09 -4.936696E-09 _shell_0000000407   
       407  24  8.475586E-05  9.000021E+00 -6.167407E-09  6.759666E-06 -4.631375E-08 -1.412643E-09 _shell_0000000407   
       407  25  7.685197E-05  9.000024E+00  9.908928E-08  1.387707E-05  5.239442E-08 -1.372778E-08 _shell_0000000407   
       407  26  7.890401E-05  9.000024E+00 -3.411879E-08  9.884702E-06 -2.907733E-10 -2.118044E-08 _shell_0000000407   
       407  27  8.113368E-05  9.000023E+00  5.409544E-08  6.215080E-06 -5.297597E-08 -1.566670E-08 _shell_0000000407   
       408   1  8.921189E-05  9.000019E+00  6.950195E-08  4.497918E-06 -3.326583E-08 -1.349100E-08 _shell_0000000408   
       408   2  8.910229E-05  9.000019E+00 -1.601350E-08 -1.639090E-14  5.802990E-15 -1.014229E-08 _shell_0000000408   
       408   3  8.921189E-05  9.000019E+00  6.950192E-08 -4.497918E-06  3.326583E-08 -1.349103E-08 _shell_0000000408   
       408   4  8.530084E-05  9.000021E+00  1.680838E-08  4.181697E-06 -4.478968E-08  1.840675E-10 _shell_0000000408   
       408   5  8.518790E-05  9.000021E+00 -7.652074E-08 -1.463473E-14 -2.704244E-15  3.532784E-09 _shell_0000000408   
       408   6  8.530084E-05  9.000021E+00  1.680835E-08 -4.181697E-06  4.478967E-08  1.840664E-10 _shell_0000000408   
       408   7  8.176299E-05  9.000023E+00  6.449277E-08  3.865475E-06 -5.631352E-08  1.385912E-08 _shell_0000000408   
       408   8  8.164670E-05  9.000023E+00 -3.665005E-08 -2.881134E-14 -6.677893E-15  1.720787E-08 _shell_0000000408   
       408   9  8.176299E-05  9.000023E+00  6.449273E-08 -3.865475E-06  5.631352E-08  1.385914E-08 _shell_0000000408   
       408  10  8.921205E-05  9.000019E+00  5.826236E-08  4.486763E-06  2.866450E-16  6.357864E-15 _shell_0000000408   
       408  11  8.910246E-05  9.000019E+00 -2.725298E-08 -3.003302E-14  6.774692E-15  1.934330E-15 _shell_0000000408   
       408  12  8.921205E-05  9.000019E+00  5.826240E-08 -4.486763E-06  4.373285E-15  9.028962E-15 _shell_0000000408   
       408  13  8.532053E-05  9.000021E+00  1.393467E-08  4.170542E-06  3.690497E-15 -1.049623E-14 _shell_0000000408   
       408  14  8.520759E-05  9.000021E+00 -7.939442E-08 -1.822343E-14  3.614143E-15 -1.130004E-15 _shell_0000000408   
       408  15  8.532053E-05  9.000021E+00  1.393468E-08 -4.170542E-06  9.544395E-16  8.094757E-16 _shell_0000000408   
       408  16  8.180220E-05  9.000023E+00  6.998486E-08  3.854321E-06  5.118821E-15 -1.226266E-14 _shell_0000000408   
       408  17  8.168591E-05  9.000023E+00 -3.115793E-08 -1.954691E-14  2.736950E-15  6.413831E-15 _shell_0000000408   
       408  18  8.180220E-05  9.000023E+00  6.998486E-08 -3.854321E-06  9.036042E-16 -2.547038E-15 _shell_0000000408   
       408  19  8.921189E-05  9.000019E+00  6.950190E-08  4.497918E-06  3.326582E-08  1.349101E-08 _shell_0000000408   
       408  20  8.910229E-05  9.000019E+00 -1.601351E-08 -2.881134E-14  6.261121E-15  1.014230E-08 _shell_0000000408   
       408  21  8.921189E-05  9.000019E+00  6.950190E-08 -4.497918E-06 -3.326582E-08  1.349105E-08 _shell_0000000408   
       408  22  8.530084E-05  9.000021E+00  1.680834E-08  4.181697E-06  4.478968E-08 -1.840773E-10 _shell_0000000408   
       408  23  8.518790E-05  9.000021E+00 -7.652073E-08 -1.425296E-14  2.545171E-15 -3.532790E-09 _shell_0000000408   
       408  24  8.530084E-05  9.000021E+00  1.680833E-08 -4.181697E-06 -4.478968E-08 -1.840589E-10 _shell_0000000408   
       408  25  8.176299E-05  9.000023E+00  6.449273E-08  3.865475E-06  5.631353E-08 -1.385915E-08 _shell_0000000408   
       408  26  8.164670E-05  9.000023E+00 -3.665007E-08 -2.774237E-14  5.599376E-16 -1.720786E-08 _shell_0000000408   
       408  27  8.176299E-05  9.000023E+00  6.449269E-08 -3.865476E-06 -5.631352E-08 -1.385914E-08 _shell_0000000408   
       409   1  8.886188E-05  9.000019E+00  7.519622E-08 -7.279867E-06 -3.408153E-08 -1.284148E-08 _shell_0000000409   
       409   2  8.747108E-05  9.000019E+00 -1.222262E-08 -1.163843E-05  2.567612E-09 -1.130709E-08 _shell_0000000409   
       409   3  8.623199E-05  9.000020E+00  6.127109E-08 -1.631974E-05  3.921675E-08 -2.273906E-08 _shell_0000000409   
       409   4  8.475586E-05  9.000021E+00 -6.167399E-09 -6.759666E-06 -4.631376E-08  1.412613E-09 _shell_0000000409   
       409   5  8.295119E-05  9.000021E+00 -8.098720E-08 -1.077376E-05 -1.646595E-09  4.936680E-09 _shell_0000000409   
       409   6  8.131120E-05  9.000022E+00  3.536040E-08 -1.511060E-05  4.302057E-08 -4.505617E-09 _shell_0000000409   
       409   7  8.113368E-05  9.000023E+00  5.409540E-08 -6.215080E-06 -5.297597E-08  1.566668E-08 _shell_0000000409   
       409   8  7.890401E-05  9.000024E+00 -3.411884E-08 -9.884702E-06 -2.907726E-10  2.118044E-08 _shell_0000000409   
       409   9  7.685197E-05  9.000024E+00  9.908929E-08 -1.387707E-05  5.239441E-08  1.372782E-08 _shell_0000000409   
       409  10  8.889173E-05  9.000019E+00  7.496405E-08 -7.230467E-06 -1.456796E-15  4.118111E-15 _shell_0000000409   
       409  11  8.749063E-05  9.000019E+00 -2.274889E-08 -1.157815E-05 -1.953732E-15  1.527104E-15 _shell_0000000409   
       409  12  8.624125E-05  9.000020E+00  4.045061E-08 -1.624859E-05 -3.751549E-15  2.773597E-14 _shell_0000000409   
       409  13  8.480474E-05  9.000021E+00  1.757395E-09 -6.713698E-06 -2.175496E-15 -4.006050E-15 _shell_0000000409   
       409  14  8.298978E-05  9.000021E+00 -8.335656E-08 -1.071691E-05 -3.054165E-16 -4.845954E-15 _shell_0000000409   
       409  15  8.133949E-05  9.000022E+00  2.269689E-08 -1.504288E-05 -3.629971E-16  1.417163E-14 _shell_0000000409   
       409  16  8.120159E-05  9.000023E+00  7.017711E-08 -6.172543E-06  1.336214E-15 -8.190387E-15 _shell_0000000409   
       409  17  7.896162E-05  9.000024E+00 -2.833126E-08 -9.831289E-06  3.060258E-15 -4.174079E-15 _shell_0000000409   
       409  18  7.689929E-05  9.000024E+00  9.458270E-08 -1.381278E-05 -2.982963E-16  1.132414E-14 _shell_0000000409   
       409  19  8.886188E-05  9.000019E+00  7.519621E-08 -7.279867E-06  3.408154E-08  1.284148E-08 _shell_0000000409   
       409  20  8.747108E-05  9.000019E+00 -1.222265E-08 -1.163843E-05 -2.567627E-09  1.130708E-08 _shell_0000000409   
       409  21  8.623199E-05  9.000020E+00  6.127103E-08 -1.631974E-05 -3.921677E-08  2.273911E-08 _shell_0000000409   
       409  22  8.475586E-05  9.000021E+00 -6.167423E-09 -6.759666E-06  4.631376E-08 -1.412615E-09 _shell_0000000409   
       409  23  8.295119E-05  9.000021E+00 -8.098721E-08 -1.077376E-05  1.646587E-09 -4.936700E-09 _shell_0000000409   
       409  24  8.131120E-05  9.000022E+00  3.536038E-08 -1.511060E-05 -4.302057E-08  4.505646E-09 _shell_0000000409   
       409  25  8.113368E-05  9.000023E+00  5.409538E-08 -6.215080E-06  5.297597E-08 -1.566669E-08 _shell_0000000409   
       409  26  7.890401E-05  9.000024E+00 -3.411885E-08 -9.884702E-06  2.907699E-10 -2.118045E-08 _shell_0000000409   
       409  27  7.685197E-05  9.000024E+00  9.908928E-08 -1.387707E-05 -5.239441E-08 -1.372779E-08 _shell_0000000409   
       410   1  8.506572E-05  9.000020E+00  7.513924E-08 -1.912215E-05 -2.644312E-08 -2.033248E-08 _shell_0000000410   
       410   2  8.214741E-05  9.000021E+00  2.826316E-08 -2.302293E-05 -7.409217E-09 -1.166287E-08 _shell_0000000410   
       410   3  7.912509E-05  9.000020E+00  9.937860E-08 -2.745143E-05  1.162467E-08 -3.305115E-08 _shell_0000000410   
       410   4  7.956775E-05  9.000022E+00 -4.742186E-08 -1.765443E-05 -3.707444E-08 -8.003172E-10 _shell_0000000410   
       410   5  7.591617E-05  9.000022E+00 -8.429701E-08 -2.115189E-05 -1.227902E-08  1.034265E-08 _shell_0000000410   
       410   6  7.219062E-05  9.000022E+00  6.695447E-08 -2.517707E-05  1.251639E-08 -8.572260E-09 _shell_0000000410   
       410   7  7.486693E-05  9.000025E+00  4.504726E-08 -1.617720E-05 -3.665084E-08  1.873183E-08 _shell_0000000410   
       410   8  7.045995E-05  9.000024E+00 -3.341673E-08 -1.927134E-05 -6.093885E-09  3.234816E-08 _shell_0000000410   
       410   9  6.600908E-05  9.000024E+00  1.463811E-07 -2.289319E-05  2.446307E-08  1.590659E-08 _shell_0000000410   
       410  10  8.514717E-05  9.000020E+00  7.987380E-08 -1.900711E-05  9.289909E-16  2.366503E-14 _shell_0000000410   
       410  11  8.220677E-05  9.000021E+00  1.090669E-08 -2.289230E-05  1.111510E-14 -7.431896E-15 _shell_0000000410   
       410  12  7.916235E-05  9.000020E+00  5.993103E-08 -2.730520E-05  4.349210E-15  4.345847E-15 _shell_0000000410   
       410  13  7.967649E-05  9.000022E+00 -3.099262E-08 -1.754675E-05  3.448095E-15  1.149405E-14 _shell_0000000410   
       410  14  7.600281E-05  9.000022E+00 -8.995885E-08 -2.102862E-05  7.330102E-15 -9.223649E-15 _shell_0000000410   
       410  15  7.225518E-05  9.000022E+00  3.920154E-08 -2.503820E-05  5.970837E-15  7.765136E-15 _shell_0000000410   
       410  16  7.500295E-05  9.000024E+00  7.317116E-08 -1.607688E-05  8.399030E-16  1.115291E-14 _shell_0000000410   
       410  17  7.057389E-05  9.000024E+00 -2.738394E-08 -1.915543E-05  7.036784E-15 -5.395761E-15 _shell_0000000410   
       410  18  6.610092E-05  9.000024E+00  1.303228E-07 -2.276169E-05  4.438448E-15  1.152776E-14 _shell_0000000410   
       410  19  8.506572E-05  9.000020E+00  7.513920E-08 -1.912215E-05  2.644312E-08  2.033252E-08 _shell_0000000410   
       410  20  8.214741E-05  9.000021E+00  2.826316E-08 -2.302293E-05  7.409235E-09  1.166285E-08 _shell_0000000410   
       410  21  7.912509E-05  9.000020E+00  9.937864E-08 -2.745143E-05 -1.162465E-08  3.305114E-08 _shell_0000000410   
       410  22  7.956775E-05  9.000022E+00 -4.742188E-08 -1.765443E-05  3.707445E-08  8.003514E-10 _shell_0000000410   
       410  23  7.591617E-05  9.000022E+00 -8.429701E-08 -2.115189E-05  1.227903E-08 -1.034267E-08 _shell_0000000410   
       410  24  7.219062E-05  9.000022E+00  6.695448E-08 -2.517707E-05 -1.251638E-08  8.572279E-09 _shell_0000000410   
       410  25  7.486693E-05  9.000025E+00  4.504725E-08 -1.617720E-05  3.665084E-08 -1.873181E-08 _shell_0000000410   
       410  26  7.045995E-05  9.000024E+00 -3.341672E-08 -1.927134E-05  6.093898E-09 -3.234817E-08 _shell_0000000410   
       410  27  6.600908E-05  9.000024E+00  1.463811E-07 -2.289319E-05 -2.446306E-08 -1.590658E-08 _shell_0000000410   
       411   1  7.674814E-05  9.000020E+00  4.013724E-08 -2.979503E-05  1.169612E-08 -3.274706E-08 _shell_0000000411   
       411   2  7.190518E-05  9.000018E+00  2.534810E-08 -3.165205E-05  8.225194E-09 -1.728052E-08 _shell_0000000411   
       411   3  6.632433E-05  9.000013E+00  5.831177E-08 -3.391512E-05  4.754289E-09 -4.266472E-08 _shell_0000000411   
       411   4  6.891230E-05  9.000021E+00 -1.603525E-07 -2.717392E-05  2.022660E-09 -6.829038E-09 _shell_0000000411   
       411   5  6.340976E-05  9.000018E+00 -7.609319E-08 -2.862703E-05 -1.496634E-08  1.110964E-08 _shell_0000000411   
       411   6  5.721017E-05  9.000013E+00  1.512373E-07 -3.048619E-05 -3.195531E-08 -1.180238E-08 _shell_0000000411   
       411   7  6.242601E-05  9.000023E+00 -3.285788E-08 -2.462396E-05  1.698218E-08  1.908892E-08 _shell_0000000411   
       411   8  5.621462E-05  9.000019E+00  3.549599E-08 -2.567316E-05 -1.352490E-08  3.949980E-08 _shell_0000000411   
       411   9  4.934703E-05  9.000014E+00  3.422395E-07 -2.712841E-05 -4.403195E-08  1.905995E-08 _shell_0000000411   
       411  10  7.701154E-05  9.000020E+00  8.517747E-08 -2.959658E-05  7.696122E-16  1.878356E-15 _shell_0000000411   
       411  11  7.211594E-05  9.000018E+00  1.774536E-08 -3.144842E-05 -3.096027E-15 -1.068973E-14 _shell_0000000411   
       411  12  6.648244E-05  9.000013E+00 -1.934002E-09 -3.370630E-05 -6.747742E-15  1.014884E-14 _shell_0000000411   
       411  13  6.918477E-05  9.000021E+00 -1.114269E-07 -2.699302E-05  1.004744E-15  9.076121E-15 _shell_0000000411   
       411  14  6.362958E-05  9.000018E+00 -7.981059E-08 -2.844095E-05 -4.072258E-15 -1.166701E-14 _shell_0000000411   
       411  15  5.737735E-05  9.000013E+00  9.487691E-08 -3.029492E-05 -6.455644E-15  2.952305E-15 _shell_0000000411   
       411  16  6.270754E-05  9.000023E+00  1.995304E-08 -2.446061E-05  2.869371E-15  1.420711E-14 _shell_0000000411   
       411  17  5.644351E-05  9.000019E+00  3.566391E-08 -2.550463E-05  1.329549E-15 -5.701188E-15 _shell_0000000411   
       411  18  4.952328E-05  9.000013E+00  2.897644E-07 -2.695469E-05  5.107004E-17  3.179587E-15 _shell_0000000411   
       411  19  7.674814E-05  9.000020E+00  4.013729E-08 -2.979503E-05 -1.169611E-08  3.274705E-08 _shell_0000000411   
       411  20  7.190518E-05  9.000018E+00  2.534809E-08 -3.165205E-05 -8.225202E-09  1.728050E-08 _shell_0000000411   
       411  21  6.632433E-05  9.000013E+00  5.831173E-08 -3.391512E-05 -4.754303E-09  4.266473E-08 _shell_0000000411   
       411  22  6.891230E-05  9.000021E+00 -1.603525E-07 -2.717392E-05 -2.022648E-09  6.829075E-09 _shell_0000000411   
       411  23  6.340976E-05  9.000018E+00 -7.609319E-08 -2.862703E-05  1.496633E-08 -1.110967E-08 _shell_0000000411   
       411  24  5.721017E-05  9.000013E+00  1.512373E-07 -3.048619E-05  3.195531E-08  1.180238E-08 _shell_0000000411   
       411  25  6.242601E-05  9.000023E+00 -3.285790E-08 -2.462396E-05 -1.698217E-08 -1.908889E-08 _shell_0000000411   
       411  26  5.621462E-05  9.000019E+00  3.549598E-08 -2.567316E-05  1.352490E-08 -3.949981E-08 _shell_0000000411   
       411  27  4.934703E-05  9.000014E+00  3.422395E-07 -2.712841E-05  4.403196E-08 -1.905995E-08 _shell_0000000411   
       412   1  6.183882E-05  9.000009E+00 -3.364235E-07 -3.377475E-05  1.368781E-07 -5.324893E-08 _shell_0000000412   
       412   2  5.671059E-05  8.999999E+00  4.449162E-07 -3.012004E-05 -9.231755E-08 -1.535543E-08 _shell_0000000412   
       412   3  4.917121E-05  8.999982E+00  7.958712E-07 -2.626050E-05 -3.215133E-07  5.741489E-08 _shell_0000000412   
       412   4  5.207207E-05  9.000008E+00 -3.884004E-07 -3.005960E-05  1.302248E-07 -2.211485E-08 _shell_0000000412   
       412   5  4.656196E-05  8.999997E+00  1.398111E-07 -2.648428E-05 -8.496633E-08  1.424030E-08 _shell_0000000412   
       412   6  3.860582E-05  8.999977E+00  1.562588E-07 -2.270414E-05 -3.001575E-07  8.547223E-08 _shell_0000000412   
       412   7  4.418313E-05  9.000008E+00 -1.238571E-07 -2.667463E-05  1.442087E-07  9.019204E-09 _shell_0000000412   
       412   8  3.824986E-05  8.999995E+00  5.491891E-08 -2.317870E-05 -5.697781E-08  4.383600E-08 _shell_0000000412   
       412   9  2.983570E-05  8.999973E+00 -3.594480E-07 -1.947795E-05 -2.581644E-07  1.135296E-07 _shell_0000000412   
       412  10  6.225956E-05  9.000009E+00 -3.008812E-07 -3.356361E-05 -2.475474E-15  8.190363E-15 _shell_0000000412   
       412  11  5.708316E-05  8.999999E+00  4.322940E-07 -2.991147E-05  6.761069E-15 -7.228249E-15 _shell_0000000412   
       412  12  4.949562E-05  8.999981E+00  7.350844E-07 -2.605451E-05  1.057153E-14  7.807240E-15 _shell_0000000412   
       412  13  5.248830E-05  9.000008E+00 -3.547896E-07 -2.986452E-05 -3.575132E-16  3.349410E-15 _shell_0000000412   
       412  14  4.693002E-05  8.999996E+00  1.252574E-07 -2.629178E-05  2.443387E-15 -9.732679E-15 _shell_0000000412   
       412  15  3.892572E-05  8.999977E+00  9.354052E-08 -2.251420E-05  1.187146E-15  1.374341E-15 _shell_0000000412   
       412  16  4.459485E-05  9.000008E+00 -9.217782E-08 -2.649561E-05 -2.277938E-15  4.637275E-15 _shell_0000000412   
       412  17  3.861342E-05  8.999994E+00  3.843362E-08 -2.300225E-05  9.641332E-16 -3.766843E-15 _shell_0000000412   
       412  18  3.015109E-05  8.999973E+00 -4.240979E-07 -1.930407E-05  2.714418E-15  6.344186E-16 _shell_0000000412   
       412  19  6.183882E-05  9.000009E+00 -3.364235E-07 -3.377475E-05 -1.368781E-07  5.324895E-08 _shell_0000000412   
       412  20  5.671059E-05  8.999999E+00  4.449162E-07 -3.012004E-05  9.231758E-08  1.535540E-08 _shell_0000000412   
       412  21  4.917121E-05  8.999982E+00  7.958712E-07 -2.626050E-05  3.215133E-07 -5.741486E-08 _shell_0000000412   
       412  22  5.207207E-05  9.000008E+00 -3.884004E-07 -3.005960E-05 -1.302248E-07  2.211487E-08 _shell_0000000412   
       412  23  4.656196E-05  8.999997E+00  1.398111E-07 -2.648428E-05  8.496633E-08 -1.424031E-08 _shell_0000000412   
       412  24  3.860582E-05  8.999977E+00  1.562588E-07 -2.270414E-05  3.001575E-07 -8.547223E-08 _shell_0000000412   
       412  25  4.418313E-05  9.000008E+00 -1.238571E-07 -2.667463E-05 -1.442087E-07 -9.019194E-09 _shell_0000000412   
       412  26  3.824986E-05  8.999995E+00  5.491891E-08 -2.317870E-05  5.697779E-08 -4.383601E-08 _shell_0000000412   
       412  27  2.983570E-05  8.999973E+00 -3.594480E-07 -1.947795E-05  2.581644E-07 -1.135296E-07 _shell_0000000412   
       413   1  4.234659E-05  8.999966E+00 -9.202942E-07 -2.095081E-05  3.831025E-07 -4.693503E-09 _shell_0000000413   
       413   2  4.273338E-05  8.999933E+00 -3.520860E-07 -9.837713E-06  3.130856E-08 -1.112744E-07 _shell_0000000413   
       413   3  3.751471E-05  8.999883E+00 -1.845125E-06  1.286606E-06 -3.204854E-07  9.529437E-08 _shell_0000000413   
       413   4  3.340612E-05  8.999962E+00 -6.820487E-07 -1.813688E-05  3.374851E-07  5.677535E-09 _shell_0000000413   
       413   5  3.429736E-05  8.999930E+00  5.397149E-07 -9.072896E-06  5.119401E-08 -1.601439E-07 _shell_0000000413   
       413   6  2.926998E-05  8.999880E+00 -1.030451E-06  2.307005E-09 -2.350971E-07 -1.281565E-08 _shell_0000000413   
       413   7  2.534857E-05  8.999958E+00 -7.350598E-07 -1.520142E-05  2.930245E-07  1.604853E-08 _shell_0000000413   
       413   8  2.674194E-05  8.999927E+00  1.134861E-06 -8.186552E-06  7.223617E-08 -2.090134E-07 _shell_0000000413   
       413   9  2.190356E-05  8.999878E+00 -5.178308E-07 -1.160465E-06 -1.485521E-07 -1.209257E-07 _shell_0000000413   
       413  10  4.324543E-05  8.999966E+00 -7.544173E-07 -2.087567E-05  1.063216E-14  7.172264E-15 _shell_0000000413   
       413  11  4.356297E-05  8.999932E+00 -2.554574E-07 -9.830868E-06  9.719526E-15 -1.242041E-14 _shell_0000000413   
       413  12  3.827505E-05  8.999882E+00 -1.817745E-06  1.225147E-06  1.561158E-14 -1.955329E-14 _shell_0000000413   
       413  13  3.418543E-05  8.999962E+00 -5.673998E-07 -1.808482E-05  5.255196E-15  4.189309E-15 _shell_0000000413   
       413  14  3.500742E-05  8.999929E+00  5.851154E-07 -9.089134E-06  6.731398E-15 -5.212147E-15 _shell_0000000413   
       413  15  2.991080E-05  8.999879E+00 -1.054299E-06 -8.223486E-08  8.791745E-15 -6.467570E-15 _shell_0000000413   
       413  16  2.600835E-05  8.999958E+00 -6.716390E-07 -1.517244E-05  3.537170E-15  3.822728E-15 _shell_0000000413   
       413  17  2.733247E-05  8.999926E+00  1.129033E-06 -8.225873E-06  4.181250E-17 -2.443297E-15 _shell_0000000413   
       413  18  2.242484E-05  8.999877E+00 -5.929065E-07 -1.268089E-06 -1.386334E-15 -1.758022E-15 _shell_0000000413   
       413  19  4.234659E-05  8.999966E+00 -9.202941E-07 -2.095081E-05 -3.831025E-07  4.693518E-09 _shell_0000000413   
       413  20  4.273338E-05  8.999933E+00 -3.520859E-07 -9.837713E-06 -3.130856E-08  1.112744E-07 _shell_0000000413   
       413  21  3.751471E-05  8.999883E+00 -1.845125E-06  1.286606E-06  3.204854E-07 -9.529441E-08 _shell_0000000413   
       413  22  3.340612E-05  8.999962E+00 -6.820487E-07 -1.813688E-05 -3.374851E-07 -5.677506E-09 _shell_0000000413   
       413  23  3.429736E-05  8.999930E+00  5.397149E-07 -9.072896E-06 -5.119402E-08  1.601439E-07 _shell_0000000413   
       413  24  2.926998E-05  8.999880E+00 -1.030451E-06  2.306975E-09  2.350971E-07  1.281562E-08 _shell_0000000413   
       413  25  2.534857E-05  8.999958E+00 -7.350599E-07 -1.520142E-05 -2.930245E-07 -1.604852E-08 _shell_0000000413   
       413  26  2.674194E-05  8.999927E+00  1.134861E-06 -8.186552E-06 -7.223618E-08  2.090134E-07 _shell_0000000413   
       413  27  2.190356E-05  8.999878E+00 -5.178308E-07 -1.160465E-06  1.485521E-07  1.209257E-07 _shell_0000000413   
       414   1  4.711708E-05  8.999850E+00  1.820874E-06  6.669022E-06 -5.391750E-08  2.240900E-07 _shell_0000000414   
       414   2  4.741824E-05  8.999782E+00  1.452711E-07 -7.106601E-07  9.584858E-07  1.105609E-07 _shell_0000000414   
       414   3  4.939384E-05  8.999717E+00  2.764815E-07 -9.641086E-06  1.970889E-06 -2.313634E-07 _shell_0000000414   
       414   4  3.529627E-05  8.999847E+00  9.650432E-07  3.827774E-06  2.457267E-08  1.395381E-07 _shell_0000000414   
       414   5  3.477061E-05  8.999783E+00 -7.138184E-07 -1.229132E-06  4.572994E-07  1.662065E-07 _shell_0000000414   
       414   6  3.614781E-05  8.999723E+00 -5.294515E-08 -7.836782E-06  8.900262E-07 -3.552020E-08 _shell_0000000414   
       414   7  2.629578E-05  8.999845E+00  6.975771E-07  1.797322E-06  4.947725E-08  5.498613E-08 _shell_0000000414   
       414   8  2.505049E-05  8.999785E+00 -7.344775E-07 -9.368072E-07 -9.747257E-08  2.218522E-07 _shell_0000000414   
       414   9  2.593644E-05  8.999730E+00  7.061249E-07 -5.221681E-06 -2.444224E-07  1.603230E-07 _shell_0000000414   
       414  10  4.804949E-05  8.999849E+00  1.956758E-06  6.213350E-06  1.346936E-14 -2.072300E-14 _shell_0000000414   
       414  11  4.862894E-05  8.999782E+00  5.594456E-07 -1.515441E-06  3.976505E-15 -6.617530E-15 _shell_0000000414   
       414  12  5.088284E-05  8.999718E+00  9.689458E-07 -1.079498E-05  5.640547E-15  1.490823E-14 _shell_0000000414   
       414  13  3.561774E-05  8.999846E+00  8.390959E-07  3.464865E-06  3.206950E-15 -8.043066E-15 _shell_0000000414   
       414  14  3.537038E-05  8.999783E+00 -5.614758E-07 -1.941150E-06 -1.844570E-15 -6.881904E-15 _shell_0000000414   
       414  15  3.702586E-05  8.999724E+00  3.776873E-07 -8.897909E-06  5.328482E-15  6.815983E-15 _shell_0000000414   
       414  16  2.600631E-05  8.999844E+00  3.097978E-07  1.527177E-06 -2.264587E-15 -4.529526E-16 _shell_0000000414   
       414  17  2.503931E-05  8.999785E+00 -8.439669E-07 -1.556062E-06  3.012372E-15 -9.163573E-16 _shell_0000000414   
       414  18  2.620355E-05  8.999730E+00  8.749255E-07 -6.190044E-06 -1.195786E-14  7.175643E-15 _shell_0000000414   
       414  19  4.711708E-05  8.999850E+00  1.820874E-06  6.669022E-06  5.391753E-08 -2.240901E-07 _shell_0000000414   
       414  20  4.741824E-05  8.999782E+00  1.452711E-07 -7.106601E-07 -9.584858E-07 -1.105609E-07 _shell_0000000414   
       414  21  4.939384E-05  8.999717E+00  2.764815E-07 -9.641086E-06 -1.970889E-06  2.313634E-07 _shell_0000000414   
       414  22  3.529627E-05  8.999847E+00  9.650433E-07  3.827773E-06 -2.457267E-08 -1.395381E-07 _shell_0000000414   
       414  23  3.477061E-05  8.999783E+00 -7.138184E-07 -1.229132E-06 -4.572994E-07 -1.662066E-07 _shell_0000000414   
       414  24  3.614781E-05  8.999723E+00 -5.294520E-08 -7.836782E-06 -8.900262E-07  3.552020E-08 _shell_0000000414   
       414  25  2.629578E-05  8.999845E+00  6.975771E-07  1.797322E-06 -4.947725E-08 -5.498613E-08 _shell_0000000414   
       414  26  2.505049E-05  8.999785E+00 -7.344775E-07 -9.368071E-07  9.747258E-08 -2.218522E-07 _shell_0000000414   
       414  27  2.593644E-05  8.999730E+00  7.061249E-07 -5.221681E-06  2.444224E-07 -1.603230E-07 _shell_0000000414   
       415   1  4.318040E-05  8.999689E+00 -1.246257E-07 -2.532589E-05  2.838025E-06 -4.362913E-07 _shell_0000000415   
       415   2  2.586852E-05  8.999648E+00  8.303563E-07 -2.207863E-05  2.682389E-07 -3.266933E-07 _shell_0000000415   
       415   3  2.814958E-06  8.999588E+00  2.375626E-07 -1.306910E-05 -2.301547E-06  2.855839E-07 _shell_0000000415   
       415   4  2.879223E-05  8.999693E+00 -9.444403E-07 -1.701890E-05  1.383901E-06 -2.198515E-07 _shell_0000000415   
       415   5  1.724496E-05  8.999645E+00  7.929985E-07 -1.467569E-05  3.387809E-08 -1.796715E-07 _shell_0000000415   
       415   6 -5.466627E-07  8.999578E+00 -1.902567E-07 -6.570214E-06 -1.316145E-06  3.631878E-07 _shell_0000000415   
       415   7  1.782809E-05  8.999698E+00 -6.359087E-07 -1.034673E-05  9.794758E-08 -3.411833E-09 _shell_0000000415   
       415   8  1.170910E-05  8.999643E+00  1.099191E-06 -8.907573E-06 -3.231223E-08 -3.264968E-08 _shell_0000000415   
       415   9 -1.156929E-06  8.999569E+00 -1.059321E-06 -1.706144E-06 -1.625721E-07  4.407916E-07 _shell_0000000415   
       415  10  4.191496E-05  8.999689E+00 -6.422631E-07 -2.577925E-05  4.963766E-15  1.205926E-14 _shell_0000000415   
       415  11  2.414660E-05  8.999646E+00 -1.437598E-07 -2.180568E-05  1.724684E-15 -1.628818E-15 _shell_0000000415   
       415  12  6.365598E-07  8.999586E+00 -1.193032E-06 -1.206983E-05  1.076237E-14  1.277018E-14 _shell_0000000415   
       415  13  2.879784E-05  8.999693E+00 -9.173394E-07 -1.762442E-05  3.638325E-15  2.534768E-15 _shell_0000000415   
       415  14  1.679410E-05  8.999644E+00  3.636206E-07 -1.455490E-05 -3.257773E-15 -3.970766E-15 _shell_0000000415   
       415  15 -1.454005E-06  8.999576E+00 -1.076113E-06 -5.723101E-06 -1.411901E-15  6.647872E-15 _shell_0000000415   
       415  16  1.910477E-05  8.999699E+00 -6.406958E-08 -1.110441E-05 -1.149751E-14  9.727664E-15 _shell_0000000415   
       415  17  1.252930E-05  8.999643E+00  1.214551E-06 -8.938937E-06  4.886729E-15  1.527103E-15 _shell_0000000415   
       415  18 -7.932153E-07  8.999568E+00 -1.400440E-06 -1.011190E-06  5.956494E-15  4.604943E-15 _shell_0000000415   
       415  19  4.318040E-05  8.999689E+00 -1.246258E-07 -2.532589E-05 -2.838025E-06  4.362913E-07 _shell_0000000415   
       415  20  2.586852E-05  8.999648E+00  8.303563E-07 -2.207863E-05 -2.682389E-07  3.266933E-07 _shell_0000000415   
       415  21  2.814958E-06  8.999588E+00  2.375626E-07 -1.306910E-05  2.301547E-06 -2.855838E-07 _shell_0000000415   
       415  22  2.879223E-05  8.999693E+00 -9.444403E-07 -1.701890E-05 -1.383901E-06  2.198516E-07 _shell_0000000415   
       415  23  1.724496E-05  8.999645E+00  7.929985E-07 -1.467569E-05 -3.387809E-08  1.796715E-07 _shell_0000000415   
       415  24 -5.466627E-07  8.999578E+00 -1.902567E-07 -6.570214E-06  1.316145E-06 -3.631877E-07 _shell_0000000415   
       415  25  1.782809E-05  8.999698E+00 -6.359087E-07 -1.034673E-05 -9.794758E-08  3.411856E-09 _shell_0000000415   
       415  26  1.170910E-05  8.999643E+00  1.099191E-06 -8.907573E-06  3.231225E-08  3.264968E-08 _shell_0000000415   
       415  27 -1.156929E-06  8.999569E+00 -1.059321E-06 -1.706144E-06  1.625721E-07 -4.407916E-07 _shell_0000000415   
       501   1  4.660720E-07  8.999571E+00  4.199898E-07  1.091651E-06 -1.576849E-07  4.123772E-07 _shell_0000000501   
       501   2  7.899343E-06  8.999639E+00 -2.962157E-07  5.073845E-06  1.770979E-08 -3.067011E-08 _shell_0000000501   
       501   3  1.223650E-05  8.999697E+00 -1.582942E-06  7.364419E-06  1.931045E-07 -1.314496E-07 _shell_0000000501   
       501   4 -1.108733E-06  8.999569E+00 -1.023312E-07 -3.910048E-07  3.229519E-09  3.156081E-07 _shell_0000000501   
       501   5  4.972133E-06  8.999638E+00  2.311662E-07  2.774411E-06  9.240412E-09 -5.360559E-08 _shell_0000000501   
       501   6  7.614614E-06  8.999698E+00 -8.044820E-07  4.248207E-06  1.525129E-08 -8.055147E-08 _shell_0000000501   
       501   7 -1.465425E-06  8.999567E+00 -6.045869E-07 -1.515305E-06  1.631346E-07  2.188390E-07 _shell_0000000501   
       501   8  3.265055E-06  8.999638E+00  7.833238E-07  8.333327E-07 -2.383639E-10 -7.654105E-08 _shell_0000000501   
       501   9  4.214883E-06  8.999699E+00  3.463978E-09  1.490350E-06 -1.636113E-07 -2.965333E-08 _shell_0000000501   
       501  10  1.533995E-06  8.999570E+00  6.460432E-07  1.509639E-06 -2.356660E-14  4.683116E-15 _shell_0000000501   
       501  11  9.052600E-06  8.999638E+00  1.517162E-08  5.236445E-06 -1.297360E-14 -6.607375E-15 _shell_0000000501   
       501  12  1.347509E-05  8.999697E+00 -1.186221E-06  7.271631E-06 -1.140207E-14 -2.233260E-14 _shell_0000000501   
       501  13 -4.877396E-07  8.999568E+00 -6.781908E-08  5.542863E-08 -4.937542E-15  4.586021E-15 _shell_0000000501   
       501  14  5.678460E-06  8.999638E+00  3.510123E-07  2.965456E-06 -1.686495E-15 -4.255759E-15 _shell_0000000501   
       501  15  8.406276E-06  8.999698E+00 -5.993021E-07  4.183864E-06 -5.714657E-15 -1.794094E-14 _shell_0000000501   
       501  16 -1.291361E-06  8.999566E+00 -7.616159E-07 -1.040427E-06  9.705202E-16 -4.840851E-15 _shell_0000000501   
       501  17  3.524453E-06  8.999638E+00  7.116287E-07  1.052822E-06 -5.585881E-15 -5.645241E-15 _shell_0000000501   
       501  18  4.559615E-06  8.999699E+00  1.710265E-08  1.454452E-06 -1.690593E-14 -1.666765E-14 _shell_0000000501   
       501  19  4.660721E-07  8.999571E+00  4.199898E-07  1.091651E-06  1.576849E-07 -4.123772E-07 _shell_0000000501   
       501  20  7.899343E-06  8.999639E+00 -2.962156E-07  5.073845E-06 -1.770982E-08  3.067009E-08 _shell_0000000501   
       501  21  1.223650E-05  8.999697E+00 -1.582942E-06  7.364419E-06 -1.931046E-07  1.314496E-07 _shell_0000000501   
       501  22 -1.108733E-06  8.999569E+00 -1.023312E-07 -3.910048E-07 -3.229518E-09 -3.156081E-07 _shell_0000000501   
       501  23  4.972133E-06  8.999638E+00  2.311662E-07  2.774411E-06 -9.240411E-09  5.360556E-08 _shell_0000000501   
       501  24  7.614614E-06  8.999698E+00 -8.044820E-07  4.248207E-06 -1.525130E-08  8.055144E-08 _shell_0000000501   
       501  25 -1.465425E-06  8.999567E+00 -6.045869E-07 -1.515305E-06 -1.631346E-07 -2.188390E-07 _shell_0000000501   
       501  26  3.265055E-06  8.999638E+00  7.833238E-07  8.333327E-07  2.383509E-10  7.654104E-08 _shell_0000000501   
       501  27  4.214883E-06  8.999699E+00  3.463960E-09  1.490350E-06  1.636113E-07  2.965330E-08 _shell_0000000501   
       502   1  2.085851E-05  8.999732E+00  9.969590E-07  4.910877E-06  5.188463E-07 -5.375437E-08 _shell_0000000502   
       502   2  2.148608E-05  8.999790E+00  6.186811E-07  1.839100E-06  2.337215E-07  2.179975E-08 _shell_0000000502   
       502   3  2.201765E-05  8.999846E+00  1.017295E-06 -9.574603E-07 -5.140331E-08 -1.309044E-08 _shell_0000000502   
       502   4  1.260423E-05  8.999732E+00  3.027757E-07  3.185337E-06  2.932000E-07  1.446464E-08 _shell_0000000502   
       502   5  1.333063E-05  8.999789E+00 -1.648894E-07  1.338694E-06  1.129146E-07  7.570811E-08 _shell_0000000502   
       502   6  1.407148E-05  8.999844E+00  4.020404E-07 -2.327323E-07 -6.737080E-08  2.650729E-08 _shell_0000000502   
       502   7  6.672595E-06  8.999733E+00  1.102621E-07  1.310448E-06  6.807433E-08  8.268363E-08 _shell_0000000502   
       502   8  7.496788E-06  8.999789E+00 -4.492201E-07  6.889386E-07 -7.371612E-09  1.296165E-07 _shell_0000000502   
       502   9  8.445875E-06  8.999844E+00  2.835959E-07  3.426468E-07 -8.281756E-08  6.610502E-08 _shell_0000000502   
       502  10  2.069903E-05  8.999732E+00  8.058251E-07  4.798398E-06 -1.471109E-14 -1.995414E-14 _shell_0000000502   
       502  11  2.130933E-05  8.999789E+00  4.102761E-07  1.846667E-06 -1.774505E-14 -2.738682E-15 _shell_0000000502   
       502  12  2.182363E-05  8.999845E+00  7.916186E-07 -8.298465E-07 -5.200281E-15  3.703184E-16 _shell_0000000502   
       502  13  1.265483E-05  8.999732E+00  2.016765E-07  3.067101E-06 -1.114626E-14 -1.328098E-14 _shell_0000000502   
       502  14  1.336396E-05  8.999788E+00 -2.832597E-07  1.340504E-06 -8.144498E-15 -2.983118E-15 _shell_0000000502   
       502  15  1.408754E-05  8.999844E+00  2.663990E-07 -1.108755E-07 -1.622163E-15 -6.986143E-16 _shell_0000000502   
       502  16  6.933278E-06  8.999733E+00  9.919751E-08  1.186455E-06 -1.738353E-14 -1.603962E-14 _shell_0000000502   
       502  17  7.740200E-06  8.999788E+00 -4.775558E-07  6.849921E-07 -9.804124E-15 -2.591021E-15 _shell_0000000502   
       502  18  8.672016E-06  8.999843E+00  2.379891E-07  4.587465E-07 -3.088727E-15 -2.223737E-17 _shell_0000000502   
       502  19  2.085851E-05  8.999732E+00  9.969590E-07  4.910877E-06 -5.188463E-07  5.375433E-08 _shell_0000000502   
       502  20  2.148608E-05  8.999790E+00  6.186811E-07  1.839100E-06 -2.337215E-07 -2.179976E-08 _shell_0000000502   
       502  21  2.201765E-05  8.999846E+00  1.017295E-06 -9.574603E-07  5.140329E-08  1.309045E-08 _shell_0000000502   
       502  22  1.260423E-05  8.999732E+00  3.027757E-07  3.185337E-06 -2.932000E-07 -1.446466E-08 _shell_0000000502   
       502  23  1.333063E-05  8.999789E+00 -1.648893E-07  1.338694E-06 -1.129146E-07 -7.570813E-08 _shell_0000000502   
       502  24  1.407148E-05  8.999844E+00  4.020405E-07 -2.327323E-07  6.737078E-08 -2.650728E-08 _shell_0000000502   
       502  25  6.672595E-06  8.999733E+00  1.102622E-07  1.310448E-06 -6.807436E-08 -8.268365E-08 _shell_0000000502   
       502  26  7.496788E-06  8.999789E+00 -4.492201E-07  6.889386E-07  7.371588E-09 -1.296165E-07 _shell_0000000502   
       502  27  8.445875E-06  8.999844E+00  2.835959E-07  3.426468E-07  8.281756E-08 -6.610501E-08 _shell_0000000502   
       503   1  1.729064E-05  8.999875E+00 -1.095757E-06  1.183367E-06  1.300038E-07 -7.367780E-08 _shell_0000000503   
       503   2  2.136925E-05  8.999922E+00 -1.515951E-07  7.337074E-06 -7.445800E-08 -8.782955E-08 _shell_0000000503   
       503   3  2.153963E-05  8.999957E+00 -5.808172E-07  1.376400E-05 -2.789198E-07  3.415329E-08 _shell_0000000503   
       503   4  1.166469E-05  8.999874E+00 -6.181123E-07  1.516794E-06  1.572304E-07 -4.506005E-08 _shell_0000000503   
       503   5  1.585519E-05  8.999920E+00  3.307662E-07  6.380816E-06 -5.662825E-08 -8.263383E-08 _shell_0000000503   
       503   6  1.600134E-05  8.999954E+00 -4.113870E-07  1.151806E-05 -2.704869E-07  1.592701E-08 _shell_0000000503   
       503   7  6.905650E-06  8.999873E+00 -2.735446E-07  1.686631E-06  1.901521E-07 -1.644231E-08 _shell_0000000503   
       503   8  1.119665E-05  8.999918E+00  6.534735E-07  5.260967E-06 -3.310351E-08 -7.743808E-08 _shell_0000000503   
       503   9  1.130718E-05  8.999951E+00 -4.281875E-07  9.108523E-06 -2.563591E-07 -2.299279E-09 _shell_0000000503   
       503  10  1.800406E-05  8.999875E+00 -9.419168E-07  1.319538E-06 -1.413328E-15 -6.108461E-16 _shell_0000000503   
       503  11  2.204350E-05  8.999921E+00 -3.691797E-08  7.415148E-06 -3.861218E-15  1.638987E-15 _shell_0000000503   
       503  12  2.217472E-05  8.999956E+00 -5.053036E-07  1.378398E-05 -2.158337E-15  1.296891E-14 _shell_0000000503   
       503  13  1.227644E-05  8.999874E+00 -5.078453E-07  1.639911E-06 -1.142231E-15  2.982735E-15 _shell_0000000503   
       503  14  1.642777E-05  8.999919E+00  4.018698E-07  6.445835E-06 -2.443325E-15  2.718108E-15 _shell_0000000503   
       503  15  1.653476E-05  8.999953E+00 -3.794469E-07  1.152498E-05 -1.031548E-15  1.249932E-14 _shell_0000000503   
       503  16  7.415721E-06  8.999873E+00 -2.068512E-07  1.796694E-06 -4.796900E-15 -1.786670E-15 _shell_0000000503   
       503  17  1.166756E-05  8.999918E+00  6.810034E-07  5.312932E-06 -1.313914E-14 -2.489238E-15 _shell_0000000503   
       503  18  1.173892E-05  8.999951E+00 -4.398211E-07  9.102390E-06 -6.776652E-15  4.889950E-15 _shell_0000000503   
       503  19  1.729064E-05  8.999875E+00 -1.095757E-06  1.183367E-06 -1.300037E-07  7.367780E-08 _shell_0000000503   
       503  20  2.136925E-05  8.999922E+00 -1.515951E-07  7.337074E-06  7.445800E-08  8.782955E-08 _shell_0000000503   
       503  21  2.153963E-05  8.999957E+00 -5.808172E-07  1.376400E-05  2.789198E-07 -3.415325E-08 _shell_0000000503   
       503  22  1.166469E-05  8.999874E+00 -6.181123E-07  1.516794E-06 -1.572304E-07  4.506006E-08 _shell_0000000503   
       503  23  1.585519E-05  8.999920E+00  3.307662E-07  6.380816E-06  5.662825E-08  8.263381E-08 _shell_0000000503   
       503  24  1.600134E-05  8.999954E+00 -4.113870E-07  1.151806E-05  2.704869E-07 -1.592698E-08 _shell_0000000503   
       503  25  6.905650E-06  8.999873E+00 -2.735446E-07  1.686631E-06 -1.901521E-07  1.644232E-08 _shell_0000000503   
       503  26  1.119665E-05  8.999918E+00  6.534735E-07  5.260967E-06  3.310348E-08  7.743807E-08 _shell_0000000503   
       503  27  1.130718E-05  8.999951E+00 -4.281875E-07  9.108523E-06  2.563591E-07  2.299304E-09 _shell_0000000503   
       504   1  2.642205E-05  8.999973E+00  3.536264E-07  1.781258E-05  2.435566E-07  7.166913E-08 _shell_0000000504   
       504   2  3.441968E-05  8.999994E+00  3.617491E-07  2.116691E-05  4.720177E-08  6.627512E-09 _shell_0000000504   
       504   3  3.983871E-05  9.000007E+00 -3.440693E-07  2.431276E-05 -1.491531E-07 -3.379299E-08 _shell_0000000504   
       504   4  1.991773E-05  8.999970E+00  1.856887E-08  1.465738E-05  2.403917E-07  5.240350E-08 _shell_0000000504   
       504   5  2.805466E-05  8.999992E+00  2.151136E-07  1.760407E-05  4.663648E-08  7.212163E-09 _shell_0000000504   
       504   6  3.358837E-05  9.000007E+00 -3.597320E-07  2.034226E-05 -1.471188E-07 -1.335803E-08 _shell_0000000504   
       504   7  1.473647E-05  8.999968E+00 -2.895608E-07  1.171007E-05  2.243998E-07  3.313785E-08 _shell_0000000504   
       504   8  2.303835E-05  8.999991E+00  1.552657E-07  1.424911E-05  3.324412E-08  7.796844E-09 _shell_0000000504   
       504   9  2.871238E-05  9.000006E+00 -2.287473E-07  1.657966E-05 -1.579116E-07  7.076911E-09 _shell_0000000504   
       504  10  2.674143E-05  8.999973E+00  2.958385E-07  1.769599E-05 -2.866350E-15  8.144538E-15 _shell_0000000504   
       504  11  3.479026E-05  8.999994E+00  3.551536E-07  2.104303E-05 -1.594507E-15 -5.080228E-15 _shell_0000000504   
       504  12  4.026047E-05  9.000007E+00 -2.994723E-07  2.418159E-05  3.552709E-15  1.884825E-14 _shell_0000000504   
       504  13  2.022437E-05  8.999970E+00 -4.468154E-08  1.455785E-05  2.678548E-15  1.109943E-14 _shell_0000000504   
       504  14  2.841249E-05  8.999992E+00  2.030557E-07  1.749725E-05  3.533215E-16 -3.464196E-15 _shell_0000000504   
       504  15  3.399739E-05  9.000006E+00 -3.205974E-07  2.022816E-05 -8.463449E-15  1.667340E-14 _shell_0000000504   
       504  16  1.503036E-05  8.999967E+00 -3.582736E-07  1.162760E-05 -1.019594E-15  1.063907E-15 _shell_0000000504   
       504  17  2.338344E-05  8.999990E+00  1.377454E-07  1.415935E-05 -3.196458E-15 -2.998244E-15 _shell_0000000504   
       504  18  2.910866E-05  9.000006E+00 -1.950751E-07  1.648262E-05 -1.299942E-14  1.583417E-14 _shell_0000000504   
       504  19  2.642205E-05  8.999973E+00  3.536264E-07  1.781258E-05 -2.435566E-07 -7.166910E-08 _shell_0000000504   
       504  20  3.441968E-05  8.999994E+00  3.617491E-07  2.116691E-05 -4.720176E-08 -6.627522E-09 _shell_0000000504   
       504  21  3.983871E-05  9.000007E+00 -3.440693E-07  2.431276E-05  1.491531E-07  3.379303E-08 _shell_0000000504   
       504  22  1.991773E-05  8.999970E+00  1.856886E-08  1.465738E-05 -2.403917E-07 -5.240348E-08 _shell_0000000504   
       504  23  2.805466E-05  8.999992E+00  2.151136E-07  1.760407E-05 -4.663649E-08 -7.212188E-09 _shell_0000000504   
       504  24  3.358837E-05  9.000007E+00 -3.597320E-07  2.034226E-05  1.471188E-07  1.335807E-08 _shell_0000000504   
       504  25  1.473647E-05  8.999968E+00 -2.895608E-07  1.171007E-05 -2.243998E-07 -3.313784E-08 _shell_0000000504   
       504  26  2.303835E-05  8.999991E+00  1.552657E-07  1.424911E-05 -3.324413E-08 -7.796851E-09 _shell_0000000504   
       504  27  2.871238E-05  9.000006E+00 -2.287473E-07  1.657966E-05  1.579115E-07 -7.076867E-09 _shell_0000000504   
       505   1  4.496345E-05  9.000013E+00  5.123744E-08  2.480908E-05  5.199999E-08 -3.237229E-08 _shell_0000000505   
       505   2  5.247376E-05  9.000020E+00  6.923185E-08  2.371440E-05  1.489776E-08 -1.990858E-08 _shell_0000000505   
       505   3  5.894963E-05  9.000024E+00 -2.659867E-08  2.273415E-05 -2.220447E-08 -3.369771E-08 _shell_0000000505   
       505   4  3.894994E-05  9.000013E+00  7.768855E-08  2.088911E-05  7.274996E-08 -6.082132E-09 _shell_0000000505   
       505   5  4.669919E-05  9.000020E+00 -2.525810E-08  2.003882E-05  2.650160E-08  6.652609E-09 _shell_0000000505   
       505   6  5.344025E-05  9.000024E+00 -1.807730E-07  1.930296E-05 -1.974676E-08 -6.865460E-09 _shell_0000000505   
       505   7  3.415496E-05  9.000013E+00  2.161837E-07  1.704340E-05  7.730181E-08  2.020800E-08 _shell_0000000505   
       505   8  4.217555E-05  9.000021E+00  6.788729E-08  1.643751E-05  2.190731E-08  3.321382E-08 _shell_0000000505   
       505   9  4.921420E-05  9.000025E+00 -7.172059E-08  1.594604E-05 -3.348719E-08  1.996679E-08 _shell_0000000505   
       505  10  4.515518E-05  9.000013E+00  1.187042E-08  2.468025E-05  4.338001E-15  2.809869E-14 _shell_0000000505   
       505  11  5.270224E-05  9.000020E+00  6.661554E-08  2.358856E-05  2.090082E-15  1.416128E-14 _shell_0000000505   
       505  12  5.921486E-05  9.000023E+00  7.535782E-09  2.261129E-05  4.252581E-16  5.969697E-15 _shell_0000000505   
       505  13  3.914689E-05  9.000012E+00  4.056045E-08  2.077253E-05 -8.958964E-15  2.662253E-14 _shell_0000000505   
       505  14  4.693289E-05  9.000020E+00 -2.563547E-08  1.992523E-05 -4.425544E-15  8.775650E-15 _shell_0000000505   
       505  15  5.371071E-05  9.000024E+00 -1.443996E-07  1.919235E-05 -3.846238E-15  2.804665E-15 _shell_0000000505   
       505  16  3.435714E-05  9.000013E+00  1.812945E-07  1.693907E-05 -1.518195E-14  2.040721E-14 _shell_0000000505   
       505  17  4.241448E-05  9.000020E+00  6.974886E-08  1.633616E-05 -5.320918E-15  6.062571E-15 _shell_0000000505   
       505  18  4.948988E-05  9.000025E+00 -3.310829E-08  1.584768E-05 -1.262814E-15  4.813572E-15 _shell_0000000505   
       505  19  4.496345E-05  9.000013E+00  5.123741E-08  2.480908E-05 -5.199998E-08  3.237234E-08 _shell_0000000505   
       505  20  5.247376E-05  9.000020E+00  6.923181E-08  2.371440E-05 -1.489775E-08  1.990860E-08 _shell_0000000505   
       505  21  5.894963E-05  9.000024E+00 -2.659869E-08  2.273415E-05  2.220447E-08  3.369773E-08 _shell_0000000505   
       505  22  3.894994E-05  9.000013E+00  7.768854E-08  2.088911E-05 -7.274998E-08  6.082192E-09 _shell_0000000505   
       505  23  4.669919E-05  9.000020E+00 -2.525811E-08  2.003882E-05 -2.650161E-08 -6.652611E-09 _shell_0000000505   
       505  24  5.344025E-05  9.000024E+00 -1.807730E-07  1.930296E-05  1.974676E-08  6.865474E-09 _shell_0000000505   
       505  25  3.415496E-05  9.000013E+00  2.161837E-07  1.704340E-05 -7.730184E-08 -2.020795E-08 _shell_0000000505   
       505  26  4.217555E-05  9.000021E+00  6.788732E-08  1.643751E-05 -2.190733E-08 -3.321382E-08 _shell_0000000505   
       505  27  4.921420E-05  9.000025E+00 -7.172058E-08  1.594604E-05  3.348718E-08 -1.996677E-08 _shell_0000000505   
       506   1  6.270035E-05  9.000025E+00  1.256270E-07  2.116813E-05 -2.569469E-08 -3.370775E-08 _shell_0000000506   
       506   2  6.758326E-05  9.000025E+00  2.192042E-08  1.795687E-05  6.378056E-09 -1.837114E-08 _shell_0000000506   
       506   3  7.229661E-05  9.000026E+00  7.171134E-08  1.503574E-05  3.845080E-08 -2.683660E-08 _shell_0000000506   
       506   4  5.771401E-05  9.000026E+00  7.547772E-08  1.804791E-05 -1.797547E-08 -6.937799E-09 _shell_0000000506   
       506   5  6.299387E-05  9.000027E+00 -1.006260E-07  1.531876E-05  1.354474E-08  7.913642E-09 _shell_0000000506   
       506   6  6.812797E-05  9.000027E+00 -6.769398E-08  1.287972E-05  4.506496E-08 -1.036978E-09 _shell_0000000506   
       506   7  5.367690E-05  9.000027E+00  1.755707E-07  1.493557E-05 -2.130343E-08  1.983215E-08 _shell_0000000506   
       506   8  5.937579E-05  9.000028E+00 -2.137680E-08  1.268852E-05  9.664262E-09  3.419844E-08 _shell_0000000506   
       506   9  6.495273E-05  9.000029E+00  4.624984E-08  1.073159E-05  4.063196E-08  2.476264E-08 _shell_0000000506   
       506  10  6.278003E-05  9.000024E+00  9.039200E-08  2.107026E-05 -1.384090E-15  2.850591E-15 _shell_0000000506   
       506  11  6.768725E-05  9.000025E+00  1.099571E-08  1.786751E-05 -3.242960E-15  1.740848E-15 _shell_0000000506   
       506  12  7.242491E-05  9.000026E+00  8.509698E-08  1.495488E-05  4.539346E-15  1.065281E-14 _shell_0000000506   
       506  13  5.780859E-05  9.000025E+00  4.662624E-08  1.795814E-05 -2.723309E-15  5.426154E-15 _shell_0000000506   
       506  14  6.311275E-05  9.000026E+00 -1.051672E-07  1.523749E-05 -2.036124E-15  6.032036E-16 _shell_0000000506   
       506  15  6.827116E-05  9.000027E+00 -4.792481E-08  1.280697E-05  6.079931E-15  8.022268E-15 _shell_0000000506   
       506  16  5.378637E-05  9.000027E+00  1.531027E-07  1.485390E-05 -2.160370E-15  2.081975E-15 _shell_0000000506   
       506  17  5.950957E-05  9.000028E+00 -1.953439E-08  1.261536E-05 -9.850385E-16 -1.878362E-15 _shell_0000000506   
       506  18  6.511082E-05  9.000028E+00  7.240256E-08  1.066694E-05  2.294364E-15  8.325907E-15 _shell_0000000506   
       506  19  6.270035E-05  9.000025E+00  1.256270E-07  2.116813E-05  2.569468E-08  3.370776E-08 _shell_0000000506   
       506  20  6.758326E-05  9.000025E+00  2.192042E-08  1.795687E-05 -6.378057E-09  1.837113E-08 _shell_0000000506   
       506  21  7.229661E-05  9.000026E+00  7.171136E-08  1.503574E-05 -3.845080E-08  2.683664E-08 _shell_0000000506   
       506  22  5.771401E-05  9.000026E+00  7.547771E-08  1.804791E-05  1.797547E-08  6.937809E-09 _shell_0000000506   
       506  23  6.299387E-05  9.000027E+00 -1.006260E-07  1.531876E-05 -1.354474E-08 -7.913661E-09 _shell_0000000506   
       506  24  6.812797E-05  9.000027E+00 -6.769397E-08  1.287972E-05 -4.506497E-08  1.037002E-09 _shell_0000000506   
       506  25  5.367690E-05  9.000027E+00  1.755707E-07  1.493557E-05  2.130343E-08 -1.983213E-08 _shell_0000000506   
       506  26  5.937579E-05  9.000028E+00 -2.137676E-08  1.268852E-05 -9.664268E-09 -3.419845E-08 _shell_0000000506   
       506  27  6.495273E-05  9.000029E+00  4.624986E-08  1.073159E-05 -4.063196E-08 -2.476261E-08 _shell_0000000506   
       507   1  7.442959E-05  9.000025E+00  1.040208E-07  1.288922E-05 -5.557890E-08 -2.919438E-08 _shell_0000000507   
       507   2  7.669446E-05  9.000025E+00 -2.397335E-08  9.244625E-06  9.108122E-10 -2.032879E-08 _shell_0000000507   
       507   3  7.915813E-05  9.000024E+00  9.977726E-08  5.798761E-06  5.740054E-08 -2.209318E-08 _shell_0000000507   
       507   4  7.067444E-05  9.000027E+00  4.731895E-08  1.107082E-05 -5.710037E-08 -3.919856E-09 _shell_0000000507   
       507   5  7.318592E-05  9.000026E+00 -1.187775E-07  7.929291E-06  4.445558E-09  3.626324E-09 _shell_0000000507   
       507   6  7.590683E-05  9.000026E+00 -8.325973E-09  4.986495E-06  6.599151E-08  5.425520E-10 _shell_0000000507   
       507   7  6.762596E-05  9.000028E+00  1.394143E-07  9.240191E-06 -6.411727E-08  2.135464E-08 _shell_0000000507   
       507   8  7.039504E-05  9.000028E+00 -3.913927E-08  6.601728E-06  2.484894E-09  2.758145E-08 _shell_0000000507   
       507   9  7.338419E-05  9.000028E+00  8.365858E-08  4.161999E-06  6.908704E-08  2.317827E-08 _shell_0000000507   
       507  10  7.446723E-05  9.000025E+00  8.440286E-08  1.283899E-05  5.634527E-15  1.323489E-14 _shell_0000000507   
       507  11  7.674298E-05  9.000025E+00 -3.271087E-08  9.202169E-06  6.705514E-16  1.537236E-15 _shell_0000000507   
       507  12  7.921753E-05  9.000024E+00  1.019201E-07  5.764083E-06  3.464391E-15 -1.352632E-14 _shell_0000000507   
       507  13  7.072569E-05  9.000027E+00  3.353482E-08  1.102422E-05  5.898755E-15  1.519961E-14 _shell_0000000507   
       507  14  7.324805E-05  9.000026E+00 -1.216813E-07  7.890463E-06  4.695231E-15  7.961192E-15 _shell_0000000507   
       507  15  7.597984E-05  9.000026E+00 -3.493015E-10  4.955444E-06  2.473358E-15  2.825004E-16 _shell_0000000507   
       507  16  6.769082E-05  9.000028E+00  1.314640E-07  9.197211E-06  4.342543E-15  9.412068E-15 _shell_0000000507   
       507  17  7.047078E-05  9.000028E+00 -3.620919E-08  6.566526E-06  1.401360E-15  3.924628E-15 _shell_0000000507   
       507  18  7.347081E-05  9.000028E+00  9.746903E-08  4.134576E-06  3.121614E-16  7.893228E-15 _shell_0000000507   
       507  19  7.442959E-05  9.000025E+00  1.040207E-07  1.288922E-05  5.557891E-08  2.919440E-08 _shell_0000000507   
       507  20  7.669446E-05  9.000025E+00 -2.397332E-08  9.244625E-06 -9.108167E-10  2.032878E-08 _shell_0000000507   
       507  21  7.915813E-05  9.000024E+00  9.977734E-08  5.798761E-06 -5.740054E-08  2.209316E-08 _shell_0000000507   
       507  22  7.067444E-05  9.000027E+00  4.731894E-08  1.107082E-05  5.710039E-08  3.919887E-09 _shell_0000000507   
       507  23  7.318592E-05  9.000026E+00 -1.187775E-07  7.929291E-06 -4.445560E-09 -3.626326E-09 _shell_0000000507   
       507  24  7.590683E-05  9.000026E+00 -8.325925E-09  4.986495E-06 -6.599149E-08 -5.425414E-10 _shell_0000000507   
       507  25  6.762596E-05  9.000028E+00  1.394143E-07  9.240191E-06  6.411728E-08 -2.135461E-08 _shell_0000000507   
       507  26  7.039504E-05  9.000028E+00 -3.913929E-08  6.601728E-06 -2.484876E-09 -2.758145E-08 _shell_0000000507   
       507  27  7.338419E-05  9.000028E+00  8.365860E-08  4.162000E-06 -6.908704E-08 -2.317824E-08 _shell_0000000507   
       508   1  7.984395E-05  9.000024E+00  1.054985E-07  3.590509E-06 -6.162390E-08 -2.254866E-08 _shell_0000000508   
       508   2  7.969517E-05  9.000024E+00 -3.062667E-08 -2.825140E-14 -4.963084E-16 -1.946669E-08 _shell_0000000508   
       508   3  7.984395E-05  9.000024E+00  1.054985E-07 -3.590510E-06  6.162390E-08 -2.254864E-08 _shell_0000000508   
       508   4  7.673628E-05  9.000026E+00  2.288956E-08  3.092644E-06 -6.834912E-08 -2.968586E-10 _shell_0000000508   
       508   5  7.658441E-05  9.000025E+00 -1.204268E-07 -2.018321E-14 -6.878325E-15  2.785089E-09 _shell_0000000508   
       508   6  7.673628E-05  9.000026E+00  2.288958E-08 -3.092644E-06  6.834911E-08 -2.968512E-10 _shell_0000000508   
       508   7  7.425952E-05  9.000027E+00  1.045710E-07  2.594779E-06 -7.507433E-08  2.195492E-08 _shell_0000000508   
       508   8  7.410458E-05  9.000027E+00 -4.593664E-08 -2.769146E-14 -5.418033E-15  2.503689E-08 _shell_0000000508   
       508   9  7.425952E-05  9.000027E+00  1.045710E-07 -2.594779E-06  7.507432E-08  2.195493E-08 _shell_0000000508   
       508  10  7.987474E-05  9.000024E+00  9.719080E-08  3.583154E-06  2.297327E-15 -8.755389E-15 _shell_0000000508   
       508  11  7.972596E-05  9.000024E+00 -3.893436E-08 -2.886224E-14 -9.726734E-17  9.070939E-15 _shell_0000000508   
       508  12  7.987474E-05  9.000024E+00  9.719081E-08 -3.583154E-06  7.655107E-16 -8.004627E-16 _shell_0000000508   
       508  13  7.677994E-05  9.000026E+00  2.009842E-08  3.085289E-06  6.362961E-16  8.709423E-15 _shell_0000000508   
       508  14  7.662808E-05  9.000025E+00 -1.232180E-07 -2.046318E-14 -1.323489E-15  1.004823E-14 _shell_0000000508   
       508  15  7.677994E-05  9.000026E+00  2.009843E-08 -3.085289E-06 -6.744706E-16 -4.912095E-15 _shell_0000000508   
       508  16  7.431606E-05  9.000027E+00  1.072964E-07  2.587423E-06  7.284007E-16  1.022652E-14 _shell_0000000508   
       508  17  7.416111E-05  9.000027E+00 -4.321127E-08 -2.005595E-14  2.049760E-15  2.601139E-15 _shell_0000000508   
       508  18  7.431606E-05  9.000027E+00  1.072964E-07 -2.587423E-06  1.889860E-15 -1.104285E-14 _shell_0000000508   
       508  19  7.984395E-05  9.000024E+00  1.054985E-07  3.590510E-06  6.162390E-08  2.254865E-08 _shell_0000000508   
       508  20  7.969517E-05  9.000024E+00 -3.062665E-08 -3.596327E-14 -1.145327E-15  1.946671E-08 _shell_0000000508   
       508  21  7.984395E-05  9.000024E+00  1.054985E-07 -3.590510E-06 -6.162390E-08  2.254864E-08 _shell_0000000508   
       508  22  7.673628E-05  9.000026E+00  2.288959E-08  3.092644E-06  6.834912E-08  2.968806E-10 _shell_0000000508   
       508  23  7.658441E-05  9.000025E+00 -1.204268E-07 -2.601165E-14 -3.206916E-15 -2.785092E-09 _shell_0000000508   
       508  24  7.673628E-05  9.000026E+00  2.288957E-08 -3.092644E-06 -6.834912E-08  2.968479E-10 _shell_0000000508   
       508  25  7.425952E-05  9.000027E+00  1.045710E-07  2.594779E-06  7.507433E-08 -2.195489E-08 _shell_0000000508   
       508  26  7.410458E-05  9.000027E+00 -4.593666E-08 -3.591236E-14 -1.705265E-15 -2.503689E-08 _shell_0000000508   
       508  27  7.425952E-05  9.000027E+00  1.045710E-07 -2.594779E-06 -7.507433E-08 -2.195494E-08 _shell_0000000508   
       509   1  7.915813E-05  9.000024E+00  9.977727E-08 -5.798761E-06 -5.740054E-08 -2.209316E-08 _shell_0000000509   
       509   2  7.669446E-05  9.000025E+00 -2.397336E-08 -9.244625E-06 -9.108171E-10 -2.032878E-08 _shell_0000000509   
       509   3  7.442959E-05  9.000025E+00  1.040208E-07 -1.288922E-05  5.557889E-08 -2.919436E-08 _shell_0000000509   
       509   4  7.590683E-05  9.000026E+00 -8.325963E-09 -4.986495E-06 -6.599151E-08  5.425714E-10 _shell_0000000509   
       509   5  7.318592E-05  9.000026E+00 -1.187776E-07 -7.929291E-06 -4.445558E-09  3.626335E-09 _shell_0000000509   
       509   6  7.067444E-05  9.000027E+00  4.731893E-08 -1.107082E-05  5.710038E-08 -3.919855E-09 _shell_0000000509   
       509   7  7.338419E-05  9.000028E+00  8.365857E-08 -4.162000E-06 -6.908704E-08  2.317828E-08 _shell_0000000509   
       509   8  7.039504E-05  9.000028E+00 -3.913929E-08 -6.601728E-06 -2.484871E-09  2.758147E-08 _shell_0000000509   
       509   9  6.762596E-05  9.000028E+00  1.394143E-07 -9.240191E-06  6.411729E-08  2.135465E-08 _shell_0000000509   
       509  10  7.921753E-05  9.000024E+00  1.019201E-07 -5.764083E-06  7.574976E-16 -8.144549E-15 _shell_0000000509   
       509  11  7.674298E-05  9.000025E+00 -3.271088E-08 -9.202169E-06  3.620194E-15 -1.934824E-16 _shell_0000000509   
       509  12  7.446723E-05  9.000025E+00  8.440286E-08 -1.283899E-05 -4.682779E-16  1.375792E-14 _shell_0000000509   
       509  13  7.597984E-05  9.000026E+00 -3.493099E-10 -4.955444E-06 -8.265701E-16 -5.136310E-15 _shell_0000000509   
       509  14  7.324805E-05  9.000026E+00 -1.216813E-07 -7.890463E-06  2.341551E-15  5.925057E-15 _shell_0000000509   
       509  15  7.072569E-05  9.000027E+00  3.353483E-08 -1.102422E-05  2.029465E-15  1.196239E-14 _shell_0000000509   
       509  16  7.347081E-05  9.000028E+00  9.746902E-08 -4.134576E-06  1.107150E-15 -1.033846E-14 _shell_0000000509   
       509  17  7.047078E-05  9.000028E+00 -3.620919E-08 -6.566526E-06  1.202285E-15  6.775221E-15 _shell_0000000509   
       509  18  6.769082E-05  9.000028E+00  1.314640E-07 -9.197211E-06 -1.341819E-15  1.079472E-14 _shell_0000000509   
       509  19  7.915813E-05  9.000024E+00  9.977728E-08 -5.798761E-06  5.740055E-08  2.209314E-08 _shell_0000000509   
       509  20  7.669446E-05  9.000025E+00 -2.397333E-08 -9.244625E-06  9.108164E-10  2.032877E-08 _shell_0000000509   
       509  21  7.442959E-05  9.000025E+00  1.040208E-07 -1.288922E-05 -5.557891E-08  2.919440E-08 _shell_0000000509   
       509  22  7.590683E-05  9.000026E+00 -8.325958E-09 -4.986495E-06  6.599151E-08 -5.425738E-10 _shell_0000000509   
       509  23  7.318592E-05  9.000026E+00 -1.187775E-07 -7.929291E-06  4.445555E-09 -3.626343E-09 _shell_0000000509   
       509  24  7.067444E-05  9.000027E+00  4.731894E-08 -1.107082E-05 -5.710038E-08  3.919881E-09 _shell_0000000509   
       509  25  7.338419E-05  9.000028E+00  8.365857E-08 -4.161999E-06  6.908704E-08 -2.317829E-08 _shell_0000000509   
       509  26  7.039504E-05  9.000028E+00 -3.913928E-08 -6.601728E-06  2.484866E-09 -2.758147E-08 _shell_0000000509   
       509  27  6.762596E-05  9.000028E+00  1.394143E-07 -9.240191E-06 -6.411728E-08 -2.135461E-08 _shell_0000000509   
       510   1  7.229661E-05  9.000026E+00  7.171135E-08 -1.503574E-05 -3.845080E-08 -2.683660E-08 _shell_0000000510   
       510   2  6.758326E-05  9.000025E+00  2.192041E-08 -1.795687E-05 -6.378051E-09 -1.837115E-08 _shell_0000000510   
       510   3  6.270035E-05  9.000025E+00  1.256270E-07 -2.116813E-05  2.569469E-08 -3.370775E-08 _shell_0000000510   
       510   4  6.812797E-05  9.000027E+00 -6.769398E-08 -1.287972E-05 -4.506496E-08 -1.036984E-09 _shell_0000000510   
       510   5  6.299387E-05  9.000027E+00 -1.006260E-07 -1.531876E-05 -1.354474E-08  7.913637E-09 _shell_0000000510   
       510   6  5.771401E-05  9.000026E+00  7.547772E-08 -1.804791E-05  1.797547E-08 -6.937791E-09 _shell_0000000510   
       510   7  6.495273E-05  9.000029E+00  4.624982E-08 -1.073159E-05 -4.063196E-08  2.476264E-08 _shell_0000000510   
       510   8  5.937579E-05  9.000028E+00 -2.137677E-08 -1.268852E-05 -9.664264E-09  3.419844E-08 _shell_0000000510   
       510   9  5.367690E-05  9.000027E+00  1.755707E-07 -1.493557E-05  2.130344E-08  1.983215E-08 _shell_0000000510   
       510  10  7.242491E-05  9.000026E+00  8.509699E-08 -1.495488E-05  7.253738E-16  1.058791E-14 _shell_0000000510   
       510  11  6.768725E-05  9.000025E+00  1.099572E-08 -1.786751E-05  6.584706E-15 -4.978403E-15 _shell_0000000510   
       510  12  6.278003E-05  9.000024E+00  9.039199E-08 -2.107026E-05  8.241511E-16  1.289256E-14 _shell_0000000510   
       510  13  6.827116E-05  9.000027E+00 -4.792483E-08 -1.280697E-05  2.989952E-15  1.273080E-14 _shell_0000000510   
       510  14  6.311275E-05  9.000026E+00 -1.051672E-07 -1.523749E-05  1.628896E-15 -1.405035E-15 _shell_0000000510   
       510  15  5.780859E-05  9.000025E+00  4.662625E-08 -1.795814E-05  4.987266E-16  8.966430E-15 _shell_0000000510   
       510  16  6.511082E-05  9.000028E+00  7.240253E-08 -1.066694E-05 -6.617420E-16  4.321726E-15 _shell_0000000510   
       510  17  5.950957E-05  9.000028E+00 -1.953435E-08 -1.261536E-05  3.931680E-15 -3.812691E-15 _shell_0000000510   
       510  18  5.378637E-05  9.000027E+00  1.531028E-07 -1.485390E-05  3.725800E-15  6.009802E-15 _shell_0000000510   
       510  19  7.229661E-05  9.000026E+00  7.171134E-08 -1.503574E-05  3.845080E-08  2.683663E-08 _shell_0000000510   
       510  20  6.758326E-05  9.000025E+00  2.192042E-08 -1.795687E-05  6.378059E-09  1.837114E-08 _shell_0000000510   
       510  21  6.270035E-05  9.000025E+00  1.256270E-07 -2.116813E-05 -2.569468E-08  3.370777E-08 _shell_0000000510   
       510  22  6.812797E-05  9.000027E+00 -6.769399E-08 -1.287972E-05  4.506496E-08  1.037005E-09 _shell_0000000510   
       510  23  6.299387E-05  9.000027E+00 -1.006260E-07 -1.531876E-05  1.354474E-08 -7.913656E-09 _shell_0000000510   
       510  24  5.771401E-05  9.000026E+00  7.547771E-08 -1.804791E-05 -1.797547E-08  6.937817E-09 _shell_0000000510   
       510  25  6.495273E-05  9.000029E+00  4.624981E-08 -1.073159E-05  4.063196E-08 -2.476261E-08 _shell_0000000510   
       510  26  5.937579E-05  9.000028E+00 -2.137676E-08 -1.268852E-05  9.664264E-09 -3.419845E-08 _shell_0000000510   
       510  27  5.367690E-05  9.000027E+00  1.755707E-07 -1.493557E-05 -2.130344E-08 -1.983213E-08 _shell_0000000510   
       511   1  5.894963E-05  9.000024E+00 -2.659872E-08 -2.273415E-05  2.220449E-08 -3.369771E-08 _shell_0000000511   
       511   2  5.247376E-05  9.000020E+00  6.923179E-08 -2.371440E-05 -1.489774E-08 -1.990859E-08 _shell_0000000511   
       511   3  4.496345E-05  9.000013E+00  5.123742E-08 -2.480908E-05 -5.199996E-08 -3.237229E-08 _shell_0000000511   
       511   4  5.344025E-05  9.000024E+00 -1.807729E-07 -1.930296E-05  1.974676E-08 -6.865446E-09 _shell_0000000511   
       511   5  4.669919E-05  9.000020E+00 -2.525811E-08 -2.003882E-05 -2.650161E-08  6.652606E-09 _shell_0000000511   
       511   6  3.894994E-05  9.000013E+00  7.768856E-08 -2.088911E-05 -7.274995E-08 -6.082137E-09 _shell_0000000511   
       511   7  4.921420E-05  9.000025E+00 -7.172054E-08 -1.594604E-05  3.348719E-08  1.996679E-08 _shell_0000000511   
       511   8  4.217555E-05  9.000021E+00  6.788733E-08 -1.643751E-05 -2.190732E-08  3.321382E-08 _shell_0000000511   
       511   9  3.415496E-05  9.000013E+00  2.161837E-07 -1.704340E-05 -7.730181E-08  2.020800E-08 _shell_0000000511   
       511  10  5.921486E-05  9.000023E+00  7.535771E-09 -2.261129E-05  1.240469E-15  1.384573E-14 _shell_0000000511   
       511  11  5.270224E-05  9.000020E+00  6.661553E-08 -2.358856E-05  3.521417E-15 -1.934907E-16 _shell_0000000511   
       511  12  4.515518E-05  9.000013E+00  1.187042E-08 -2.468025E-05  1.956749E-15  4.671657E-15 _shell_0000000511   
       511  13  5.371071E-05  9.000024E+00 -1.443996E-07 -1.919235E-05 -3.187730E-16  1.682851E-14 _shell_0000000511   
       511  14  4.693289E-05  9.000020E+00 -2.563546E-08 -1.992523E-05  2.036115E-15  2.238732E-16 _shell_0000000511   
       511  15  3.914689E-05  9.000012E+00  4.056044E-08 -2.077253E-05  8.942642E-15  2.422886E-15 _shell_0000000511   
       511  16  4.948988E-05  9.000025E+00 -3.310826E-08 -1.584768E-05  1.634979E-15  5.543405E-15 _shell_0000000511   
       511  17  4.241448E-05  9.000020E+00  6.974889E-08 -1.633616E-05  1.533162E-15 -3.710888E-15 _shell_0000000511   
       511  18  3.435714E-05  9.000013E+00  1.812945E-07 -1.693907E-05  6.617611E-15 -4.629021E-15 _shell_0000000511   
       511  19  5.894963E-05  9.000024E+00 -2.659873E-08 -2.273415E-05 -2.220447E-08  3.369774E-08 _shell_0000000511   
       511  20  5.247376E-05  9.000020E+00  6.923181E-08 -2.371440E-05  1.489775E-08  1.990858E-08 _shell_0000000511   
       511  21  4.496345E-05  9.000013E+00  5.123742E-08 -2.480908E-05  5.199997E-08  3.237231E-08 _shell_0000000511   
       511  22  5.344025E-05  9.000024E+00 -1.807730E-07 -1.930296E-05 -1.974676E-08  6.865484E-09 _shell_0000000511   
       511  23  4.669919E-05  9.000020E+00 -2.525810E-08 -2.003882E-05  2.650160E-08 -6.652631E-09 _shell_0000000511   
       511  24  3.894994E-05  9.000013E+00  7.768853E-08 -2.088911E-05  7.274997E-08  6.082151E-09 _shell_0000000511   
       511  25  4.921420E-05  9.000025E+00 -7.172057E-08 -1.594604E-05 -3.348719E-08 -1.996677E-08 _shell_0000000511   
       511  26  4.217555E-05  9.000021E+00  6.788733E-08 -1.643751E-05  2.190732E-08 -3.321384E-08 _shell_0000000511   
       511  27  3.415496E-05  9.000013E+00  2.161837E-07 -1.704340E-05  7.730183E-08 -2.020800E-08 _shell_0000000511   
       512   1  3.983871E-05  9.000007E+00 -3.440694E-07 -2.431276E-05  1.491531E-07 -3.379298E-08 _shell_0000000512   
       512   2  3.441968E-05  8.999994E+00  3.617491E-07 -2.116691E-05 -4.720176E-08  6.627534E-09 _shell_0000000512   
       512   3  2.642205E-05  8.999973E+00  3.536264E-07 -1.781258E-05 -2.435566E-07  7.166913E-08 _shell_0000000512   
       512   4  3.358837E-05  9.000007E+00 -3.597320E-07 -2.034226E-05  1.471188E-07 -1.335802E-08 _shell_0000000512   
       512   5  2.805466E-05  8.999992E+00  2.151136E-07 -1.760407E-05 -4.663649E-08  7.212183E-09 _shell_0000000512   
       512   6  1.991773E-05  8.999970E+00  1.856887E-08 -1.465738E-05 -2.403917E-07  5.240349E-08 _shell_0000000512   
       512   7  2.871238E-05  9.000006E+00 -2.287473E-07 -1.657966E-05  1.579115E-07  7.076922E-09 _shell_0000000512   
       512   8  2.303835E-05  8.999991E+00  1.552657E-07 -1.424911E-05 -3.324413E-08  7.796858E-09 _shell_0000000512   
       512   9  1.473647E-05  8.999968E+00 -2.895608E-07 -1.171007E-05 -2.243998E-07  3.313786E-08 _shell_0000000512   
       512  10  4.026047E-05  9.000007E+00 -2.994723E-07 -2.418159E-05  3.314787E-15  6.922847E-15 _shell_0000000512   
       512  11  3.479026E-05  8.999994E+00  3.551536E-07 -2.104303E-05  1.670700E-15 -1.934611E-16 _shell_0000000512   
       512  12  2.674143E-05  8.999973E+00  2.958384E-07 -1.769599E-05  2.439734E-15  2.406425E-15 _shell_0000000512   
       512  13  3.399739E-05  9.000006E+00 -3.205974E-07 -2.022816E-05  1.101936E-14  8.658453E-15 _shell_0000000512   
       512  14  2.841249E-05  8.999992E+00  2.030557E-07 -1.749725E-05  2.443333E-15  3.125360E-15 _shell_0000000512   
       512  15  2.022437E-05  8.999970E+00 -4.468153E-08 -1.455785E-05 -4.335895E-15  1.608458E-15 _shell_0000000512   
       512  16  2.910866E-05  9.000006E+00 -1.950751E-07 -1.648262E-05  6.744710E-15 -1.990298E-15 _shell_0000000512   
       512  17  2.338344E-05  8.999990E+00  1.377454E-07 -1.415935E-05  3.611101E-15 -1.674744E-15 _shell_0000000512   
       512  18  1.503036E-05  8.999967E+00 -3.582736E-07 -1.162760E-05 -2.986778E-15 -1.829331E-15 _shell_0000000512   
       512  19  3.983871E-05  9.000007E+00 -3.440694E-07 -2.431276E-05 -1.491531E-07  3.379299E-08 _shell_0000000512   
       512  20  3.441968E-05  8.999994E+00  3.617491E-07 -2.116691E-05  4.720177E-08 -6.627533E-09 _shell_0000000512   
       512  21  2.642205E-05  8.999973E+00  3.536264E-07 -1.781258E-05  2.435566E-07 -7.166910E-08 _shell_0000000512   
       512  22  3.358837E-05  9.000007E+00 -3.597320E-07 -2.034226E-05 -1.471187E-07  1.335804E-08 _shell_0000000512   
       512  23  2.805466E-05  8.999992E+00  2.151136E-07 -1.760407E-05  4.663649E-08 -7.212194E-09 _shell_0000000512   
       512  24  1.991773E-05  8.999970E+00  1.856884E-08 -1.465738E-05  2.403917E-07 -5.240349E-08 _shell_0000000512   
       512  25  2.871238E-05  9.000006E+00 -2.287473E-07 -1.657966E-05 -1.579115E-07 -7.076907E-09 _shell_0000000512   
       512  26  2.303835E-05  8.999991E+00  1.552656E-07 -1.424911E-05  3.324412E-08 -7.796869E-09 _shell_0000000512   
       512  27  1.473647E-05  8.999968E+00 -2.895608E-07 -1.171007E-05  2.243998E-07 -3.313785E-08 _shell_0000000512   
       513   1  2.153963E-05  8.999957E+00 -5.808173E-07 -1.376400E-05  2.789197E-07  3.415327E-08 _shell_0000000513   
       513   2  2.136925E-05  8.999922E+00 -1.515951E-07 -7.337075E-06  7.445798E-08 -8.782956E-08 _shell_0000000513   
       513   3  1.729064E-05  8.999875E+00 -1.095757E-06 -1.183367E-06 -1.300038E-07 -7.367781E-08 _shell_0000000513   
       513   4  1.600134E-05  8.999954E+00 -4.113870E-07 -1.151806E-05  2.704869E-07  1.592700E-08 _shell_0000000513   
       513   5  1.585519E-05  8.999920E+00  3.307663E-07 -6.380816E-06  5.662823E-08 -8.263384E-08 _shell_0000000513   
       513   6  1.166469E-05  8.999874E+00 -6.181123E-07 -1.516794E-06 -1.572305E-07 -4.506007E-08 _shell_0000000513   
       513   7  1.130718E-05  8.999951E+00 -4.281875E-07 -9.108523E-06  2.563591E-07 -2.299283E-09 _shell_0000000513   
       513   8  1.119665E-05  8.999918E+00  6.534735E-07 -5.260967E-06  3.310347E-08 -7.743809E-08 _shell_0000000513   
       513   9  6.905650E-06  8.999873E+00 -2.735446E-07 -1.686631E-06 -1.901521E-07 -1.644233E-08 _shell_0000000513   
       513  10  2.217472E-05  8.999956E+00 -5.053036E-07 -1.378398E-05  4.641926E-16  2.036096E-15 _shell_0000000513   
       513  11  2.204350E-05  8.999921E+00 -3.691796E-08 -7.415148E-06 -4.611816E-16 -1.211549E-15 _shell_0000000513   
       513  12  1.800406E-05  8.999875E+00 -9.419168E-07 -1.319538E-06 -4.431631E-15  1.006626E-15 _shell_0000000513   
       513  13  1.653476E-05  8.999953E+00 -3.794469E-07 -1.152498E-05 -6.350856E-15  6.240509E-15 _shell_0000000513   
       513  14  1.642777E-05  8.999919E+00  4.018698E-07 -6.445835E-06 -5.078255E-15  1.384771E-15 _shell_0000000513   
       513  15  1.227644E-05  8.999874E+00 -5.078453E-07 -1.639911E-06 -5.715711E-15  2.547494E-15 _shell_0000000513   
       513  16  1.173892E-05  8.999951E+00 -4.398211E-07 -9.102390E-06 -5.739947E-15 -2.397575E-15 _shell_0000000513   
       513  17  1.166756E-05  8.999918E+00  6.810034E-07 -5.312932E-06 -1.115696E-14  6.668419E-16 _shell_0000000513   
       513  18  7.415721E-06  8.999873E+00 -2.068512E-07 -1.796694E-06 -7.660200E-15  4.329992E-15 _shell_0000000513   
       513  19  2.153963E-05  8.999957E+00 -5.808173E-07 -1.376400E-05 -2.789198E-07 -3.415327E-08 _shell_0000000513   
       513  20  2.136925E-05  8.999922E+00 -1.515951E-07 -7.337075E-06 -7.445799E-08  8.782955E-08 _shell_0000000513   
       513  21  1.729064E-05  8.999875E+00 -1.095757E-06 -1.183367E-06  1.300038E-07  7.367782E-08 _shell_0000000513   
       513  22  1.600134E-05  8.999954E+00 -4.113870E-07 -1.151806E-05 -2.704869E-07 -1.592699E-08 _shell_0000000513   
       513  23  1.585519E-05  8.999920E+00  3.307663E-07 -6.380816E-06 -5.662827E-08  8.263382E-08 _shell_0000000513   
       513  24  1.166469E-05  8.999874E+00 -6.181123E-07 -1.516794E-06  1.572305E-07  4.506008E-08 _shell_0000000513   
       513  25  1.130718E-05  8.999951E+00 -4.281875E-07 -9.108523E-06 -2.563591E-07  2.299293E-09 _shell_0000000513   
       513  26  1.119665E-05  8.999918E+00  6.534735E-07 -5.260967E-06 -3.310350E-08  7.743808E-08 _shell_0000000513   
       513  27  6.905650E-06  8.999873E+00 -2.735446E-07 -1.686631E-06  1.901521E-07  1.644235E-08 _shell_0000000513   
       514   1  2.201765E-05  8.999846E+00  1.017295E-06  9.574603E-07  5.140329E-08 -1.309046E-08 _shell_0000000514   
       514   2  2.148608E-05  8.999790E+00  6.186811E-07 -1.839100E-06 -2.337215E-07  2.179974E-08 _shell_0000000514   
       514   3  2.085851E-05  8.999732E+00  9.969590E-07 -4.910877E-06 -5.188463E-07 -5.375434E-08 _shell_0000000514   
       514   4  1.407148E-05  8.999844E+00  4.020404E-07  2.327323E-07  6.737077E-08  2.650728E-08 _shell_0000000514   
       514   5  1.333063E-05  8.999789E+00 -1.648893E-07 -1.338694E-06 -1.129146E-07  7.570812E-08 _shell_0000000514   
       514   6  1.260423E-05  8.999732E+00  3.027757E-07 -3.185337E-06 -2.932000E-07  1.446466E-08 _shell_0000000514   
       514   7  8.445874E-06  8.999844E+00  2.835959E-07 -3.426468E-07  8.281754E-08  6.610501E-08 _shell_0000000514   
       514   8  7.496788E-06  8.999789E+00 -4.492201E-07 -6.889386E-07  7.371600E-09  1.296165E-07 _shell_0000000514   
       514   9  6.672595E-06  8.999733E+00  1.102621E-07 -1.310448E-06 -6.807435E-08  8.268366E-08 _shell_0000000514   
       514  10  2.182363E-05  8.999845E+00  7.916185E-07  8.298465E-07 -3.275808E-17 -2.037876E-16 _shell_0000000514   
       514  11  2.130933E-05  8.999789E+00  4.102761E-07 -1.846667E-06 -1.928306E-15  1.740751E-15 _shell_0000000514   
       514  12  2.069903E-05  8.999732E+00  8.058251E-07 -4.798398E-06 -1.516620E-14  1.055097E-14 _shell_0000000514   
       514  13  1.408754E-05  8.999844E+00  2.663990E-07  1.108755E-07 -8.220971E-15  7.064752E-15 _shell_0000000514   
       514  14  1.336396E-05  8.999788E+00 -2.832597E-07 -1.340504E-06 -3.473584E-15  2.209128E-15 _shell_0000000514   
       514  15  1.265483E-05  8.999732E+00  2.016764E-07 -3.067101E-06 -3.579622E-15  1.130056E-14 _shell_0000000514   
       514  16  8.672015E-06  8.999843E+00  2.379890E-07 -4.587465E-07 -9.950988E-15  4.118204E-15 _shell_0000000514   
       514  17  7.740200E-06  8.999788E+00 -4.775558E-07 -6.849921E-07 -1.670746E-15  4.631186E-16 _shell_0000000514   
       514  18  6.933278E-06  8.999733E+00  9.919750E-08 -1.186455E-06  4.649349E-15  8.860461E-15 _shell_0000000514   
       514  19  2.201765E-05  8.999846E+00  1.017295E-06  9.574602E-07 -5.140329E-08  1.309045E-08 _shell_0000000514   
       514  20  2.148608E-05  8.999790E+00  6.186811E-07 -1.839100E-06  2.337215E-07 -2.179975E-08 _shell_0000000514   
       514  21  2.085851E-05  8.999732E+00  9.969590E-07 -4.910877E-06  5.188463E-07  5.375437E-08 _shell_0000000514   
       514  22  1.407148E-05  8.999844E+00  4.020404E-07  2.327322E-07 -6.737079E-08 -2.650726E-08 _shell_0000000514   
       514  23  1.333063E-05  8.999789E+00 -1.648893E-07 -1.338694E-06  1.129146E-07 -7.570813E-08 _shell_0000000514   
       514  24  1.260423E-05  8.999732E+00  3.027757E-07 -3.185337E-06  2.932000E-07 -1.446463E-08 _shell_0000000514   
       514  25  8.445874E-06  8.999844E+00  2.835959E-07 -3.426468E-07 -8.281757E-08 -6.610498E-08 _shell_0000000514   
       514  26  7.496788E-06  8.999789E+00 -4.492201E-07 -6.889386E-07 -7.371590E-09 -1.296165E-07 _shell_0000000514   
       514  27  6.672595E-06  8.999733E+00  1.102622E-07 -1.310448E-06  6.807437E-08 -8.268363E-08 _shell_0000000514   
       515   1  1.223650E-05  8.999697E+00 -1.582942E-06 -7.364419E-06 -1.931045E-07 -1.314496E-07 _shell_0000000515   
       515   2  7.899343E-06  8.999639E+00 -2.962156E-07 -5.073845E-06 -1.770982E-08 -3.067008E-08 _shell_0000000515   
       515   3  4.660721E-07  8.999571E+00  4.199898E-07 -1.091651E-06  1.576849E-07  4.123772E-07 _shell_0000000515   
       515   4  7.614614E-06  8.999698E+00 -8.044820E-07 -4.248207E-06 -1.525130E-08 -8.055143E-08 _shell_0000000515   
       515   5  4.972133E-06  8.999638E+00  2.311663E-07 -2.774411E-06 -9.240422E-09 -5.360557E-08 _shell_0000000515   
       515   6 -1.108733E-06  8.999569E+00 -1.023313E-07  3.910048E-07 -3.229535E-09  3.156081E-07 _shell_0000000515   
       515   7  4.214883E-06  8.999699E+00  3.463957E-09 -1.490350E-06  1.636113E-07 -2.965330E-08 _shell_0000000515   
       515   8  3.265055E-06  8.999638E+00  7.833239E-07 -8.333328E-07  2.383739E-10 -7.654105E-08 _shell_0000000515   
       515   9 -1.465425E-06  8.999567E+00 -6.045869E-07  1.515305E-06 -1.631346E-07  2.188390E-07 _shell_0000000515   
       515  10  1.347509E-05  8.999697E+00 -1.186221E-06 -7.271631E-06 -1.486315E-14  1.160611E-14 _shell_0000000515   
       515  11  9.052600E-06  8.999638E+00  1.517164E-08 -5.236445E-06  4.982469E-15  6.322157E-15 _shell_0000000515   
       515  12  1.533995E-06  8.999570E+00  6.460432E-07 -1.509639E-06  8.675360E-15  5.995034E-15 _shell_0000000515   
       515  13  8.406275E-06  8.999698E+00 -5.993021E-07 -4.183864E-06  4.312961E-16  1.115240E-14 _shell_0000000515   
       515  14  5.678460E-06  8.999638E+00  3.510123E-07 -2.965456E-06 -5.795433E-20 -1.039074E-15 _shell_0000000515   
       515  15 -4.877396E-07  8.999568E+00 -6.781911E-08 -5.542864E-08 -3.320806E-15  6.194716E-15 _shell_0000000515   
       515  16  4.559615E-06  8.999699E+00  1.710265E-08 -1.454452E-06  9.818335E-15  3.914571E-15 _shell_0000000515   
       515  17  3.524453E-06  8.999638E+00  7.116287E-07 -1.052822E-06  9.569829E-15 -8.903066E-15 _shell_0000000515   
       515  18 -1.291361E-06  8.999566E+00 -7.616160E-07  1.040427E-06  7.006863E-16  7.969601E-15 _shell_0000000515   
       515  19  1.223650E-05  8.999697E+00 -1.582942E-06 -7.364419E-06  1.931045E-07  1.314496E-07 _shell_0000000515   
       515  20  7.899343E-06  8.999639E+00 -2.962156E-07 -5.073845E-06  1.770981E-08  3.067007E-08 _shell_0000000515   
       515  21  4.660720E-07  8.999571E+00  4.199897E-07 -1.091651E-06 -1.576849E-07 -4.123772E-07 _shell_0000000515   
       515  22  7.614614E-06  8.999698E+00 -8.044820E-07 -4.248207E-06  1.525128E-08  8.055146E-08 _shell_0000000515   
       515  23  4.972133E-06  8.999638E+00  2.311663E-07 -2.774411E-06  9.240426E-09  5.360555E-08 _shell_0000000515   
       515  24 -1.108733E-06  8.999569E+00 -1.023313E-07  3.910048E-07  3.229534E-09 -3.156081E-07 _shell_0000000515   
       515  25  4.214883E-06  8.999699E+00  3.463952E-09 -1.490350E-06 -1.636113E-07  2.965331E-08 _shell_0000000515   
       515  26  3.265055E-06  8.999638E+00  7.833238E-07 -8.333327E-07 -2.383511E-10  7.654103E-08 _shell_0000000515   
       515  27 -1.465425E-06  8.999567E+00 -6.045869E-07  1.515305E-06  1.631346E-07 -2.188390E-07 _shell_0000000515   
       601   1 -3.082038E-07  8.999569E+00  3.846198E-07 -1.158738E-06  1.757752E-07  1.673614E-07 _shell_0000000601   
       601   2  1.293183E-06  8.999635E+00 -3.009492E-07 -3.500303E-08 -1.642784E-08 -7.004747E-08 _shell_0000000601   
       601   3  2.003855E-06  8.999698E+00 -4.932834E-07  5.262955E-07 -2.086309E-07 -5.968156E-08 _shell_0000000601   
       601   4 -8.493952E-07  8.999569E+00 -3.669720E-08 -1.047846E-06  8.671040E-08  1.499369E-07 _shell_0000000601   
       601   5  2.896472E-07  8.999636E+00 -3.487027E-08 -2.383976E-07 -3.518330E-08 -6.671503E-08 _shell_0000000601   
       601   6  2.901995E-07  8.999698E+00 -1.179497E-07  8.614188E-09 -1.570770E-07 -3.559224E-08 _shell_0000000601   
       601   7 -8.265990E-07  8.999570E+00 -2.373963E-07 -9.098069E-07  3.908538E-08  1.325125E-07 _shell_0000000601   
       601   8 -2.327807E-07  8.999636E+00  2.584408E-07 -4.146448E-07 -1.249896E-08 -6.338257E-08 _shell_0000000601   
       601   9 -1.025227E-06  8.999698E+00  9.123032E-08 -4.819196E-07 -6.408329E-08 -1.150290E-08 _shell_0000000601   
       601  10  8.863317E-08  8.999570E+00  5.363732E-07 -9.222094E-07  7.525177E-16 -3.507308E-15 _shell_0000000601   
       601  11  1.620132E-06  8.999635E+00 -2.190839E-07  1.613425E-07 -4.829085E-15 -4.988533E-15 _shell_0000000601   
       601  12  2.260915E-06  8.999698E+00 -4.813063E-07  6.824574E-07 -1.397270E-14 -1.244966E-14 _shell_0000000601   
       601  13 -5.228794E-07  8.999569E+00  8.491852E-08 -8.346134E-07 -1.628938E-15 -5.492229E-15 _shell_0000000601   
       601  14  5.462750E-07  8.999636E+00  1.685736E-08 -6.534821E-08 -5.758827E-15 -1.628911E-15 _shell_0000000601   
       601  15  4.769392E-07  8.999698E+00 -1.361102E-07  1.414801E-07 -5.002006E-15 -4.242881E-15 _shell_0000000601   
       601  16 -5.704044E-07  8.999570E+00 -1.459182E-07 -7.198699E-07  4.241080E-15 -4.886728E-15 _shell_0000000601   
       601  17 -4.647405E-08  8.999636E+00  2.800308E-07 -2.648914E-07 -4.364255E-15 -7.971131E-15 _shell_0000000601   
       601  18 -9.088086E-07  8.999698E+00  4.293224E-08 -3.723497E-07 -3.658310E-15 -7.848638E-15 _shell_0000000601   
       601  19 -3.082038E-07  8.999569E+00  3.846198E-07 -1.158738E-06 -1.757752E-07 -1.673614E-07 _shell_0000000601   
       601  20  1.293183E-06  8.999635E+00 -3.009492E-07 -3.500302E-08  1.642784E-08  7.004746E-08 _shell_0000000601   
       601  21  2.003855E-06  8.999698E+00 -4.932834E-07  5.262955E-07  2.086309E-07  5.968154E-08 _shell_0000000601   
       601  22 -8.493953E-07  8.999569E+00 -3.669721E-08 -1.047846E-06 -8.671040E-08 -1.499369E-07 _shell_0000000601   
       601  23  2.896472E-07  8.999636E+00 -3.487027E-08 -2.383976E-07  3.518330E-08  6.671502E-08 _shell_0000000601   
       601  24  2.901996E-07  8.999698E+00 -1.179497E-07  8.614192E-09  1.570770E-07  3.559221E-08 _shell_0000000601   
       601  25 -8.265991E-07  8.999570E+00 -2.373963E-07 -9.098068E-07 -3.908538E-08 -1.325125E-07 _shell_0000000601   
       601  26 -2.327807E-07  8.999636E+00  2.584408E-07 -4.146448E-07  1.249895E-08  6.338257E-08 _shell_0000000601   
       601  27 -1.025227E-06  8.999698E+00  9.123034E-08 -4.819196E-07  6.408328E-08  1.150288E-08 _shell_0000000601   
       602   1  4.363791E-06  8.999734E+00  3.022052E-07  8.761998E-07  1.267630E-08  2.125850E-09 _shell_0000000602   
       602   2  5.826604E-06  8.999791E+00  4.039703E-07  6.935489E-07 -4.157883E-08  1.999882E-08 _shell_0000000602   
       602   3  5.917863E-06  8.999844E+00  3.589962E-07  3.532551E-07 -9.583398E-08  3.443599E-10 _shell_0000000602   
       602   4  8.037843E-07  8.999733E+00 -6.072455E-08  3.494729E-07  5.281490E-08  2.951936E-08 _shell_0000000602   
       602   5  2.032857E-06  8.999790E+00  6.029581E-08  4.191610E-07 -3.345763E-08  3.799024E-08 _shell_0000000602   
       602   6  1.927903E-06  8.999843E+00  1.221410E-07  3.312063E-07 -1.197301E-07  8.933694E-09 _shell_0000000602   
       602   7 -1.184809E-06  8.999733E+00 -1.427827E-07 -1.870473E-07  1.018210E-07  5.691288E-08 _shell_0000000602   
       602   8 -2.072111E-07  8.999790E+00 -4.388894E-08  1.349798E-07 -1.646885E-08  5.598168E-08 _shell_0000000602   
       602   9 -5.261135E-07  8.999842E+00  8.339353E-08  2.993641E-07 -1.347587E-07  1.752306E-08 _shell_0000000602   
       602  10  4.694363E-06  8.999733E+00  3.289898E-07  9.629309E-07 -1.441839E-14 -1.114281E-14 _shell_0000000602   
       602  11  6.126647E-06  8.999791E+00  4.002255E-07  7.703398E-07 -8.582454E-15 -2.137937E-15 _shell_0000000602   
       602  12  6.187377E-06  8.999843E+00  3.247220E-07  4.201058E-07 -4.207671E-15  1.459689E-15 _shell_0000000602   
       602  13  1.116961E-06  8.999733E+00 -4.139519E-08  4.260276E-07 -2.976363E-15 -9.615456E-15 _shell_0000000602   
       602  14  2.315505E-06  8.999790E+00  4.909582E-08  4.857754E-07 -1.628910E-15 -1.425296E-15 _shell_0000000602   
       602  15  2.180021E-06  8.999842E+00  8.041162E-08  3.878805E-07 -3.480135E-15  2.564254E-15 _shell_0000000602   
       602  16 -8.890270E-07  8.999733E+00 -1.309085E-07 -1.206691E-07 -2.863318E-15 -8.959002E-15 _shell_0000000602   
       602  17  5.804130E-08  8.999790E+00 -6.254410E-08  1.914178E-07 -2.677694E-15 -9.498312E-15 _shell_0000000602   
       602  18 -2.913904E-07  8.999842E+00  3.420903E-08  3.458619E-07 -1.065312E-15 -1.320280E-15 _shell_0000000602   
       602  19  4.363791E-06  8.999734E+00  3.022053E-07  8.761998E-07 -1.267634E-08 -2.125870E-09 _shell_0000000602   
       602  20  5.826604E-06  8.999791E+00  4.039703E-07  6.935489E-07  4.157882E-08 -1.999883E-08 _shell_0000000602   
       602  21  5.917863E-06  8.999844E+00  3.589962E-07  3.532551E-07  9.583397E-08 -3.443442E-10 _shell_0000000602   
       602  22  8.037843E-07  8.999733E+00 -6.072455E-08  3.494729E-07 -5.281490E-08 -2.951937E-08 _shell_0000000602   
       602  23  2.032857E-06  8.999790E+00  6.029580E-08  4.191610E-07  3.345761E-08 -3.799025E-08 _shell_0000000602   
       602  24  1.927903E-06  8.999843E+00  1.221409E-07  3.312063E-07  1.197301E-07 -8.933704E-09 _shell_0000000602   
       602  25 -1.184809E-06  8.999733E+00 -1.427826E-07 -1.870473E-07 -1.018210E-07 -5.691289E-08 _shell_0000000602   
       602  26 -2.072111E-07  8.999790E+00 -4.388894E-08  1.349798E-07  1.646885E-08 -5.598167E-08 _shell_0000000602   
       602  27 -5.261134E-07  8.999842E+00  8.339357E-08  2.993641E-07  1.347587E-07 -1.752306E-08 _shell_0000000602   
       603   1  4.022441E-06  8.999871E+00 -7.344388E-07  1.411711E-06  2.005421E-07 -2.262452E-08 _shell_0000000603   
       603   2  8.234180E-06  8.999916E+00  5.618429E-08  4.578109E-06 -2.446820E-08 -2.683696E-08 _shell_0000000603   
       603   3  9.182912E-06  8.999950E+00 -3.157543E-07  7.859666E-06 -2.494785E-07  1.673015E-08 _shell_0000000603   
       603   4  1.073661E-06  8.999871E+00 -4.574720E-07  1.136642E-06  2.004458E-07 -1.869256E-08 _shell_0000000603   
       603   5  5.290297E-06  8.999915E+00  2.717666E-07  3.352410E-06 -2.119754E-08 -2.950800E-08 _shell_0000000603   
       603   6  6.196147E-06  8.999949E+00 -2.730421E-07  5.683338E-06 -2.428409E-07  7.456119E-09 _shell_0000000603   
       603   7 -9.638149E-07  8.999871E+00 -2.612978E-07  7.838097E-07  2.015832E-07 -1.476059E-08 _shell_0000000603   
       603   8  3.255251E-06  8.999914E+00  4.007989E-07  2.048948E-06 -1.669318E-08 -3.217903E-08 _shell_0000000603   
       603   9  4.115751E-06  8.999948E+00 -3.226372E-07  3.429246E-06 -2.349696E-07 -1.817893E-09 _shell_0000000603   
       603  10  4.486959E-06  8.999871E+00 -6.919129E-07  1.446974E-06 -5.167450E-15  3.613743E-16 _shell_0000000603   
       603  11  8.688494E-06  8.999915E+00  8.850596E-08  4.597980E-06 -1.119133E-14 -3.359646E-15 _shell_0000000603   
       603  12  9.627022E-06  8.999950E+00 -2.936368E-07  7.864145E-06 -4.219931E-15  2.974056E-15 _shell_0000000603   
       603  13  1.511243E-06  8.999871E+00 -4.264901E-07  1.168504E-06 -6.105399E-15 -2.667183E-15 _shell_0000000603   
       603  14  5.717675E-06  8.999915E+00  2.925442E-07  3.368880E-06  0.000000E+00 -1.832523E-15 _shell_0000000603   
       603  15  6.613321E-06  8.999949E+00 -2.624687E-07  5.684416E-06  9.556366E-15  3.901699E-15 _shell_0000000603   
       603  16 -5.531691E-07  8.999870E+00 -2.418601E-07  8.122703E-07  2.425497E-16 -1.628908E-15 _shell_0000000603   
       603  17  3.655692E-06  8.999914E+00  4.100324E-07  2.062016E-06  3.760756E-15 -1.122910E-14 _shell_0000000603   
       603  18  4.505988E-06  8.999948E+00 -3.236079E-07  3.426922E-06  1.904411E-14 -6.461526E-15 _shell_0000000603   
       603  19  4.022441E-06  8.999871E+00 -7.344388E-07  1.411711E-06 -2.005421E-07  2.262452E-08 _shell_0000000603   
       603  20  8.234180E-06  8.999916E+00  5.618429E-08  4.578109E-06  2.446817E-08  2.683696E-08 _shell_0000000603   
       603  21  9.182912E-06  8.999950E+00 -3.157542E-07  7.859666E-06  2.494785E-07 -1.673014E-08 _shell_0000000603   
       603  22  1.073661E-06  8.999871E+00 -4.574720E-07  1.136642E-06 -2.004458E-07  1.869256E-08 _shell_0000000603   
       603  23  5.290297E-06  8.999915E+00  2.717666E-07  3.352410E-06  2.119754E-08  2.950800E-08 _shell_0000000603   
       603  24  6.196147E-06  8.999949E+00 -2.730421E-07  5.683338E-06  2.428409E-07 -7.456126E-09 _shell_0000000603   
       603  25 -9.638149E-07  8.999871E+00 -2.612978E-07  7.838097E-07 -2.015832E-07  1.476058E-08 _shell_0000000603   
       603  26  3.255251E-06  8.999914E+00  4.007989E-07  2.048948E-06  1.669319E-08  3.217903E-08 _shell_0000000603   
       603  27  4.115751E-06  8.999948E+00 -3.226372E-07  3.429246E-06  2.349696E-07  1.817879E-09 _shell_0000000603   
       604   1  1.277375E-05  8.999967E+00  4.990163E-08  1.007236E-05  2.192343E-07  2.703648E-08 _shell_0000000604   
       604   2  2.081819E-05  8.999990E+00  2.757580E-07  1.219372E-05  2.875377E-08 -2.210814E-09 _shell_0000000604   
       604   3  2.623991E-05  9.000006E+00 -3.375161E-07  1.420986E-05 -1.617268E-07 -1.636307E-08 _shell_0000000604   
       604   4  9.479279E-06  8.999966E+00 -7.755582E-08  7.187215E-06  2.209191E-07  1.873021E-08 _shell_0000000604   
       604   5  1.756466E-05  8.999989E+00  2.289210E-07  8.753471E-06  3.015912E-08 -5.883856E-10 _shell_0000000604   
       604   6  2.301222E-05  9.000005E+00 -3.389543E-07  1.021451E-05 -1.606009E-07 -4.811963E-09 _shell_0000000604   
       604   7  7.274874E-06  8.999965E+00 -2.116558E-07  4.393478E-06  2.151124E-07  1.042396E-08 _shell_0000000604   
       604   8  1.541618E-05  8.999989E+00  2.104021E-07  5.404630E-06  2.407291E-08  1.034054E-09 _shell_0000000604   
       604   9  2.090456E-05  9.000005E+00 -2.771139E-07  6.310563E-06 -1.669666E-07  6.739168E-09 _shell_0000000604   
       604  10  1.311242E-05  8.999967E+00  2.979375E-08  1.002581E-05  1.129571E-15  2.499323E-15 _shell_0000000604   
       604  11  2.118489E-05  8.999990E+00  2.836759E-07  1.214130E-05 -1.692294E-16 -2.137951E-15 _shell_0000000604   
       604  12  2.663463E-05  9.000005E+00 -3.015724E-07  1.415157E-05 -1.094205E-14  1.632347E-14 _shell_0000000604   
       604  13  9.807675E-06  8.999965E+00 -1.020664E-07  7.150009E-06  1.896758E-14 -1.473429E-15 _shell_0000000604   
       604  14  1.792108E-05  8.999989E+00  2.324362E-07  8.710395E-06  9.719519E-15  1.806029E-16 _shell_0000000604   
       604  15  2.339667E-05  9.000005E+00 -3.074133E-07  1.016556E-05 -3.093136E-15  1.329339E-14 _shell_0000000604   
       604  16  7.592998E-06  8.999964E+00 -2.405691E-07  4.365615E-06  1.978719E-14 -4.377696E-15 _shell_0000000604   
       604  17  1.576233E-05  8.999988E+00  2.095147E-07  5.370896E-06  1.187092E-14 -5.731561E-15 _shell_0000000604   
       604  18  2.127874E-05  9.000005E+00 -2.499755E-07  6.270960E-06  5.783943E-15  5.169898E-15 _shell_0000000604   
       604  19  1.277375E-05  8.999967E+00  4.990165E-08  1.007236E-05 -2.192343E-07 -2.703647E-08 _shell_0000000604   
       604  20  2.081819E-05  8.999990E+00  2.757580E-07  1.219372E-05 -2.875377E-08  2.210806E-09 _shell_0000000604   
       604  21  2.623991E-05  9.000006E+00 -3.375161E-07  1.420986E-05  1.617267E-07  1.636311E-08 _shell_0000000604   
       604  22  9.479279E-06  8.999966E+00 -7.755584E-08  7.187215E-06 -2.209191E-07 -1.873020E-08 _shell_0000000604   
       604  23  1.756466E-05  8.999989E+00  2.289210E-07  8.753471E-06 -3.015911E-08  5.883846E-10 _shell_0000000604   
       604  24  2.301222E-05  9.000005E+00 -3.389544E-07  1.021451E-05  1.606009E-07  4.811975E-09 _shell_0000000604   
       604  25  7.274874E-06  8.999965E+00 -2.116558E-07  4.393478E-06 -2.151123E-07 -1.042397E-08 _shell_0000000604   
       604  26  1.541618E-05  8.999989E+00  2.104021E-07  5.404630E-06 -2.407288E-08 -1.034042E-09 _shell_0000000604   
       604  27  2.090456E-05  9.000005E+00 -2.771139E-07  6.310563E-06  1.669666E-07 -6.739156E-09 _shell_0000000604   
       605   1  3.166991E-05  9.000012E+00  9.070672E-08  1.464330E-05  8.106629E-08 -1.634531E-08 _shell_0000000605   
       605   2  3.997039E-05  9.000021E+00  8.984970E-08  1.418479E-05  2.200731E-08 -1.819450E-08 _shell_0000000605   
       605   3  4.709422E-05  9.000026E+00 -8.303706E-08  1.375123E-05 -3.705168E-08 -2.983257E-08 _shell_0000000605   
       605   4  2.843689E-05  9.000012E+00  6.091168E-08  1.055897E-05  9.193398E-08 -4.033530E-10 _shell_0000000605   
       605   5  3.682796E-05  9.000021E+00  5.564436E-09  1.024380E-05  2.942815E-08  2.907879E-09 _shell_0000000605   
       605   6  4.405217E-05  9.000026E+00 -1.989718E-07  9.953590E-06 -3.307768E-08 -3.569776E-09 _shell_0000000605   
       605   7  2.637338E-05  9.000012E+00  1.376007E-07  6.520301E-06  9.045010E-08  1.553862E-08 _shell_0000000605   
       605   8  3.487975E-05  9.000021E+00  8.540390E-08  6.348486E-06  2.449742E-08  2.401027E-08 _shell_0000000605   
       605   9  4.222905E-05  9.000026E+00 -9.314114E-08  6.201626E-06 -4.145526E-08  2.269305E-08 _shell_0000000605   
       605  10  3.187165E-05  9.000012E+00  5.418894E-08  1.457672E-05 -1.266374E-14  2.051914E-14 _shell_0000000605   
       605  11  4.020572E-05  9.000021E+00  8.692841E-08  1.411929E-05 -2.796655E-15  4.683116E-15 _shell_0000000605   
       605  12  4.736315E-05  9.000025E+00 -5.236186E-08  1.368681E-05 -1.983079E-16  7.797153E-15 _shell_0000000605   
       605  13  2.864052E-05  9.000012E+00  2.520818E-08  1.050358E-05 -3.181477E-15  9.137465E-15 _shell_0000000605   
       605  14  3.706519E-05  9.000021E+00  3.457445E-09  1.018950E-05  1.275619E-15  3.614144E-15 _shell_0000000605   
       605  15  4.432300E-05  9.000026E+00 -1.674823E-07  9.900378E-06  3.787459E-16  9.350821E-15 _shell_0000000605   
       605  16  2.657892E-05  9.000012E+00  1.027115E-07  6.476117E-06  4.848551E-15  5.192149E-15 _shell_0000000605   
       605  17  3.511888E-05  9.000021E+00  8.411121E-08  6.305387E-06  4.656129E-15 -3.899051E-15 _shell_0000000605   
       605  18  4.250177E-05  9.000026E+00 -6.083732E-08  6.159613E-06  2.784011E-15  5.577122E-15 _shell_0000000605   
       605  19  3.166991E-05  9.000012E+00  9.070673E-08  1.464330E-05 -8.106632E-08  1.634535E-08 _shell_0000000605   
       605  20  3.997039E-05  9.000021E+00  8.984970E-08  1.418479E-05 -2.200731E-08  1.819451E-08 _shell_0000000605   
       605  21  4.709422E-05  9.000026E+00 -8.303706E-08  1.375123E-05  3.705168E-08  2.983260E-08 _shell_0000000605   
       605  22  2.843689E-05  9.000012E+00  6.091166E-08  1.055897E-05 -9.193399E-08  4.033807E-10 _shell_0000000605   
       605  23  3.682796E-05  9.000021E+00  5.564428E-09  1.024380E-05 -2.942814E-08 -2.907872E-09 _shell_0000000605   
       605  24  4.405217E-05  9.000026E+00 -1.989718E-07  9.953590E-06  3.307769E-08  3.569781E-09 _shell_0000000605   
       605  25  2.637338E-05  9.000012E+00  1.376007E-07  6.520301E-06 -9.045009E-08 -1.553861E-08 _shell_0000000605   
       605  26  3.487975E-05  9.000021E+00  8.540391E-08  6.348486E-06 -2.449741E-08 -2.401026E-08 _shell_0000000605   
       605  27  4.222905E-05  9.000026E+00 -9.314111E-08  6.201626E-06  4.145526E-08 -2.269304E-08 _shell_0000000605   
       606   1  5.164454E-05  9.000027E+00  1.559677E-07  1.290545E-05 -2.054298E-08 -3.101392E-08 _shell_0000000606   
       606   2  5.759012E-05  9.000029E+00  1.447582E-08  1.103497E-05  1.009996E-08 -2.460801E-08 _shell_0000000606   
       606   3  6.332105E-05  9.000029E+00  5.859818E-08  9.288909E-06  4.074291E-08 -2.980737E-08 _shell_0000000606   
       606   4  4.883699E-05  9.000028E+00  8.313988E-08  9.364116E-06 -1.403480E-08 -3.098689E-09 _shell_0000000606   
       606   5  5.495489E-05  9.000029E+00 -1.048379E-07  7.997606E-06  1.604467E-08  3.825365E-09 _shell_0000000606   
       606   6  6.086973E-05  9.000030E+00 -8.012239E-08  6.755509E-06  4.612414E-08 -8.558594E-10 _shell_0000000606   
       606   7  4.706700E-05  9.000028E+00  1.793097E-07  5.831240E-06 -1.769544E-08  2.481657E-08 _shell_0000000606   
       606   8  5.337754E-05  9.000030E+00 -7.699404E-09  4.968696E-06  1.182056E-08  3.225875E-08 _shell_0000000606   
       606   9  5.949664E-05  9.000031E+00  4.506372E-08  4.230567E-06  4.133655E-08  2.809567E-08 _shell_0000000606   
       606  10  5.175035E-05  9.000027E+00  1.262249E-07  1.285365E-05 -1.829491E-15  6.775221E-15 _shell_0000000606   
       606  11  5.771940E-05  9.000028E+00  8.195787E-09  1.098711E-05 -3.039360E-15 -2.137943E-15 _shell_0000000606   
       606  12  6.347379E-05  9.000029E+00  7.578092E-08  9.244971E-06  6.706815E-16  8.229830E-15 _shell_0000000606   
       606  13  4.894968E-05  9.000027E+00  5.634412E-08  9.320141E-06 -9.162700E-16  3.848397E-15 _shell_0000000606   
       606  14  5.509104E-05  9.000029E+00 -1.081709E-07  7.957560E-06 -4.072274E-16 -5.369324E-16 _shell_0000000606   
       606  15  6.102935E-05  9.000030E+00 -5.999260E-08  6.719392E-06  1.345912E-15  6.831103E-15 _shell_0000000606   
       606  16  4.718656E-05  9.000028E+00  1.554610E-07  5.795085E-06  1.631941E-15  4.988535E-15 _shell_0000000606   
       606  17  5.352057E-05  9.000030E+00 -8.085334E-09  4.936471E-06  7.456670E-16 -8.582169E-15 _shell_0000000606   
       606  18  5.966313E-05  9.000031E+00  6.814055E-08  4.202272E-06  2.179831E-15 -1.880230E-15 _shell_0000000606   
       606  19  5.164454E-05  9.000027E+00  1.559677E-07  1.290545E-05  2.054298E-08  3.101394E-08 _shell_0000000606   
       606  20  5.759012E-05  9.000029E+00  1.447583E-08  1.103497E-05 -1.009996E-08  2.460801E-08 _shell_0000000606   
       606  21  6.332105E-05  9.000029E+00  5.859818E-08  9.288909E-06 -4.074291E-08  2.980740E-08 _shell_0000000606   
       606  22  4.883699E-05  9.000028E+00  8.313987E-08  9.364116E-06  1.403479E-08  3.098704E-09 _shell_0000000606   
       606  23  5.495489E-05  9.000029E+00 -1.048379E-07  7.997606E-06 -1.604468E-08 -3.825364E-09 _shell_0000000606   
       606  24  6.086973E-05  9.000030E+00 -8.012240E-08  6.755509E-06 -4.612415E-08  8.558580E-10 _shell_0000000606   
       606  25  4.706700E-05  9.000028E+00  1.793097E-07  5.831240E-06  1.769544E-08 -2.481655E-08 _shell_0000000606   
       606  26  5.337754E-05  9.000030E+00 -7.699390E-09  4.968696E-06 -1.182056E-08 -3.225875E-08 _shell_0000000606   
       606  27  5.949664E-05  9.000031E+00  4.506374E-08  4.230567E-06 -4.133655E-08 -2.809568E-08 _shell_0000000606   
       607   1  6.607109E-05  9.000029E+00  1.365833E-07  7.987615E-06 -6.591655E-08 -3.100267E-08 _shell_0000000607   
       607   2  6.896958E-05  9.000028E+00 -3.192716E-08  5.755050E-06  2.802425E-09 -2.622074E-08 _shell_0000000607   
       607   3  7.209063E-05  9.000028E+00  1.098058E-07  3.615581E-06  7.152141E-08 -2.732721E-08 _shell_0000000607   
       607   4  6.386676E-05  9.000030E+00  5.525162E-08  5.822157E-06 -6.500427E-08 -2.105692E-09 _shell_0000000607   
       607   5  6.687902E-05  9.000029E+00 -1.398532E-07  4.181484E-06  5.932936E-09  1.970700E-09 _shell_0000000607   
       607   6  7.011971E-05  9.000029E+00 -1.097496E-08  2.633909E-06  7.687016E-08  1.586825E-10 _shell_0000000607   
       607   7  6.251179E-05  9.000031E+00  1.569687E-07  3.652127E-06 -6.946575E-08  2.679131E-08 _shell_0000000607   
       607   8  6.564855E-05  9.000030E+00 -3.965299E-08  2.603347E-06  3.689714E-09  3.016215E-08 _shell_0000000607   
       607   9  6.901964E-05  9.000030E+00  1.014480E-07  1.647665E-06  7.684515E-08  2.764460E-08 _shell_0000000607   
       607  10  6.613007E-05  9.000029E+00  1.193652E-07  7.960391E-06  1.511350E-15  1.023665E-14 _shell_0000000607   
       607  11  6.903986E-05  9.000028E+00 -3.784813E-08  5.731697E-06 -1.874631E-15  3.563242E-15 _shell_0000000607   
       607  12  7.217220E-05  9.000028E+00  1.151820E-07  3.596101E-06 -4.794778E-17  9.146092E-15 _shell_0000000607   
       607  13  6.393252E-05  9.000030E+00  4.093734E-08  5.798698E-06  7.320377E-16  4.281078E-15 _shell_0000000607   
       607  14  6.695607E-05  9.000029E+00 -1.428703E-07  4.161898E-06  2.251865E-15  3.614142E-15 _shell_0000000607   
       607  15  7.020806E-05  9.000029E+00 -2.694850E-09  2.618194E-06  4.372229E-16  1.151177E-14 _shell_0000000607   
       607  16  6.258433E-05  9.000031E+00  1.455583E-07  3.632434E-06  2.662733E-15  1.221682E-15 _shell_0000000607   
       607  17  6.573238E-05  9.000030E+00 -3.976616E-08  2.587526E-06  7.786485E-17 -3.288211E-15 _shell_0000000607   
       607  18  6.911477E-05  9.000030E+00  1.126320E-07  1.635716E-06  2.739842E-16  5.653477E-15 _shell_0000000607   
       607  19  6.607109E-05  9.000029E+00  1.365833E-07  7.987615E-06  6.591655E-08  3.100270E-08 _shell_0000000607   
       607  20  6.896958E-05  9.000028E+00 -3.192716E-08  5.755050E-06 -2.802436E-09  2.622074E-08 _shell_0000000607   
       607  21  7.209063E-05  9.000028E+00  1.098058E-07  3.615581E-06 -7.152141E-08  2.732724E-08 _shell_0000000607   
       607  22  6.386676E-05  9.000030E+00  5.525160E-08  5.822157E-06  6.500428E-08  2.105708E-09 _shell_0000000607   
       607  23  6.687902E-05  9.000029E+00 -1.398532E-07  4.181484E-06 -5.932941E-09 -1.970694E-09 _shell_0000000607   
       607  24  7.011971E-05  9.000029E+00 -1.097497E-08  2.633909E-06 -7.687015E-08 -1.586737E-10 _shell_0000000607   
       607  25  6.251179E-05  9.000031E+00  1.569687E-07  3.652127E-06  6.946575E-08 -2.679130E-08 _shell_0000000607   
       607  26  6.564855E-05  9.000030E+00 -3.965298E-08  2.603347E-06 -3.689700E-09 -3.016214E-08 _shell_0000000607   
       607  27  6.901964E-05  9.000030E+00  1.014480E-07  1.647665E-06 -7.684515E-08 -2.764459E-08 _shell_0000000607   
       608   1  7.299871E-05  9.000028E+00  1.278002E-07  2.239703E-06 -7.796548E-08 -2.756232E-08 _shell_0000000608   
       608   2  7.282742E-05  9.000028E+00 -4.094039E-08 -2.268384E-14  2.764692E-15 -2.577295E-08 _shell_0000000608   
       608   3  7.299871E-05  9.000028E+00  1.278002E-07 -2.239704E-06  7.796548E-08 -2.756233E-08 _shell_0000000608   
       608   4  7.111819E-05  9.000029E+00  2.693566E-08  1.636030E-06 -8.117570E-08 -2.817410E-10 _shell_0000000608   
       608   5  7.094512E-05  9.000028E+00 -1.459802E-07 -1.860520E-14 -2.736059E-15  1.507628E-09 _shell_0000000608   
       608   6  7.111819E-05  9.000029E+00  2.693567E-08 -1.636030E-06  8.117570E-08 -2.817523E-10 _shell_0000000608   
       608   7  7.002167E-05  9.000030E+00  1.280058E-07  1.032356E-06 -8.438592E-08  2.699886E-08 _shell_0000000608   
       608   8  6.984680E-05  9.000029E+00 -4.908520E-08 -2.845501E-14 -3.563240E-16  2.878822E-08 _shell_0000000608   
       608   9  7.002167E-05  9.000030E+00  1.280058E-07 -1.032356E-06  8.438592E-08  2.699884E-08 _shell_0000000608   
       608  10  7.305004E-05  9.000028E+00  1.220937E-07  2.235954E-06 -6.168962E-16  1.288363E-14 _shell_0000000608   
       608  11  7.287876E-05  9.000028E+00 -4.664696E-08 -3.007120E-14  1.429837E-15  1.018068E-16 _shell_0000000608   
       608  12  7.305004E-05  9.000028E+00  1.220937E-07 -2.235954E-06  2.578949E-15 -1.088441E-14 _shell_0000000608   
       608  13  7.117609E-05  9.000029E+00  2.404140E-08  1.632280E-06  8.908087E-16  7.920673E-15 _shell_0000000608   
       608  14  7.100302E-05  9.000028E+00 -1.488744E-07 -2.031047E-14  1.730716E-15  1.374392E-15 _shell_0000000608   
       608  15  7.117609E-05  9.000029E+00  2.404140E-08 -1.632280E-06  1.208956E-15 -4.092574E-15 _shell_0000000608   
       608  16  7.008613E-05  9.000030E+00  1.279238E-07  1.028606E-06  2.471844E-15  5.395763E-15 _shell_0000000608   
       608  17  6.991126E-05  9.000029E+00 -4.916718E-08 -2.290654E-14  5.791166E-15 -6.342416E-15 _shell_0000000608   
       608  18  7.008613E-05  9.000030E+00  1.279238E-07 -1.028606E-06  3.353335E-15 -6.448812E-15 _shell_0000000608   
       608  19  7.299871E-05  9.000028E+00  1.278002E-07  2.239703E-06  7.796547E-08  2.756235E-08 _shell_0000000608   
       608  20  7.282742E-05  9.000028E+00 -4.094038E-08 -4.581308E-14 -1.119875E-15  2.577295E-08 _shell_0000000608   
       608  21  7.299871E-05  9.000028E+00  1.278003E-07 -2.239704E-06 -7.796548E-08  2.756232E-08 _shell_0000000608   
       608  22  7.111819E-05  9.000029E+00  2.693565E-08  1.636030E-06  8.117570E-08  2.817637E-10 _shell_0000000608   
       608  23  7.094512E-05  9.000028E+00 -1.459802E-07 -2.565532E-14 -1.119875E-15 -1.507626E-09 _shell_0000000608   
       608  24  7.111819E-05  9.000029E+00  2.693568E-08 -1.636030E-06 -8.117571E-08  2.817326E-10 _shell_0000000608   
       608  25  7.002167E-05  9.000030E+00  1.280059E-07  1.032356E-06  8.438592E-08 -2.699885E-08 _shell_0000000608   
       608  26  6.984680E-05  9.000029E+00 -4.908520E-08 -2.812414E-14  7.126479E-16 -2.878821E-08 _shell_0000000608   
       608  27  7.002167E-05  9.000030E+00  1.280058E-07 -1.032356E-06 -8.438592E-08 -2.699886E-08 _shell_0000000608   
       609   1  7.209063E-05  9.000028E+00  1.098058E-07 -3.615581E-06 -7.152142E-08 -2.732721E-08 _shell_0000000609   
       609   2  6.896958E-05  9.000028E+00 -3.192715E-08 -5.755050E-06 -2.802432E-09 -2.622073E-08 _shell_0000000609   
       609   3  6.607109E-05  9.000029E+00  1.365833E-07 -7.987615E-06  6.591655E-08 -3.100267E-08 _shell_0000000609   
       609   4  7.011971E-05  9.000029E+00 -1.097496E-08 -2.633909E-06 -7.687016E-08  1.586806E-10 _shell_0000000609   
       609   5  6.687902E-05  9.000029E+00 -1.398532E-07 -4.181484E-06 -5.932940E-09  1.970707E-09 _shell_0000000609   
       609   6  6.386676E-05  9.000030E+00  5.525160E-08 -5.822157E-06  6.500428E-08 -2.105690E-09 _shell_0000000609   
       609   7  6.901964E-05  9.000030E+00  1.014480E-07 -1.647665E-06 -7.684515E-08  2.764458E-08 _shell_0000000609   
       609   8  6.564855E-05  9.000030E+00 -3.965297E-08 -2.603347E-06 -3.689697E-09  3.016215E-08 _shell_0000000609   
       609   9  6.251179E-05  9.000031E+00  1.569687E-07 -3.652127E-06  6.946575E-08  2.679131E-08 _shell_0000000609   
       609  10  7.217220E-05  9.000028E+00  1.151820E-07 -3.596101E-06  4.484618E-17 -7.070511E-15 _shell_0000000609   
       609  11  6.903986E-05  9.000028E+00 -3.784813E-08 -5.731697E-06  7.441564E-16  6.515639E-15 _shell_0000000609   
       609  12  6.613007E-05  9.000029E+00  1.193652E-07 -7.960391E-06 -2.510778E-15  1.101679E-14 _shell_0000000609   
       609  13  7.020806E-05  9.000029E+00 -2.694863E-09 -2.618194E-06 -1.462860E-15 -5.925059E-15 _shell_0000000609   
       609  14  6.695607E-05  9.000029E+00 -1.428703E-07 -4.161898E-06 -4.581308E-16  4.683115E-15 _shell_0000000609   
       609  15  6.393252E-05  9.000030E+00  4.093735E-08 -5.798698E-06 -1.393788E-15  1.178929E-14 _shell_0000000609   
       609  16  6.911477E-05  9.000030E+00  1.126320E-07 -1.635716E-06  1.056246E-15 -5.599376E-15 _shell_0000000609   
       609  17  6.573238E-05  9.000030E+00 -3.976618E-08 -2.587526E-06 -1.720991E-16 -6.036996E-15 _shell_0000000609   
       609  18  6.258433E-05  9.000031E+00  1.455583E-07 -3.632434E-06 -3.944257E-15  2.955596E-15 _shell_0000000609   
       609  19  7.209063E-05  9.000028E+00  1.098058E-07 -3.615581E-06  7.152143E-08  2.732720E-08 _shell_0000000609   
       609  20  6.896958E-05  9.000028E+00 -3.192716E-08 -5.755050E-06  2.802423E-09  2.622074E-08 _shell_0000000609   
       609  21  6.607109E-05  9.000029E+00  1.365833E-07 -7.987615E-06 -6.591656E-08  3.100270E-08 _shell_0000000609   
       609  22  7.011971E-05  9.000029E+00 -1.097495E-08 -2.633909E-06  7.687016E-08 -1.586833E-10 _shell_0000000609   
       609  23  6.687902E-05  9.000029E+00 -1.398532E-07 -4.181484E-06  5.932931E-09 -1.970698E-09 _shell_0000000609   
       609  24  6.386676E-05  9.000030E+00  5.525160E-08 -5.822157E-06 -6.500428E-08  2.105698E-09 _shell_0000000609   
       609  25  6.901964E-05  9.000030E+00  1.014481E-07 -1.647665E-06  7.684515E-08 -2.764459E-08 _shell_0000000609   
       609  26  6.564855E-05  9.000030E+00 -3.965298E-08 -2.603347E-06  3.689686E-09 -3.016214E-08 _shell_0000000609   
       609  27  6.251179E-05  9.000031E+00  1.569687E-07 -3.652127E-06 -6.946575E-08 -2.679130E-08 _shell_0000000609   
       610   1  6.332105E-05  9.000029E+00  5.859816E-08 -9.288909E-06 -4.074291E-08 -2.980737E-08 _shell_0000000610   
       610   2  5.759012E-05  9.000029E+00  1.447583E-08 -1.103497E-05 -1.009996E-08 -2.460801E-08 _shell_0000000610   
       610   3  5.164454E-05  9.000027E+00  1.559677E-07 -1.290545E-05  2.054299E-08 -3.101391E-08 _shell_0000000610   
       610   4  6.086973E-05  9.000030E+00 -8.012239E-08 -6.755509E-06 -4.612415E-08 -8.558554E-10 _shell_0000000610   
       610   5  5.495489E-05  9.000029E+00 -1.048379E-07 -7.997606E-06 -1.604468E-08  3.825366E-09 _shell_0000000610   
       610   6  4.883699E-05  9.000028E+00  8.313988E-08 -9.364116E-06  1.403478E-08 -3.098690E-09 _shell_0000000610   
       610   7  5.949664E-05  9.000031E+00  4.506373E-08 -4.230567E-06 -4.133656E-08  2.809568E-08 _shell_0000000610   
       610   8  5.337754E-05  9.000030E+00 -7.699389E-09 -4.968696E-06 -1.182057E-08  3.225875E-08 _shell_0000000610   
       610   9  4.706700E-05  9.000028E+00  1.793097E-07 -5.831240E-06  1.769542E-08  2.481656E-08 _shell_0000000610   
       610  10  6.347379E-05  9.000029E+00  7.578093E-08 -9.244971E-06 -1.043521E-15  6.978834E-15 _shell_0000000610   
       610  11  5.771940E-05  9.000028E+00  8.195788E-09 -1.098711E-05  3.835939E-15 -3.359625E-15 _shell_0000000610   
       610  12  5.175035E-05  9.000027E+00  1.262249E-07 -1.285365E-05  2.351255E-15  4.144829E-15 _shell_0000000610   
       610  13  6.102935E-05  9.000030E+00 -5.999262E-08 -6.719392E-06  5.211624E-16  3.441171E-15 _shell_0000000610   
       610  14  5.509104E-05  9.000029E+00 -1.081709E-07 -7.957560E-06  4.072274E-16 -1.018068E-15 _shell_0000000610   
       610  15  4.894968E-05  9.000027E+00  5.634412E-08 -9.320141E-06  1.211381E-15  5.179190E-15 _shell_0000000610   
       610  16  5.966313E-05  9.000031E+00  6.814054E-08 -4.202272E-06 -2.608800E-15  2.239751E-15 _shell_0000000610   
       610  17  5.352057E-05  9.000030E+00 -8.085333E-09 -4.936471E-06  2.557306E-15 -7.971327E-15 _shell_0000000610   
       610  18  4.718656E-05  9.000028E+00  1.554610E-07 -5.795085E-06  1.855101E-15 -2.223828E-15 _shell_0000000610   
       610  19  6.332105E-05  9.000029E+00  5.859819E-08 -9.288909E-06  4.074291E-08  2.980739E-08 _shell_0000000610   
       610  20  5.759012E-05  9.000029E+00  1.447584E-08 -1.103497E-05  1.009997E-08  2.460800E-08 _shell_0000000610   
       610  21  5.164454E-05  9.000027E+00  1.559677E-07 -1.290545E-05 -2.054298E-08  3.101393E-08 _shell_0000000610   
       610  22  6.086973E-05  9.000030E+00 -8.012241E-08 -6.755509E-06  4.612414E-08  8.558697E-10 _shell_0000000610   
       610  23  5.495489E-05  9.000029E+00 -1.048379E-07 -7.997606E-06  1.604468E-08 -3.825368E-09 _shell_0000000610   
       610  24  4.883699E-05  9.000028E+00  8.313987E-08 -9.364116E-06 -1.403479E-08  3.098686E-09 _shell_0000000610   
       610  25  5.949664E-05  9.000031E+00  4.506374E-08 -4.230567E-06  4.133656E-08 -2.809568E-08 _shell_0000000610   
       610  26  5.337754E-05  9.000030E+00 -7.699379E-09 -4.968696E-06  1.182057E-08 -3.225875E-08 _shell_0000000610   
       610  27  4.706700E-05  9.000028E+00  1.793097E-07 -5.831239E-06 -1.769542E-08 -2.481656E-08 _shell_0000000610   
       611   1  4.709422E-05  9.000026E+00 -8.303706E-08 -1.375123E-05  3.705169E-08 -2.983257E-08 _shell_0000000611   
       611   2  3.997039E-05  9.000021E+00  8.984969E-08 -1.418479E-05 -2.200732E-08 -1.819449E-08 _shell_0000000611   
       611   3  3.166991E-05  9.000012E+00  9.070673E-08 -1.464330E-05 -8.106630E-08 -1.634531E-08 _shell_0000000611   
       611   4  4.405217E-05  9.000026E+00 -1.989718E-07 -9.953589E-06  3.307767E-08 -3.569770E-09 _shell_0000000611   
       611   5  3.682796E-05  9.000021E+00  5.564435E-09 -1.024380E-05 -2.942816E-08  2.907887E-09 _shell_0000000611   
       611   6  2.843689E-05  9.000012E+00  6.091169E-08 -1.055897E-05 -9.193397E-08 -4.033559E-10 _shell_0000000611   
       611   7  4.222905E-05  9.000026E+00 -9.314110E-08 -6.201626E-06  4.145525E-08  2.269305E-08 _shell_0000000611   
       611   8  3.487975E-05  9.000021E+00  8.540390E-08 -6.348486E-06 -2.449742E-08  2.401028E-08 _shell_0000000611   
       611   9  2.637338E-05  9.000012E+00  1.376007E-07 -6.520301E-06 -9.045008E-08  1.553862E-08 _shell_0000000611   
       611  10  4.736315E-05  9.000025E+00 -5.236184E-08 -1.368681E-05  1.520440E-15  6.571604E-15 _shell_0000000611   
       611  11  4.020572E-05  9.000021E+00  8.692841E-08 -1.411929E-05 -1.436116E-16 -3.257823E-15 _shell_0000000611   
       611  12  3.187165E-05  9.000012E+00  5.418894E-08 -1.457672E-05 -7.665818E-16 -3.236164E-15 _shell_0000000611   
       611  13  4.432300E-05  9.000026E+00 -1.674823E-07 -9.900378E-06  2.157565E-16  2.626712E-15 _shell_0000000611   
       611  14  3.706519E-05  9.000021E+00  3.457440E-09 -1.018950E-05 -3.461433E-15  4.072274E-16 _shell_0000000611   
       611  15  2.864052E-05  9.000012E+00  2.520817E-08 -1.050358E-05 -3.961372E-15  3.395118E-15 _shell_0000000611   
       611  16  4.250177E-05  9.000026E+00 -6.083732E-08 -6.159613E-06  1.075039E-15 -5.090355E-16 _shell_0000000611   
       611  17  3.511888E-05  9.000021E+00  8.411120E-08 -6.305387E-06  8.205391E-16 -7.564099E-15 _shell_0000000611   
       611  18  2.657892E-05  9.000012E+00  1.027115E-07 -6.476117E-06 -3.104939E-15 -2.911026E-15 _shell_0000000611   
       611  19  4.709422E-05  9.000026E+00 -8.303706E-08 -1.375123E-05 -3.705167E-08  2.983259E-08 _shell_0000000611   
       611  20  3.997039E-05  9.000021E+00  8.984971E-08 -1.418479E-05  2.200732E-08  1.819449E-08 _shell_0000000611   
       611  21  3.166991E-05  9.000012E+00  9.070676E-08 -1.464330E-05  8.106630E-08  1.634531E-08 _shell_0000000611   
       611  22  4.405217E-05  9.000026E+00 -1.989718E-07 -9.953590E-06 -3.307767E-08  3.569779E-09 _shell_0000000611   
       611  23  3.682796E-05  9.000021E+00  5.564426E-09 -1.024380E-05  2.942815E-08 -2.907888E-09 _shell_0000000611   
       611  24  2.843689E-05  9.000012E+00  6.091166E-08 -1.055897E-05  9.193397E-08  4.033462E-10 _shell_0000000611   
       611  25  4.222905E-05  9.000026E+00 -9.314110E-08 -6.201626E-06 -4.145525E-08 -2.269305E-08 _shell_0000000611   
       611  26  3.487975E-05  9.000021E+00  8.540390E-08 -6.348486E-06  2.449742E-08 -2.401027E-08 _shell_0000000611   
       611  27  2.637338E-05  9.000012E+00  1.376007E-07 -6.520301E-06  9.045008E-08 -1.553863E-08 _shell_0000000611   
       612   1  2.623991E-05  9.000006E+00 -3.375161E-07 -1.420986E-05  1.617267E-07 -1.636307E-08 _shell_0000000612   
       612   2  2.081819E-05  8.999990E+00  2.757580E-07 -1.219372E-05 -2.875375E-08 -2.210799E-09 _shell_0000000612   
       612   3  1.277375E-05  8.999967E+00  4.990164E-08 -1.007236E-05 -2.192343E-07  2.703648E-08 _shell_0000000612   
       612   4  2.301222E-05  9.000005E+00 -3.389543E-07 -1.021451E-05  1.606009E-07 -4.811960E-09 _shell_0000000612   
       612   5  1.756466E-05  8.999989E+00  2.289210E-07 -8.753471E-06 -3.015913E-08 -5.883768E-10 _shell_0000000612   
       612   6  9.479279E-06  8.999966E+00 -7.755580E-08 -7.187215E-06 -2.209191E-07  1.873020E-08 _shell_0000000612   
       612   7  2.090456E-05  9.000005E+00 -2.771139E-07 -6.310563E-06  1.669666E-07  6.739168E-09 _shell_0000000612   
       612   8  1.541618E-05  8.999989E+00  2.104021E-07 -5.404630E-06 -2.407293E-08  1.034053E-09 _shell_0000000612   
       612   9  7.274874E-06  8.999965E+00 -2.116558E-07 -4.393478E-06 -2.151124E-07  1.042395E-08 _shell_0000000612   
       612  10  2.663463E-05  9.000005E+00 -3.015724E-07 -1.415157E-05  2.640318E-15 -6.566912E-16 _shell_0000000612   
       612  11  2.118489E-05  8.999990E+00  2.836759E-07 -1.214130E-05  1.263482E-15 -1.832507E-15 _shell_0000000612   
       612  12  1.311242E-05  8.999967E+00  2.979374E-08 -1.002581E-05  3.012409E-15 -1.250946E-15 _shell_0000000612   
       612  13  2.339667E-05  9.000005E+00 -3.074133E-07 -1.016556E-05 -1.171936E-15 -6.311296E-16 _shell_0000000612   
       612  14  1.792108E-05  8.999989E+00  2.324362E-07 -8.710395E-06 -1.628910E-15  1.679813E-15 _shell_0000000612   
       612  15  9.807675E-06  8.999965E+00 -1.020664E-07 -7.150009E-06 -2.147055E-15  2.427962E-15 _shell_0000000612   
       612  16  2.127874E-05  9.000005E+00 -2.499755E-07 -6.270960E-06 -7.622787E-15 -1.832523E-15 _shell_0000000612   
       612  17  1.576233E-05  8.999988E+00  2.095146E-07 -5.370896E-06 -8.809304E-15 -5.629750E-15 _shell_0000000612   
       612  18  7.592998E-06  8.999964E+00 -2.405691E-07 -4.365615E-06 -7.682620E-15 -3.404015E-16 _shell_0000000612   
       612  19  2.623991E-05  9.000006E+00 -3.375161E-07 -1.420986E-05 -1.617267E-07  1.636307E-08 _shell_0000000612   
       612  20  2.081819E-05  8.999990E+00  2.757580E-07 -1.219372E-05  2.875378E-08  2.210796E-09 _shell_0000000612   
       612  21  1.277375E-05  8.999967E+00  4.990164E-08 -1.007236E-05  2.192343E-07 -2.703648E-08 _shell_0000000612   
       612  22  2.301222E-05  9.000005E+00 -3.389543E-07 -1.021451E-05 -1.606009E-07  4.811964E-09 _shell_0000000612   
       612  23  1.756466E-05  8.999989E+00  2.289210E-07 -8.753471E-06  3.015913E-08  5.883802E-10 _shell_0000000612   
       612  24  9.479279E-06  8.999966E+00 -7.755581E-08 -7.187215E-06  2.209191E-07 -1.873021E-08 _shell_0000000612   
       612  25  2.090456E-05  9.000005E+00 -2.771138E-07 -6.310563E-06 -1.669666E-07 -6.739170E-09 _shell_0000000612   
       612  26  1.541618E-05  8.999989E+00  2.104021E-07 -5.404630E-06  2.407289E-08 -1.034043E-09 _shell_0000000612   
       612  27  7.274874E-06  8.999965E+00 -2.116558E-07 -4.393478E-06  2.151124E-07 -1.042395E-08 _shell_0000000612   
       613   1  9.182912E-06  8.999950E+00 -3.157542E-07 -7.859666E-06  2.494785E-07  1.673014E-08 _shell_0000000613   
       613   2  8.234180E-06  8.999916E+00  5.618430E-08 -4.578109E-06  2.446818E-08 -2.683697E-08 _shell_0000000613   
       613   3  4.022441E-06  8.999871E+00 -7.344387E-07 -1.411711E-06 -2.005421E-07 -2.262452E-08 _shell_0000000613   
       613   4  6.196147E-06  8.999949E+00 -2.730421E-07 -5.683338E-06  2.428409E-07  7.456116E-09 _shell_0000000613   
       613   5  5.290297E-06  8.999915E+00  2.717666E-07 -3.352410E-06  2.119752E-08 -2.950800E-08 _shell_0000000613   
       613   6  1.073661E-06  8.999871E+00 -4.574720E-07 -1.136642E-06 -2.004458E-07 -1.869256E-08 _shell_0000000613   
       613   7  4.115751E-06  8.999948E+00 -3.226372E-07 -3.429246E-06  2.349696E-07 -1.817893E-09 _shell_0000000613   
       613   8  3.255251E-06  8.999914E+00  4.007989E-07 -2.048948E-06  1.669313E-08 -3.217903E-08 _shell_0000000613   
       613   9 -9.638150E-07  8.999871E+00 -2.612979E-07 -7.838098E-07 -2.015833E-07 -1.476058E-08 _shell_0000000613   
       613  10  9.627022E-06  8.999950E+00 -2.936368E-07 -7.864145E-06 -2.360948E-15  1.577467E-16 _shell_0000000613   
       613  11  8.688494E-06  8.999915E+00  8.850598E-08 -4.597980E-06 -7.587643E-15  9.162733E-16 _shell_0000000613   
       613  12  4.486959E-06  8.999871E+00 -6.919129E-07 -1.446974E-06 -8.860224E-15  6.333698E-15 _shell_0000000613   
       613  13  6.613321E-06  8.999949E+00 -2.624687E-07 -5.684416E-06 -1.413144E-15 -2.260023E-15 _shell_0000000613   
       613  14  5.717675E-06  8.999915E+00  2.925442E-07 -3.368880E-06 -4.670982E-15  1.211869E-15 _shell_0000000613   
       613  15  1.511243E-06  8.999871E+00 -4.264902E-07 -1.168504E-06 -3.552300E-15  8.508351E-15 _shell_0000000613   
       613  16  4.505988E-06  8.999948E+00 -3.236079E-07 -3.426922E-06 -6.961634E-15 -2.055104E-20 _shell_0000000613   
       613  17  3.655692E-06  8.999914E+00  4.100324E-07 -2.062016E-06 -1.136053E-14 -5.935121E-15 _shell_0000000613   
       613  18 -5.531691E-07  8.999870E+00 -2.418601E-07 -8.122703E-07 -7.456590E-15 -3.149430E-16 _shell_0000000613   
       613  19  9.182912E-06  8.999950E+00 -3.157542E-07 -7.859666E-06 -2.494785E-07 -1.673014E-08 _shell_0000000613   
       613  20  8.234180E-06  8.999916E+00  5.618430E-08 -4.578109E-06 -2.446820E-08  2.683697E-08 _shell_0000000613   
       613  21  4.022441E-06  8.999871E+00 -7.344387E-07 -1.411711E-06  2.005421E-07  2.262454E-08 _shell_0000000613   
       613  22  6.196147E-06  8.999949E+00 -2.730421E-07 -5.683338E-06 -2.428409E-07 -7.456114E-09 _shell_0000000613   
       613  23  5.290297E-06  8.999915E+00  2.717666E-07 -3.352410E-06 -2.119755E-08  2.950800E-08 _shell_0000000613   
       613  24  1.073661E-06  8.999871E+00 -4.574720E-07 -1.136642E-06  2.004458E-07  1.869256E-08 _shell_0000000613   
       613  25  4.115751E-06  8.999948E+00 -3.226372E-07 -3.429246E-06 -2.349696E-07  1.817893E-09 _shell_0000000613   
       613  26  3.255251E-06  8.999914E+00  4.007989E-07 -2.048948E-06 -1.669316E-08  3.217903E-08 _shell_0000000613   
       613  27 -9.638150E-07  8.999871E+00 -2.612979E-07 -7.838098E-07  2.015833E-07  1.476058E-08 _shell_0000000613   
       614   1  5.917863E-06  8.999844E+00  3.589961E-07 -3.532551E-07  9.583397E-08  3.443490E-10 _shell_0000000614   
       614   2  5.826604E-06  8.999791E+00  4.039703E-07 -6.935489E-07  4.157881E-08  1.999882E-08 _shell_0000000614   
       614   3  4.363791E-06  8.999734E+00  3.022053E-07 -8.761998E-07 -1.267632E-08  2.125877E-09 _shell_0000000614   
       614   4  1.927903E-06  8.999843E+00  1.221409E-07 -3.312063E-07  1.197301E-07  8.933699E-09 _shell_0000000614   
       614   5  2.032857E-06  8.999790E+00  6.029578E-08 -4.191610E-07  3.345761E-08  3.799025E-08 _shell_0000000614   
       614   6  8.037843E-07  8.999733E+00 -6.072456E-08 -3.494729E-07 -5.281488E-08  2.951938E-08 _shell_0000000614   
       614   7 -5.261134E-07  8.999842E+00  8.339355E-08 -2.993642E-07  1.347587E-07  1.752307E-08 _shell_0000000614   
       614   8 -2.072112E-07  8.999790E+00 -4.388898E-08 -1.349799E-07  1.646885E-08  5.598169E-08 _shell_0000000614   
       614   9 -1.184809E-06  8.999733E+00 -1.427827E-07  1.870473E-07 -1.018210E-07  5.691290E-08 _shell_0000000614   
       614  10  6.187376E-06  8.999843E+00  3.247220E-07 -4.201058E-07 -4.054118E-15  7.080527E-15 _shell_0000000614   
       614  11  6.126647E-06  8.999791E+00  4.002255E-07 -7.703398E-07 -2.946345E-15  9.162282E-16 _shell_0000000614   
       614  12  4.694363E-06  8.999733E+00  3.289898E-07 -9.629310E-07  1.092182E-14  8.789768E-15 _shell_0000000614   
       614  13  2.180021E-06  8.999842E+00  8.041161E-08 -3.878805E-07 -8.017267E-15  4.265457E-15 _shell_0000000614   
       614  14  2.315505E-06  8.999790E+00  4.909582E-08 -4.857755E-07 -3.473542E-15  2.697929E-15 _shell_0000000614   
       614  15  1.116961E-06  8.999733E+00 -4.139521E-08 -4.260276E-07  1.309125E-14  8.073275E-15 _shell_0000000614   
       614  16 -2.913904E-07  8.999842E+00  3.420905E-08 -3.458619E-07 -3.893498E-15  3.054500E-16 _shell_0000000614   
       614  17  5.804130E-08  8.999790E+00 -6.254409E-08 -1.914179E-07  7.491923E-15 -5.629676E-15 _shell_0000000614   
       614  18 -8.890271E-07  8.999733E+00 -1.309085E-07  1.206690E-07  1.956404E-14  1.886659E-15 _shell_0000000614   
       614  19  5.917863E-06  8.999844E+00  3.589962E-07 -3.532551E-07 -9.583398E-08 -3.443301E-10 _shell_0000000614   
       614  20  5.826604E-06  8.999791E+00  4.039703E-07 -6.935489E-07 -4.157881E-08 -1.999882E-08 _shell_0000000614   
       614  21  4.363791E-06  8.999734E+00  3.022053E-07 -8.761998E-07  1.267634E-08 -2.125857E-09 _shell_0000000614   
       614  22  1.927903E-06  8.999843E+00  1.221409E-07 -3.312063E-07 -1.197301E-07 -8.933688E-09 _shell_0000000614   
       614  23  2.032857E-06  8.999790E+00  6.029579E-08 -4.191610E-07 -3.345760E-08 -3.799025E-08 _shell_0000000614   
       614  24  8.037843E-07  8.999733E+00 -6.072455E-08 -3.494729E-07  5.281490E-08 -2.951938E-08 _shell_0000000614   
       614  25 -5.261134E-07  8.999842E+00  8.339357E-08 -2.993642E-07 -1.347587E-07 -1.752307E-08 _shell_0000000614   
       614  26 -2.072111E-07  8.999790E+00 -4.388895E-08 -1.349799E-07 -1.646883E-08 -5.598168E-08 _shell_0000000614   
       614  27 -1.184809E-06  8.999733E+00 -1.427827E-07  1.870473E-07  1.018211E-07 -5.691290E-08 _shell_0000000614   
       615   1  2.003855E-06  8.999698E+00 -4.932834E-07 -5.262955E-07  2.086309E-07 -5.968153E-08 _shell_0000000615   
       615   2  1.293183E-06  8.999635E+00 -3.009491E-07  3.500303E-08  1.642785E-08 -7.004747E-08 _shell_0000000615   
       615   3 -3.082038E-07  8.999569E+00  3.846199E-07  1.158738E-06 -1.757752E-07  1.673614E-07 _shell_0000000615   
       615   4  2.901996E-07  8.999698E+00 -1.179497E-07 -8.614188E-09  1.570770E-07 -3.559222E-08 _shell_0000000615   
       615   5  2.896472E-07  8.999636E+00 -3.487026E-08  2.383976E-07  3.518331E-08 -6.671503E-08 _shell_0000000615   
       615   6 -8.493952E-07  8.999569E+00 -3.669720E-08  1.047846E-06 -8.671041E-08  1.499370E-07 _shell_0000000615   
       615   7 -1.025227E-06  8.999698E+00  9.123033E-08  4.819196E-07  6.408332E-08 -1.150287E-08 _shell_0000000615   
       615   8 -2.327807E-07  8.999636E+00  2.584408E-07  4.146447E-07  1.249898E-08 -6.338256E-08 _shell_0000000615   
       615   9 -8.265990E-07  8.999570E+00 -2.373963E-07  9.098068E-07 -3.908535E-08  1.325125E-07 _shell_0000000615   
       615  10  2.260915E-06  8.999698E+00 -4.813063E-07 -6.824574E-07  1.436813E-14  5.451783E-15 _shell_0000000615   
       615  11  1.620132E-06  8.999635E+00 -2.190839E-07 -1.613425E-07  7.425860E-15 -9.467997E-15 _shell_0000000615   
       615  12  8.863319E-08  8.999570E+00  5.363732E-07  9.222094E-07  7.726160E-16  9.336949E-15 _shell_0000000615   
       615  13  4.769392E-07  8.999698E+00 -1.361102E-07 -1.414801E-07  1.672051E-14 -2.238811E-16 _shell_0000000615   
       615  14  5.462750E-07  8.999636E+00  1.685737E-08  6.534820E-08  8.959002E-15 -4.724253E-15 _shell_0000000615   
       615  15 -5.228794E-07  8.999569E+00  8.491853E-08  8.346134E-07 -7.622152E-15  1.139184E-14 _shell_0000000615   
       615  16 -9.088086E-07  8.999698E+00  4.293223E-08  3.723497E-07  1.782288E-14  4.072446E-16 _shell_0000000615   
       615  17 -4.647404E-08  8.999636E+00  2.800308E-07  2.648914E-07  1.099518E-14 -8.683781E-15 _shell_0000000615   
       615  18 -5.704043E-07  8.999570E+00 -1.459182E-07  7.198699E-07  7.594558E-19  4.546349E-15 _shell_0000000615   
       615  19  2.003855E-06  8.999698E+00 -4.932834E-07 -5.262955E-07 -2.086309E-07  5.968155E-08 _shell_0000000615   
       615  20  1.293183E-06  8.999635E+00 -3.009491E-07  3.500300E-08 -1.642785E-08  7.004745E-08 _shell_0000000615   
       615  21 -3.082039E-07  8.999569E+00  3.846198E-07  1.158738E-06  1.757752E-07 -1.673614E-07 _shell_0000000615   
       615  22  2.901995E-07  8.999698E+00 -1.179497E-07 -8.614211E-09 -1.570770E-07  3.559222E-08 _shell_0000000615   
       615  23  2.896472E-07  8.999636E+00 -3.487027E-08  2.383976E-07 -3.518330E-08  6.671501E-08 _shell_0000000615   
       615  24 -8.493953E-07  8.999569E+00 -3.669723E-08  1.047846E-06  8.671038E-08 -1.499369E-07 _shell_0000000615   
       615  25 -1.025227E-06  8.999698E+00  9.123033E-08  4.819196E-07 -6.408326E-08  1.150288E-08 _shell_0000000615   
       615  26 -2.327807E-07  8.999636E+00  2.584408E-07  4.146448E-07 -1.249897E-08  6.338257E-08 _shell_0000000615   
       615  27 -8.265991E-07  8.999570E+00 -2.373963E-07  9.098068E-07  3.908537E-08 -1.325125E-07 _shell_0000000615   
       701   1 -4.237375E-07  8.999571E+00  9.048294E-08 -4.357317E-07  1.785793E-08  1.135977E-08 _shell_0000000701   
       701   2 -8.029374E-07  8.999635E+00 -6.463665E-08 -3.358702E-07 -1.326678E-08 -4.039828E-10 _shell_0000000701   
       701   3 -1.643631E-06  8.999698E+00 -5.416753E-08 -2.360086E-07 -4.439147E-08 -1.216772E-08 _shell_0000000701   
       701   4 -6.257933E-07  8.999570E+00 -2.974676E-08  2.229570E-14 -4.871204E-09 -1.295501E-14 _shell_0000000701   
       701   5 -9.595351E-07  8.999635E+00 -7.879715E-08  5.103068E-14 -3.599590E-08  7.508255E-16 _shell_0000000701   
       701   6 -1.754771E-06  8.999698E+00  3.774116E-08  9.147345E-14 -6.712057E-08 -1.892226E-15 _shell_0000000701   
       701   7 -4.237375E-07  8.999571E+00  9.048294E-08  4.357318E-07  1.785790E-08 -1.135977E-08 _shell_0000000701   
       701   8 -8.029374E-07  8.999635E+00 -6.463666E-08  3.358703E-07 -1.326678E-08  4.039622E-10 _shell_0000000701   
       701   9 -1.643631E-06  8.999698E+00 -5.416753E-08  2.360088E-07 -4.439145E-08  1.216772E-08 _shell_0000000701   
       701  10 -1.289957E-07  8.999571E+00  2.322013E-07 -4.060495E-07  4.913865E-15 -4.877172E-15 _shell_0000000701   
       701  11 -5.972424E-07  8.999635E+00 -1.196507E-08 -3.061879E-07 -2.792948E-15 -5.225236E-15 _shell_0000000701   
       701  12 -1.526983E-06  8.999698E+00 -9.054274E-08 -2.063263E-07 -1.234118E-15 -9.950374E-15 _shell_0000000701   
       701  13 -3.310515E-07  8.999571E+00  1.119716E-07  6.617445E-15  6.591993E-15 -3.701447E-15 _shell_0000000701   
       701  14 -7.538400E-07  8.999635E+00 -2.612555E-08  4.784922E-14 -5.764387E-17 -7.168360E-15 _shell_0000000701   
       701  15 -1.638122E-06  8.999698E+00  1.365987E-09  8.577227E-14  3.982438E-15 -6.507337E-15 _shell_0000000701   
       701  16 -1.289956E-07  8.999571E+00  2.322013E-07  4.060495E-07  3.337544E-15 -1.343078E-15 _shell_0000000701   
       701  17 -5.972424E-07  8.999635E+00 -1.196507E-08  3.061880E-07 -2.328077E-15 -4.558460E-15 _shell_0000000701   
       701  18 -1.526983E-06  8.999698E+00 -9.054271E-08  2.063265E-07  1.941070E-15 -8.223439E-15 _shell_0000000701   
       701  19 -4.237375E-07  8.999571E+00  9.048291E-08 -4.357317E-07 -1.785792E-08 -1.135977E-08 _shell_0000000701   
       701  20 -8.029374E-07  8.999635E+00 -6.463665E-08 -3.358702E-07  1.326678E-08  4.039722E-10 _shell_0000000701   
       701  21 -1.643631E-06  8.999698E+00 -5.416752E-08 -2.360086E-07  4.439147E-08  1.216771E-08 _shell_0000000701   
       701  22 -6.257934E-07  8.999570E+00 -2.974678E-08  1.247134E-14  4.871220E-09 -7.158202E-15 _shell_0000000701   
       701  23 -9.595351E-07  8.999635E+00 -7.879715E-08  4.937632E-14  3.599590E-08 -1.180959E-14 _shell_0000000701   
       701  24 -1.754771E-06  8.999698E+00  3.774119E-08  7.999473E-14  6.712058E-08 -1.496317E-14 _shell_0000000701   
       701  25 -4.237375E-07  8.999571E+00  9.048293E-08  4.357318E-07 -1.785790E-08  1.135978E-08 _shell_0000000701   
       701  26 -8.029374E-07  8.999635E+00 -6.463667E-08  3.358703E-07  1.326678E-08 -4.039836E-10 _shell_0000000701   
       701  27 -1.643631E-06  8.999698E+00 -5.416752E-08  2.360088E-07  4.439147E-08 -1.216774E-08 _shell_0000000701   
       702   1 -1.776722E-06  8.999733E+00 -6.303984E-08  2.935266E-08  1.136194E-07 -1.466446E-08 _shell_0000000702   
       702   2 -7.178050E-07  8.999790E+00  1.904777E-07  9.154528E-08 -1.398736E-08 -1.148077E-08 _shell_0000000702   
       702   3 -1.353633E-06  8.999842E+00  8.869950E-08  1.537379E-07 -1.415941E-07 -8.297045E-09 _shell_0000000702   
       702   4 -2.419518E-06  8.999733E+00 -1.669241E-07  6.950862E-14  1.074278E-07 -1.479390E-14 _shell_0000000702   
       702   5 -1.348218E-06  8.999790E+00  1.154881E-07  7.289370E-14 -2.017904E-08 -3.750473E-15 _shell_0000000702   
       702   6 -1.971663E-06  8.999842E+00  4.260441E-08  1.101296E-13 -1.477858E-07 -2.228123E-15 _shell_0000000702   
       702   7 -1.776722E-06  8.999733E+00 -6.303985E-08 -2.935252E-08  1.136194E-07  1.466446E-08 _shell_0000000702   
       702   8 -7.178050E-07  8.999790E+00  1.904778E-07 -9.154514E-08 -1.398733E-08  1.148073E-08 _shell_0000000702   
       702   9 -1.353633E-06  8.999842E+00  8.869951E-08 -1.537377E-07 -1.415941E-07  8.297048E-09 _shell_0000000702   
       702  10 -1.471150E-06  8.999733E+00 -3.848363E-08  3.983411E-08 -1.145327E-16 -9.446949E-15 _shell_0000000702   
       702  11 -4.436781E-07  8.999790E+00  1.835897E-07  1.020267E-07 -2.066816E-15 -6.834737E-15 _shell_0000000702   
       702  12 -1.110951E-06  8.999842E+00  5.036716E-08  1.642194E-07  7.172398E-16 -3.108393E-15 _shell_0000000702   
       702  13 -2.113947E-06  8.999733E+00 -1.423678E-07  8.760479E-14  8.324224E-15 -8.244417E-15 _shell_0000000702   
       702  14 -1.074091E-06  8.999790E+00  1.086000E-07  8.653582E-14  4.886729E-15 -6.788997E-15 _shell_0000000702   
       702  15 -1.728981E-06  8.999842E+00  4.272076E-09  9.758186E-14  2.144685E-15 -6.850243E-16 _shell_0000000702   
       702  16 -1.471150E-06  8.999733E+00 -3.848364E-08 -3.983395E-08  6.235669E-15 -7.039120E-15 _shell_0000000702   
       702  17 -4.436781E-07  8.999790E+00  1.835897E-07 -1.020266E-07  5.801619E-16 -3.266455E-15 _shell_0000000702   
       702  18 -1.110951E-06  8.999842E+00  5.036717E-08 -1.642192E-07 -3.017570E-16 -2.641328E-15 _shell_0000000702   
       702  19 -1.776722E-06  8.999733E+00 -6.303985E-08  2.935270E-08 -1.136194E-07  1.466444E-08 _shell_0000000702   
       702  20 -7.178050E-07  8.999790E+00  1.904778E-07  9.154533E-08  1.398736E-08  1.148075E-08 _shell_0000000702   
       702  21 -1.353633E-06  8.999842E+00  8.869949E-08  1.537380E-07  1.415941E-07  8.297051E-09 _shell_0000000702   
       702  22 -2.419518E-06  8.999733E+00 -1.669240E-07  8.208177E-14 -1.074277E-07 -1.413197E-14 _shell_0000000702   
       702  23 -1.348218E-06  8.999790E+00  1.154881E-07  8.584862E-14  2.017904E-08 -6.894095E-15 _shell_0000000702   
       702  24 -1.971663E-06  8.999842E+00  4.260439E-08  9.926167E-14  1.477858E-07 -2.505939E-15 _shell_0000000702   
       702  25 -1.776722E-06  8.999733E+00 -6.303985E-08 -2.935253E-08 -1.136194E-07 -1.466446E-08 _shell_0000000702   
       702  26 -7.178050E-07  8.999790E+00  1.904777E-07 -9.154514E-08  1.398734E-08 -1.148075E-08 _shell_0000000702   
       702  27 -1.353633E-06  8.999842E+00  8.869949E-08 -1.537377E-07  1.415941E-07 -8.297051E-09 _shell_0000000702   
       703   1 -1.893182E-06  8.999870E+00 -4.000286E-07  4.770216E-07  2.016846E-07 -5.268550E-09 _shell_0000000703   
       703   2  2.311199E-06  8.999913E+00  2.277504E-07  1.332376E-06 -1.561208E-08  1.955102E-09 _shell_0000000703   
       703   3  3.423226E-06  8.999948E+00 -2.823296E-07  2.187730E-06 -2.329087E-07  9.178781E-09 _shell_0000000703   
       703   4 -2.355366E-06  8.999870E+00 -3.717018E-07  1.028758E-13  2.009925E-07 -1.373860E-14 _shell_0000000703   
       703   5  1.850399E-06  8.999913E+00  2.593069E-07  9.559663E-14 -1.630415E-08 -5.390346E-15 _shell_0000000703   
       703   6  2.963810E-06  8.999948E+00 -2.475434E-07  1.110204E-13 -2.336008E-07 -6.711768E-15 _shell_0000000703   
       703   7 -1.893182E-06  8.999870E+00 -4.000286E-07 -4.770214E-07  2.016846E-07  5.268550E-09 _shell_0000000703   
       703   8  2.311199E-06  8.999913E+00  2.277504E-07 -1.332375E-06 -1.561205E-08 -1.955137E-09 _shell_0000000703   
       703   9  3.423226E-06  8.999948E+00 -2.823296E-07 -2.187729E-06 -2.329087E-07 -9.178787E-09 _shell_0000000703   
       703  10 -1.477920E-06  8.999870E+00 -3.714965E-07  4.807686E-07  1.068213E-15 -2.170486E-15 _shell_0000000703   
       703  11  2.715219E-06  8.999913E+00  2.450415E-07  1.336123E-06  3.876077E-15 -8.267119E-15 _shell_0000000703   
       703  12  3.816005E-06  8.999947E+00 -2.762795E-07  2.191477E-06  1.681591E-14 -9.858163E-15 _shell_0000000703   
       703  13 -1.940105E-06  8.999870E+00 -3.431697E-07  1.062863E-13  5.629715E-16 -3.361350E-15 _shell_0000000703   
       703  14  2.254419E-06  8.999913E+00  2.765980E-07  1.086279E-13  2.443364E-15 -9.797290E-15 _shell_0000000703   
       703  15  3.356589E-06  8.999947E+00 -2.414933E-07  1.131583E-13  1.118527E-14 -8.134693E-15 _shell_0000000703   
       703  16 -1.477920E-06  8.999870E+00 -3.714965E-07 -4.807684E-07 -1.806313E-15 -4.108559E-15 _shell_0000000703   
       703  17  2.715219E-06  8.999913E+00  2.450415E-07 -1.336122E-06  2.131876E-15 -7.931178E-15 _shell_0000000703   
       703  18  3.816005E-06  8.999947E+00 -2.762795E-07 -2.191476E-06  1.420829E-14 -1.128726E-14 _shell_0000000703   
       703  19 -1.893182E-06  8.999870E+00 -4.000286E-07  4.770216E-07 -2.016846E-07  5.268550E-09 _shell_0000000703   
       703  20  2.311199E-06  8.999913E+00  2.277504E-07  1.332376E-06  1.561209E-08 -1.955119E-09 _shell_0000000703   
       703  21  3.423226E-06  8.999948E+00 -2.823296E-07  2.187729E-06  2.329088E-07 -9.178786E-09 _shell_0000000703   
       703  22 -2.355366E-06  8.999870E+00 -3.717018E-07  8.732482E-14 -2.009925E-07 -5.230510E-15 _shell_0000000703   
       703  23  1.850399E-06  8.999913E+00  2.593069E-07  9.058264E-14  1.630416E-08 -1.074726E-14 _shell_0000000703   
       703  24  2.963810E-06  8.999948E+00 -2.475434E-07  9.328052E-14  2.336008E-07 -1.256573E-14 _shell_0000000703   
       703  25 -1.893182E-06  8.999870E+00 -4.000286E-07 -4.770215E-07 -2.016846E-07 -5.268545E-09 _shell_0000000703   
       703  26  2.311199E-06  8.999913E+00  2.277504E-07 -1.332375E-06  1.561206E-08  1.955107E-09 _shell_0000000703   
       703  27  3.423226E-06  8.999948E+00 -2.823296E-07 -2.187729E-06  2.329087E-07  9.178767E-09 _shell_0000000703   
       704   1  6.636257E-06  8.999965E+00 -1.069332E-07  2.784868E-06  2.142154E-07  8.626164E-09 _shell_0000000704   
       704   2  1.467965E-05  8.999989E+00  2.324626E-07  3.371512E-06  2.309459E-08 -4.966022E-10 _shell_0000000704   
       704   3  2.010510E-05  9.000005E+00 -3.086031E-07  3.958155E-06 -1.680262E-07 -9.619341E-09 _shell_0000000704   
       704   4  6.126038E-06  8.999964E+00 -9.681043E-08  1.108422E-13  2.175153E-07 -1.606012E-14 _shell_0000000704   
       704   5  1.416283E-05  8.999988E+00  2.271859E-07  1.161871E-13  2.639449E-08  2.259785E-15 _shell_0000000704   
       704   6  1.958168E-05  9.000005E+00 -3.292793E-07  1.291674E-13 -1.647263E-07  8.047419E-15 _shell_0000000704   
       704   7  6.636257E-06  8.999965E+00 -1.069332E-07 -2.784868E-06  2.142154E-07 -8.626169E-09 _shell_0000000704   
       704   8  1.467965E-05  8.999989E+00  2.324626E-07 -3.371511E-06  2.309462E-08  4.965818E-10 _shell_0000000704   
       704   9  2.010510E-05  9.000005E+00 -3.086031E-07 -3.958155E-06 -1.680262E-07  9.619365E-09 _shell_0000000704   
       704  10  6.960622E-06  8.999964E+00 -1.278970E-07  2.776497E-06  1.694780E-14 -6.758796E-15 _shell_0000000704   
       704  11  1.502913E-05  8.999988E+00  2.366115E-07  3.363141E-06  1.082591E-14 -1.955185E-15 _shell_0000000704   
       704  12  2.047969E-05  9.000005E+00 -2.793417E-07  3.949784E-06  6.785070E-15  1.818261E-15 _shell_0000000704   
       704  13  6.450403E-06  8.999964E+00 -1.177742E-07  1.319417E-13  1.311370E-14 -7.526766E-15 _shell_0000000704   
       704  14  1.451231E-05  8.999988E+00  2.313348E-07  1.262405E-13  6.461699E-15 -4.259347E-15 _shell_0000000704   
       704  15  1.995627E-05  9.000004E+00 -3.000179E-07  1.192667E-13  8.309225E-15  1.372675E-15 _shell_0000000704   
       704  16  6.960622E-06  8.999964E+00 -1.278970E-07 -2.776497E-06  1.449323E-14 -8.817779E-15 _shell_0000000704   
       704  17  1.502913E-05  8.999988E+00  2.366115E-07 -3.363140E-06  8.409514E-15 -2.102830E-15 _shell_0000000704   
       704  18  2.047969E-05  9.000005E+00 -2.793417E-07 -3.949784E-06  8.901780E-15 -3.371323E-15 _shell_0000000704   
       704  19  6.636257E-06  8.999965E+00 -1.069332E-07  2.784868E-06 -2.142154E-07 -8.626174E-09 _shell_0000000704   
       704  20  1.467965E-05  8.999989E+00  2.324626E-07  3.371512E-06 -2.309457E-08  4.965967E-10 _shell_0000000704   
       704  21  2.010510E-05  9.000005E+00 -3.086032E-07  3.958155E-06  1.680262E-07  9.619358E-09 _shell_0000000704   
       704  22  6.126038E-06  8.999964E+00 -9.681044E-08  1.117585E-13 -2.175153E-07 -1.128138E-14 _shell_0000000704   
       704  23  1.416283E-05  8.999988E+00  2.271859E-07  1.172051E-13 -2.639448E-08 -7.374357E-15 _shell_0000000704   
       704  24  1.958168E-05  9.000005E+00 -3.292793E-07  1.165688E-13  1.647263E-07 -8.335765E-15 _shell_0000000704   
       704  25  6.636257E-06  8.999965E+00 -1.069332E-07 -2.784868E-06 -2.142154E-07  8.626166E-09 _shell_0000000704   
       704  26  1.467965E-05  8.999989E+00  2.324626E-07 -3.371511E-06 -2.309460E-08 -4.966006E-10 _shell_0000000704   
       704  27  2.010510E-05  9.000005E+00 -3.086032E-07 -3.958155E-06  1.680262E-07 -9.619370E-09 _shell_0000000704   
       705   1  2.557247E-05  9.000012E+00  1.080173E-07  4.103015E-06  9.135857E-08 -1.397061E-08 _shell_0000000705   
       705   2  3.415405E-05  9.000021E+00  9.483032E-08  3.993850E-06  2.440289E-08 -1.980099E-08 _shell_0000000705   
       705   3  4.151943E-05  9.000027E+00 -1.000476E-07  3.884686E-06 -4.255280E-08 -2.563134E-08 _shell_0000000705   
       705   4  2.499772E-05  9.000012E+00  5.559840E-08  1.144309E-13  9.684910E-08 -3.026267E-15 _shell_0000000705   
       705   5  3.356832E-05  9.000021E+00  1.678896E-08  1.100277E-13  2.989341E-08  4.695841E-15 _shell_0000000705   
       705   6  4.092272E-05  9.000026E+00 -2.037114E-07  1.167979E-13 -3.706227E-08  4.327063E-15 _shell_0000000705   
       705   7  2.557247E-05  9.000012E+00  1.080173E-07 -4.103015E-06  9.135857E-08  1.397063E-08 _shell_0000000705   
       705   8  3.415405E-05  9.000021E+00  9.483032E-08 -3.993850E-06  2.440288E-08  1.980098E-08 _shell_0000000705   
       705   9  4.151943E-05  9.000027E+00 -1.000476E-07 -3.884685E-06 -4.255280E-08  2.563136E-08 _shell_0000000705   
       705  10  2.578044E-05  9.000012E+00  7.524355E-08  4.092593E-06  7.723077E-15  2.342898E-15 _shell_0000000705   
       705  11  3.439328E-05  9.000021E+00  9.332303E-08  3.983428E-06  5.755121E-15 -1.252979E-15 _shell_0000000705   
       705  12  4.178993E-05  9.000026E+00 -7.028840E-08  3.874264E-06  2.766820E-15  2.876370E-15 _shell_0000000705   
       705  13  2.520569E-05  9.000012E+00  2.282462E-08  1.132092E-13  8.882647E-15 -7.777536E-16 _shell_0000000705   
       705  14  3.380756E-05  9.000021E+00  1.528167E-08  1.094424E-13  3.311756E-15 -2.722627E-15 _shell_0000000705   
       705  15  4.119322E-05  9.000026E+00 -1.739522E-07  1.064900E-13  2.160362E-15  3.225025E-15 _shell_0000000705   
       705  16  2.578044E-05  9.000012E+00  7.524356E-08 -4.092593E-06  6.681074E-15 -3.062994E-15 _shell_0000000705   
       705  17  3.439328E-05  9.000021E+00  9.332302E-08 -3.983428E-06  1.766450E-16  2.537367E-16 _shell_0000000705   
       705  18  4.178993E-05  9.000026E+00 -7.028839E-08 -3.874263E-06  1.015119E-15 -1.625472E-16 _shell_0000000705   
       705  19  2.557247E-05  9.000012E+00  1.080173E-07  4.103015E-06 -9.135856E-08  1.397062E-08 _shell_0000000705   
       705  20  3.415405E-05  9.000021E+00  9.483031E-08  3.993850E-06 -2.440288E-08  1.980099E-08 _shell_0000000705   
       705  21  4.151943E-05  9.000027E+00 -1.000476E-07  3.884686E-06  4.255281E-08  2.563136E-08 _shell_0000000705   
       705  22  2.499772E-05  9.000012E+00  5.559837E-08  1.059300E-13 -9.684908E-08 -1.074800E-14 _shell_0000000705   
       705  23  3.356832E-05  9.000021E+00  1.678895E-08  1.059300E-13 -2.989340E-08 -7.431900E-15 _shell_0000000705   
       705  24  4.092272E-05  9.000026E+00 -2.037114E-07  1.088570E-13  3.706228E-08 -1.095307E-15 _shell_0000000705   
       705  25  2.557247E-05  9.000012E+00  1.080173E-07 -4.103015E-06 -9.135856E-08 -1.397062E-08 _shell_0000000705   
       705  26  3.415405E-05  9.000021E+00  9.483031E-08 -3.993850E-06 -2.440288E-08 -1.980099E-08 _shell_0000000705   
       705  27  4.151943E-05  9.000027E+00 -1.000476E-07 -3.884685E-06  4.255280E-08 -2.563135E-08 _shell_0000000705   
       706   1  4.638158E-05  9.000028E+00  1.697249E-07  3.662204E-06 -1.740367E-08 -2.765770E-08 _shell_0000000706   
       706   2  5.277390E-05  9.000030E+00  5.095630E-09  3.155946E-06  1.194836E-08 -2.879096E-08 _shell_0000000706   
       706   3  5.893866E-05  9.000031E+00  4.863276E-08  2.649687E-06  4.130039E-08 -2.992418E-08 _shell_0000000706   
       706   4  4.585071E-05  9.000028E+00  8.275933E-08  1.298801E-13 -1.250307E-08 -8.570956E-15 _shell_0000000706   
       706   5  5.223323E-05  9.000030E+00 -1.047394E-07  1.144309E-13  1.684896E-08 -2.532445E-15 _shell_0000000706   
       706   6  5.838819E-05  9.000031E+00 -8.407172E-08  1.068972E-13  4.620098E-08 -3.694010E-15 _shell_0000000706   
       706   7  4.638158E-05  9.000028E+00  1.697249E-07 -3.662204E-06 -1.740366E-08  2.765772E-08 _shell_0000000706   
       706   8  5.277390E-05  9.000030E+00  5.095633E-09 -3.155946E-06  1.194837E-08  2.879093E-08 _shell_0000000706   
       706   9  5.893866E-05  9.000031E+00  4.863276E-08 -2.649687E-06  4.130039E-08  2.992418E-08 _shell_0000000706   
       706  10  4.649965E-05  9.000028E+00  1.432349E-07  3.654428E-06  1.211987E-15  3.124467E-15 _shell_0000000706   
       706  11  5.291529E-05  9.000030E+00  1.933143E-09  3.148170E-06 -1.105033E-15 -6.019585E-15 _shell_0000000706   
       706  12  5.910339E-05  9.000031E+00  6.879785E-08  2.641911E-06  1.994170E-15 -5.364095E-15 _shell_0000000706   
       706  13  4.596878E-05  9.000028E+00  5.626929E-08  1.311272E-13 -5.344859E-16  8.024633E-16 _shell_0000000706   
       706  14  5.237462E-05  9.000030E+00 -1.079019E-07  1.131074E-13 -6.108411E-16 -6.369782E-15 _shell_0000000706   
       706  15  5.855292E-05  9.000031E+00 -6.390663E-08  9.035357E-14  2.160364E-15 -4.392581E-15 _shell_0000000706   
       706  16  4.649965E-05  9.000028E+00  1.432349E-07 -3.654428E-06  1.873732E-15 -4.679931E-16 _shell_0000000706   
       706  17  5.291529E-05  9.000030E+00  1.933131E-09 -3.148170E-06 -1.494073E-15 -2.680345E-15 _shell_0000000706   
       706  18  5.910339E-05  9.000031E+00  6.879784E-08 -2.641911E-06 -1.383408E-15 -8.498455E-15 _shell_0000000706   
       706  19  4.638158E-05  9.000028E+00  1.697249E-07  3.662204E-06  1.740367E-08  2.765772E-08 _shell_0000000706   
       706  20  5.277390E-05  9.000030E+00  5.095638E-09  3.155946E-06 -1.194836E-08  2.879095E-08 _shell_0000000706   
       706  21  5.893866E-05  9.000031E+00  4.863275E-08  2.649687E-06 -4.130038E-08  2.992419E-08 _shell_0000000706   
       706  22  4.585071E-05  9.000028E+00  8.275932E-08  1.170779E-13  1.250307E-08 -2.220569E-15 _shell_0000000706   
       706  23  5.223323E-05  9.000030E+00 -1.047394E-07  1.060827E-13 -1.684896E-08 -7.126479E-15 _shell_0000000706   
       706  24  5.838819E-05  9.000031E+00 -8.407172E-08  8.877557E-14 -4.620099E-08 -8.426509E-15 _shell_0000000706   
       706  25  4.638158E-05  9.000028E+00  1.697249E-07 -3.662204E-06  1.740366E-08 -2.765770E-08 _shell_0000000706   
       706  26  5.277390E-05  9.000030E+00  5.095624E-09 -3.155946E-06 -1.194837E-08 -2.879095E-08 _shell_0000000706   
       706  27  5.893866E-05  9.000031E+00  4.863276E-08 -2.649687E-06 -4.130039E-08 -2.992420E-08 _shell_0000000706   
       707   1  6.197692E-05  9.000031E+00  1.547488E-07  2.278282E-06 -7.000537E-08 -3.010385E-08 _shell_0000000707   
       707   2  6.515729E-05  9.000030E+00 -3.695369E-08  1.658094E-06  3.795570E-09 -2.958809E-08 _shell_0000000707   
       707   3  6.857053E-05  9.000030E+00  1.098886E-07  1.037907E-06  7.759652E-08 -2.907230E-08 _shell_0000000707   
       707   4  6.152885E-05  9.000031E+00  5.755758E-08  8.197996E-14 -6.735332E-08 -1.262156E-14 _shell_0000000707   
       707   5  6.470392E-05  9.000030E+00 -1.465211E-07  6.426557E-14  6.447626E-09  3.168738E-15 _shell_0000000707   
       707   6  6.811186E-05  9.000030E+00 -1.205511E-08  6.159314E-14  8.024858E-08  7.227352E-15 _shell_0000000707   
       707   7  6.197692E-05  9.000031E+00  1.547488E-07 -2.278282E-06 -7.000537E-08  3.010386E-08 _shell_0000000707   
       707   8  6.515729E-05  9.000030E+00 -3.695368E-08 -1.658094E-06  3.795593E-09  2.958807E-08 _shell_0000000707   
       707   9  6.857053E-05  9.000030E+00  1.098885E-07 -1.037907E-06  7.759653E-08  2.907233E-08 _shell_0000000707   
       707  10  6.204763E-05  9.000031E+00  1.403913E-07  2.274497E-06  2.249447E-15 -1.201100E-15 _shell_0000000707   
       707  11  6.523936E-05  9.000030E+00 -3.995723E-08  1.654310E-06 -1.925539E-15 -1.987808E-18 _shell_0000000707   
       707  12  6.866396E-05  9.000030E+00  1.182390E-07  1.034122E-06  3.338274E-16  2.648504E-15 _shell_0000000707   
       707  13  6.159956E-05  9.000031E+00  4.320008E-08  8.597588E-14  1.902820E-15 -3.969853E-15 _shell_0000000707   
       707  14  6.478599E-05  9.000030E+00 -1.495247E-07  6.607264E-14  2.659094E-15 -2.267579E-15 _shell_0000000707   
       707  15  6.820528E-05  9.000030E+00 -3.704671E-09  4.581308E-14  1.862519E-15  1.832098E-15 _shell_0000000707   
       707  16  6.204763E-05  9.000031E+00  1.403913E-07 -2.274497E-06  4.229824E-16 -6.581542E-15 _shell_0000000707   
       707  17  6.523936E-05  9.000030E+00 -3.995723E-08 -1.654310E-06  4.850971E-16  3.339494E-16 _shell_0000000707   
       707  18  6.866396E-05  9.000030E+00  1.182390E-07 -1.034122E-06  1.457489E-15 -3.024664E-15 _shell_0000000707   
       707  19  6.197692E-05  9.000031E+00  1.547488E-07  2.278282E-06  7.000537E-08  3.010386E-08 _shell_0000000707   
       707  20  6.515729E-05  9.000030E+00 -3.695369E-08  1.658094E-06 -3.795578E-09  2.958809E-08 _shell_0000000707   
       707  21  6.857053E-05  9.000030E+00  1.098885E-07  1.037907E-06 -7.759652E-08  2.907232E-08 _shell_0000000707   
       707  22  6.152885E-05  9.000031E+00  5.755758E-08  8.276896E-14  6.735332E-08 -7.541086E-15 _shell_0000000707   
       707  23  6.470392E-05  9.000030E+00 -1.465211E-07  6.665803E-14 -6.447628E-09 -4.275887E-15 _shell_0000000707   
       707  24  6.811186E-05  9.000030E+00 -1.205512E-08  4.805283E-14 -8.024857E-08 -6.696902E-15 _shell_0000000707   
       707  25  6.197692E-05  9.000031E+00  1.547488E-07 -2.278282E-06  7.000537E-08 -3.010385E-08 _shell_0000000707   
       707  26  6.515729E-05  9.000030E+00 -3.695369E-08 -1.658094E-06 -3.795581E-09 -2.958809E-08 _shell_0000000707   
       707  27  6.857053E-05  9.000030E+00  1.098885E-07 -1.037907E-06 -7.759653E-08 -2.907233E-08 _shell_0000000707   
       708   1  6.958314E-05  9.000030E+00  1.353943E-07  6.381622E-07 -8.532007E-08 -2.892221E-08 _shell_0000000708   
       708   2  6.940353E-05  9.000030E+00 -4.714172E-08 -1.583733E-14  7.940934E-15 -2.892224E-08 _shell_0000000708   
       708   3  6.958314E-05  9.000030E+00  1.353943E-07 -6.381622E-07  8.532008E-08 -2.892224E-08 _shell_0000000708   
       708   4  6.916589E-05  9.000030E+00  2.826417E-08  2.494268E-14 -8.532008E-08 -4.525340E-15 _shell_0000000708   
       708   5  6.898627E-05  9.000029E+00 -1.542718E-07 -1.623819E-14 -8.271806E-17  2.797796E-15 _shell_0000000708   
       708   6  6.916589E-05  9.000030E+00  2.826415E-08 -4.771560E-14  8.532008E-08  1.186355E-15 _shell_0000000708   
       708   7  6.958314E-05  9.000030E+00  1.353943E-07 -6.381621E-07 -8.532008E-08  2.892223E-08 _shell_0000000708   
       708   8  6.940353E-05  9.000030E+00 -4.714172E-08 -3.008392E-14 -1.625728E-15  2.892222E-08 _shell_0000000708   
       708   9  6.958314E-05  9.000030E+00  1.353943E-07  6.381621E-07  8.532008E-08  2.892224E-08 _shell_0000000708   
       708  10  6.964585E-05  9.000030E+00  1.324686E-07  6.381622E-07  1.381062E-15  3.472744E-15 _shell_0000000708   
       708  11  6.946623E-05  9.000030E+00 -5.006740E-08 -2.883679E-14  4.738561E-15 -2.868726E-15 _shell_0000000708   
       708  12  6.964585E-05  9.000030E+00  1.324686E-07 -6.381622E-07  4.163320E-15 -6.626214E-15 _shell_0000000708   
       708  13  6.922859E-05  9.000030E+00  2.533851E-08  2.387371E-14  2.214299E-15 -5.347786E-16 _shell_0000000708   
       708  14  6.904898E-05  9.000029E+00 -1.571975E-07 -1.898698E-14  3.105109E-15 -3.784142E-15 _shell_0000000708   
       708  15  6.922859E-05  9.000030E+00  2.533850E-08 -6.228034E-14  1.908878E-15 -1.762508E-15 _shell_0000000708   
       708  16  6.964585E-05  9.000030E+00  1.324686E-07 -6.381621E-07  2.955427E-15 -3.924746E-15 _shell_0000000708   
       708  17  6.946623E-05  9.000030E+00 -5.006740E-08 -2.056498E-14  4.900356E-15 -3.948446E-16 _shell_0000000708   
       708  18  6.964585E-05  9.000030E+00  1.324686E-07  6.381621E-07  3.302432E-15 -2.659546E-15 _shell_0000000708   
       708  19  6.958314E-05  9.000030E+00  1.353943E-07  6.381622E-07  8.532007E-08  2.892222E-08 _shell_0000000708   
       708  20  6.940353E-05  9.000030E+00 -4.714171E-08 -3.484976E-14  2.290654E-16  2.892223E-08 _shell_0000000708   
       708  21  6.958314E-05  9.000030E+00  1.353943E-07 -6.381622E-07 -8.532007E-08  2.892224E-08 _shell_0000000708   
       708  22  6.916589E-05  9.000030E+00  2.826416E-08  2.051408E-14  8.532008E-08 -8.891136E-15 _shell_0000000708   
       708  23  6.898627E-05  9.000029E+00 -1.542718E-07 -2.010685E-14 -1.068972E-15 -7.241566E-15 _shell_0000000708   
       708  24  6.916589E-05  9.000030E+00  2.826416E-08 -6.350838E-14 -8.532008E-08 -7.688410E-15 _shell_0000000708   
       708  25  6.958314E-05  9.000030E+00  1.353943E-07 -6.381621E-07  8.532008E-08 -2.892223E-08 _shell_0000000708   
       708  26  6.940353E-05  9.000030E+00 -4.714173E-08 -2.682610E-14  2.036137E-16 -2.892224E-08 _shell_0000000708   
       708  27  6.958314E-05  9.000030E+00  1.353943E-07  6.381621E-07 -8.532008E-08 -2.892225E-08 _shell_0000000708   
       709   1  6.857053E-05  9.000030E+00  1.098885E-07 -1.037907E-06 -7.759652E-08 -2.907232E-08 _shell_0000000709   
       709   2  6.515729E-05  9.000030E+00 -3.695369E-08 -1.658094E-06 -3.795577E-09 -2.958810E-08 _shell_0000000709   
       709   3  6.197692E-05  9.000031E+00  1.547488E-07 -2.278282E-06  7.000536E-08 -3.010385E-08 _shell_0000000709   
       709   4  6.811186E-05  9.000030E+00 -1.205513E-08 -5.092887E-14 -8.024857E-08 -9.669164E-15 _shell_0000000709   
       709   5  6.470392E-05  9.000030E+00 -1.465211E-07 -5.991333E-14 -6.447628E-09  4.364968E-15 _shell_0000000709   
       709   6  6.152885E-05  9.000031E+00  5.755757E-08 -5.415488E-14  6.735331E-08  7.420949E-15 _shell_0000000709   
       709   7  6.857053E-05  9.000030E+00  1.098885E-07  1.037907E-06 -7.759652E-08  2.907232E-08 _shell_0000000709   
       709   8  6.515729E-05  9.000030E+00 -3.695368E-08  1.658094E-06 -3.795575E-09  2.958808E-08 _shell_0000000709   
       709   9  6.197692E-05  9.000031E+00  1.547488E-07  2.278282E-06  7.000537E-08  3.010387E-08 _shell_0000000709   
       709  10  6.866396E-05  9.000030E+00  1.182390E-07 -1.034122E-06  1.466520E-16 -5.508373E-15 _shell_0000000709   
       709  11  6.523936E-05  9.000030E+00 -3.995723E-08 -1.654310E-06 -3.502657E-16 -3.573738E-15 _shell_0000000709   
       709  12  6.204763E-05  9.000031E+00  1.403913E-07 -2.274497E-06 -4.324214E-15 -3.501305E-17 _shell_0000000709   
       709  13  6.820528E-05  9.000030E+00 -3.704678E-09 -4.555856E-14 -1.131992E-15 -3.132055E-15 _shell_0000000709   
       709  14  6.478599E-05  9.000030E+00 -1.495247E-07 -5.721545E-14 -5.090342E-17 -3.205116E-15 _shell_0000000709   
       709  15  6.159956E-05  9.000031E+00  4.320009E-08 -6.673439E-14 -4.138950E-16  1.611046E-15 _shell_0000000709   
       709  16  6.866396E-05  9.000030E+00  1.182390E-07  1.034122E-06  1.870701E-15 -2.235233E-15 _shell_0000000709   
       709  17  6.523936E-05  9.000030E+00 -3.995723E-08  1.654310E-06  1.202289E-15  1.218250E-16 _shell_0000000709   
       709  18  6.204763E-05  9.000031E+00  1.403913E-07  2.274497E-06 -2.372615E-15 -1.737714E-15 _shell_0000000709   
       709  19  6.857053E-05  9.000030E+00  1.098885E-07 -1.037907E-06  7.759653E-08  2.907231E-08 _shell_0000000709   
       709  20  6.515729E-05  9.000030E+00 -3.695368E-08 -1.658094E-06  3.795569E-09  2.958809E-08 _shell_0000000709   
       709  21  6.197692E-05  9.000031E+00  1.547488E-07 -2.278282E-06 -7.000538E-08  3.010386E-08 _shell_0000000709   
       709  22  6.811186E-05  9.000030E+00 -1.205512E-08 -5.034348E-14  8.024858E-08 -9.119092E-15 _shell_0000000709   
       709  23  6.470392E-05  9.000030E+00 -1.465211E-07 -5.528112E-14  6.447619E-09 -7.839127E-15 _shell_0000000709   
       709  24  6.152885E-05  9.000031E+00  5.755757E-08 -6.203855E-14 -6.735331E-08 -6.727893E-15 _shell_0000000709   
       709  25  6.857053E-05  9.000030E+00  1.098885E-07  1.037907E-06  7.759653E-08 -2.907231E-08 _shell_0000000709   
       709  26  6.515729E-05  9.000030E+00 -3.695370E-08  1.658094E-06  3.795570E-09 -2.958809E-08 _shell_0000000709   
       709  27  6.197692E-05  9.000031E+00  1.547488E-07  2.278282E-06 -7.000536E-08 -3.010387E-08 _shell_0000000709   
       710   1  5.893866E-05  9.000031E+00  4.863277E-08 -2.649687E-06 -4.130039E-08 -2.992417E-08 _shell_0000000710   
       710   2  5.277390E-05  9.000030E+00  5.095629E-09 -3.155946E-06 -1.194837E-08 -2.879096E-08 _shell_0000000710   
       710   3  4.638158E-05  9.000028E+00  1.697249E-07 -3.662204E-06  1.740366E-08 -2.765772E-08 _shell_0000000710   
       710   4  5.838819E-05  9.000031E+00 -8.407172E-08 -5.820806E-14 -4.620098E-08 -5.276165E-15 _shell_0000000710   
       710   5  5.223323E-05  9.000030E+00 -1.047394E-07 -7.867124E-14 -1.684896E-08  1.145327E-16 _shell_0000000710   
       710   6  4.585071E-05  9.000028E+00  8.275932E-08 -8.615404E-14  1.250306E-08 -1.381559E-15 _shell_0000000710   
       710   7  5.893866E-05  9.000031E+00  4.863277E-08  2.649687E-06 -4.130040E-08  2.992419E-08 _shell_0000000710   
       710   8  5.277390E-05  9.000030E+00  5.095640E-09  3.155946E-06 -1.194836E-08  2.879094E-08 _shell_0000000710   
       710   9  4.638158E-05  9.000028E+00  1.697249E-07  3.662204E-06  1.740367E-08  2.765772E-08 _shell_0000000710   
       710  10  5.910339E-05  9.000031E+00  6.879784E-08 -2.641911E-06 -3.041479E-15  4.594515E-16 _shell_0000000710   
       710  11  5.291529E-05  9.000030E+00  1.933139E-09 -3.148170E-06  3.225103E-15 -5.397035E-15 _shell_0000000710   
       710  12  4.649965E-05  9.000028E+00  1.432349E-07 -3.654428E-06 -1.084729E-15 -5.087212E-15 _shell_0000000710   
       710  13  5.855292E-05  9.000031E+00 -6.390664E-08 -5.965881E-14  1.411969E-15 -7.983655E-16 _shell_0000000710   
       710  14  5.237462E-05  9.000030E+00 -1.079019E-07 -7.762772E-14 -2.036137E-16 -5.714496E-15 _shell_0000000710   
       710  15  4.596878E-05  9.000028E+00  5.626929E-08 -9.534211E-14 -2.139093E-16 -2.374436E-15 _shell_0000000710   
       710  16  5.910339E-05  9.000031E+00  6.879784E-08  2.641911E-06 -9.798909E-16 -2.197658E-15 _shell_0000000710   
       710  17  5.291529E-05  9.000030E+00  1.933140E-09  3.148170E-06  4.389819E-15 -2.694088E-15 _shell_0000000710   
       710  18  4.649965E-05  9.000028E+00  1.432349E-07  3.654428E-06  1.918730E-15 -4.302009E-15 _shell_0000000710   
       710  19  5.893866E-05  9.000031E+00  4.863276E-08 -2.649687E-06  4.130039E-08  2.992417E-08 _shell_0000000710   
       710  20  5.277390E-05  9.000030E+00  5.095640E-09 -3.155946E-06  1.194837E-08  2.879095E-08 _shell_0000000710   
       710  21  4.638158E-05  9.000028E+00  1.697249E-07 -3.662204E-06 -1.740365E-08  2.765772E-08 _shell_0000000710   
       710  22  5.838819E-05  9.000031E+00 -8.407173E-08 -6.594538E-14  4.620098E-08 -8.433005E-15 _shell_0000000710   
       710  23  5.223323E-05  9.000030E+00 -1.047394E-07 -7.818766E-14  1.684896E-08 -8.755389E-15 _shell_0000000710   
       710  24  4.585071E-05  9.000028E+00  8.275933E-08 -9.567298E-14 -1.250307E-08 -6.342789E-15 _shell_0000000710   
       710  25  5.893866E-05  9.000031E+00  4.863276E-08  2.649687E-06  4.130039E-08 -2.992418E-08 _shell_0000000710   
       710  26  5.277390E-05  9.000030E+00  5.095631E-09  3.155946E-06  1.194836E-08 -2.879095E-08 _shell_0000000710   
       710  27  4.638158E-05  9.000028E+00  1.697249E-07  3.662204E-06 -1.740367E-08 -2.765773E-08 _shell_0000000710   
       711   1  4.151943E-05  9.000027E+00 -1.000476E-07 -3.884686E-06  4.255281E-08 -2.563135E-08 _shell_0000000711   
       711   2  3.415405E-05  9.000021E+00  9.483030E-08 -3.993850E-06 -2.440289E-08 -1.980100E-08 _shell_0000000711   
       711   3  2.557247E-05  9.000012E+00  1.080173E-07 -4.103015E-06 -9.135856E-08 -1.397062E-08 _shell_0000000711   
       711   4  4.092272E-05  9.000026E+00 -2.037114E-07 -6.449464E-14  3.706228E-08 -1.339526E-14 _shell_0000000711   
       711   5  3.356832E-05  9.000021E+00  1.678896E-08 -8.803747E-14 -2.989341E-08  5.984506E-17 _shell_0000000711   
       711   6  2.499772E-05  9.000012E+00  5.559842E-08 -1.026468E-13 -9.684907E-08  4.773971E-15 _shell_0000000711   
       711   7  4.151943E-05  9.000027E+00 -1.000476E-07  3.884686E-06  4.255281E-08  2.563135E-08 _shell_0000000711   
       711   8  3.415405E-05  9.000021E+00  9.483033E-08  3.993850E-06 -2.440288E-08  1.980097E-08 _shell_0000000711   
       711   9  2.557247E-05  9.000012E+00  1.080174E-07  4.103015E-06 -9.135856E-08  1.397064E-08 _shell_0000000711   
       711  10  4.178993E-05  9.000026E+00 -7.028840E-08 -3.874263E-06  1.075040E-15 -2.947928E-15 _shell_0000000711   
       711  11  3.439328E-05  9.000021E+00  9.332302E-08 -3.983428E-06  3.012404E-15 -4.716561E-15 _shell_0000000711   
       711  12  2.578044E-05  9.000012E+00  7.524355E-08 -4.092593E-06 -5.157005E-15 -5.542845E-15 _shell_0000000711   
       711  13  4.119322E-05  9.000026E+00 -1.739522E-07 -5.823352E-14 -5.987054E-16 -3.154317E-15 _shell_0000000711   
       711  14  3.380756E-05  9.000021E+00  1.528167E-08 -9.096442E-14 -4.072274E-16 -4.458712E-15 _shell_0000000711   
       711  15  2.520569E-05  9.000012E+00  2.282461E-08 -1.248152E-13 -2.765135E-15 -3.090546E-16 _shell_0000000711   
       711  16  4.178993E-05  9.000026E+00 -7.028840E-08  3.874263E-06  1.304105E-15 -2.722630E-15 _shell_0000000711   
       711  17  3.439328E-05  9.000021E+00  9.332302E-08  3.983428E-06 -1.012001E-15 -6.646718E-16 _shell_0000000711   
       711  18  2.578044E-05  9.000012E+00  7.524355E-08  4.092593E-06 -6.019161E-15 -9.653341E-16 _shell_0000000711   
       711  19  4.151943E-05  9.000027E+00 -1.000476E-07 -3.884686E-06 -4.255279E-08  2.563135E-08 _shell_0000000711   
       711  20  3.415405E-05  9.000021E+00  9.483031E-08 -3.993850E-06  2.440288E-08  1.980099E-08 _shell_0000000711   
       711  21  2.557247E-05  9.000012E+00  1.080173E-07 -4.103015E-06  9.135855E-08  1.397062E-08 _shell_0000000711   
       711  22  4.092272E-05  9.000026E+00 -2.037114E-07 -6.637806E-14 -3.706227E-08 -5.429702E-15 _shell_0000000711   
       711  23  3.356832E-05  9.000021E+00  1.678895E-08 -9.175342E-14  2.989340E-08 -6.134971E-15 _shell_0000000711   
       711  24  2.499772E-05  9.000012E+00  5.559838E-08 -1.206411E-13  9.684908E-08 -8.329130E-15 _shell_0000000711   
       711  25  4.151943E-05  9.000027E+00 -1.000476E-07  3.884686E-06 -4.255281E-08 -2.563134E-08 _shell_0000000711   
       711  26  3.415405E-05  9.000021E+00  9.483031E-08  3.993850E-06  2.440288E-08 -1.980099E-08 _shell_0000000711   
       711  27  2.557247E-05  9.000012E+00  1.080173E-07  4.103015E-06  9.135856E-08 -1.397063E-08 _shell_0000000711   
       712   1  2.010510E-05  9.000005E+00 -3.086031E-07 -3.958155E-06  1.680262E-07 -9.619337E-09 _shell_0000000712   
       712   2  1.467965E-05  8.999989E+00  2.324626E-07 -3.371512E-06 -2.309460E-08 -4.966054E-10 _shell_0000000712   
       712   3  6.636257E-06  8.999965E+00 -1.069332E-07 -2.784868E-06 -2.142154E-07  8.626159E-09 _shell_0000000712   
       712   4  1.958168E-05  9.000005E+00 -3.292793E-07 -1.097478E-13  1.647263E-07 -7.426834E-15 _shell_0000000712   
       712   5  1.416283E-05  8.999988E+00  2.271859E-07 -1.242807E-13 -2.639451E-08 -1.845249E-15 _shell_0000000712   
       712   6  6.126038E-06  8.999964E+00 -9.681043E-08 -1.293201E-13 -2.175153E-07 -2.386901E-15 _shell_0000000712   
       712   7  2.010510E-05  9.000005E+00 -3.086031E-07  3.958155E-06  1.680262E-07  9.619351E-09 _shell_0000000712   
       712   8  1.467965E-05  8.999989E+00  2.324626E-07  3.371511E-06 -2.309463E-08  4.965752E-10 _shell_0000000712   
       712   9  6.636257E-06  8.999965E+00 -1.069332E-07  2.784868E-06 -2.142154E-07 -8.626155E-09 _shell_0000000712   
       712  10  2.047969E-05  9.000005E+00 -2.793417E-07 -3.949784E-06 -7.031327E-15 -3.687539E-15 _shell_0000000712   
       712  11  1.502913E-05  8.999988E+00  2.366115E-07 -3.363141E-06 -1.054612E-14 -2.818931E-15 _shell_0000000712   
       712  12  6.960622E-06  8.999964E+00 -1.278970E-07 -2.776497E-06 -9.217139E-15 -1.039807E-15 _shell_0000000712   
       712  13  1.995627E-05  9.000004E+00 -3.000179E-07 -1.203357E-13 -4.480668E-15 -1.739153E-15 _shell_0000000712   
       712  14  1.451231E-05  8.999988E+00  2.313348E-07 -1.272586E-13 -8.551775E-15 -3.545130E-15 _shell_0000000712   
       712  15  6.450403E-06  8.999964E+00 -1.177742E-07 -1.376429E-13 -8.051847E-15  2.011806E-15 _shell_0000000712   
       712  16  2.047969E-05  9.000005E+00 -2.793417E-07  3.949784E-06 -1.011706E-14 -7.007254E-16 _shell_0000000712   
       712  17  1.502913E-05  8.999988E+00  2.366114E-07  3.363140E-06 -7.180418E-15 -5.232209E-16 _shell_0000000712   
       712  18  6.960622E-06  8.999964E+00 -1.278970E-07  2.776497E-06 -3.508542E-15 -6.438581E-18 _shell_0000000712   
       712  19  2.010510E-05  9.000005E+00 -3.086031E-07 -3.958155E-06 -1.680262E-07  9.619335E-09 _shell_0000000712   
       712  20  1.467965E-05  8.999989E+00  2.324626E-07 -3.371512E-06  2.309459E-08  4.965981E-10 _shell_0000000712   
       712  21  6.636257E-06  8.999965E+00 -1.069332E-07 -2.784868E-06  2.142154E-07 -8.626148E-09 _shell_0000000712   
       712  22  1.958168E-05  9.000005E+00 -3.292793E-07 -1.198267E-13 -1.647263E-07 -8.687519E-15 _shell_0000000712   
       712  23  1.416283E-05  8.999988E+00  2.271859E-07 -1.203357E-13  2.639449E-08 -2.137944E-15 _shell_0000000712   
       712  24  6.126038E-06  8.999964E+00 -9.681043E-08 -1.290147E-13  2.175153E-07  3.509240E-15 _shell_0000000712   
       712  25  2.010510E-05  9.000005E+00 -3.086031E-07  3.958155E-06 -1.680262E-07 -9.619338E-09 _shell_0000000712   
       712  26  1.467965E-05  8.999989E+00  2.324626E-07  3.371511E-06  2.309459E-08 -4.965914E-10 _shell_0000000712   
       712  27  6.636257E-06  8.999965E+00 -1.069332E-07  2.784868E-06  2.142154E-07  8.626159E-09 _shell_0000000712   
       713   1  3.423226E-06  8.999948E+00 -2.823296E-07 -2.187730E-06  2.329087E-07  9.178789E-09 _shell_0000000713   
       713   2  2.311199E-06  8.999913E+00  2.277504E-07 -1.332376E-06  1.561205E-08  1.955111E-09 _shell_0000000713   
       713   3 -1.893182E-06  8.999870E+00 -4.000286E-07 -4.770217E-07 -2.016846E-07 -5.268544E-09 _shell_0000000713   
       713   4  2.963810E-06  8.999948E+00 -2.475434E-07 -1.485616E-13  2.336008E-07 -1.099644E-14 _shell_0000000713   
       713   5  1.850399E-06  8.999913E+00  2.593069E-07 -1.439803E-13  1.630415E-08  5.255778E-15 _shell_0000000713   
       713   6 -2.355366E-06  8.999870E+00 -3.717018E-07 -1.218628E-13 -2.009925E-07  7.669104E-15 _shell_0000000713   
       713   7  3.423226E-06  8.999948E+00 -2.823296E-07  2.187729E-06  2.329087E-07 -9.178784E-09 _shell_0000000713   
       713   8  2.311199E-06  8.999913E+00  2.277504E-07  1.332375E-06  1.561205E-08 -1.955123E-09 _shell_0000000713   
       713   9 -1.893182E-06  8.999870E+00 -4.000286E-07  4.770214E-07 -2.016846E-07  5.268568E-09 _shell_0000000713   
       713  10  3.816005E-06  8.999947E+00 -2.762795E-07 -2.191477E-06 -1.039096E-14  3.265986E-18 _shell_0000000713   
       713  11  2.715219E-06  8.999913E+00  2.450415E-07 -1.336123E-06 -1.003101E-14 -3.152827E-15 _shell_0000000713   
       713  12 -1.477920E-06  8.999870E+00 -3.714965E-07 -4.807686E-07 -6.900448E-15 -3.979461E-15 _shell_0000000713   
       713  13  3.356589E-06  8.999947E+00 -2.414933E-07 -1.345377E-13 -5.434531E-15  5.586508E-16 _shell_0000000713   
       713  14  2.254419E-06  8.999913E+00  2.765980E-07 -1.265459E-13 -3.042070E-15 -3.104322E-15 _shell_0000000713   
       713  15 -1.940105E-06  8.999870E+00 -3.431697E-07 -1.253751E-13  2.759739E-15  2.563662E-16 _shell_0000000713   
       713  16  3.816005E-06  8.999947E+00 -2.762795E-07  2.191476E-06  1.246543E-15  1.450276E-15 _shell_0000000713   
       713  17  2.715219E-06  8.999913E+00  2.450415E-07  1.336122E-06 -3.654254E-16  1.713493E-15 _shell_0000000713   
       713  18 -1.477920E-06  8.999870E+00 -3.714965E-07  4.807684E-07 -7.596577E-15 -3.818362E-16 _shell_0000000713   
       713  19  3.423226E-06  8.999948E+00 -2.823296E-07 -2.187730E-06 -2.329087E-07 -9.178785E-09 _shell_0000000713   
       713  20  2.311199E-06  8.999913E+00  2.277504E-07 -1.332376E-06 -1.561207E-08 -1.955118E-09 _shell_0000000713   
       713  21 -1.893182E-06  8.999870E+00 -4.000286E-07 -4.770216E-07  2.016846E-07  5.268550E-09 _shell_0000000713   
       713  22  2.963810E-06  8.999948E+00 -2.475433E-07 -1.384828E-13 -2.336008E-07 -8.483745E-17 _shell_0000000713   
       713  23  1.850399E-06  8.999913E+00  2.593069E-07 -1.319162E-13 -1.630417E-08 -7.940934E-15 _shell_0000000713   
       713  24 -2.355366E-06  8.999870E+00 -3.717018E-07 -1.392972E-13  2.009925E-07 -1.069613E-14 _shell_0000000713   
       713  25  3.423226E-06  8.999948E+00 -2.823296E-07  2.187729E-06 -2.329087E-07  9.178802E-09 _shell_0000000713   
       713  26  2.311199E-06  8.999913E+00  2.277504E-07  1.332375E-06 -1.561207E-08  1.955114E-09 _shell_0000000713   
       713  27 -1.893182E-06  8.999870E+00 -4.000286E-07  4.770214E-07  2.016846E-07 -5.268565E-09 _shell_0000000713   
       714   1 -1.353633E-06  8.999842E+00  8.869952E-08 -1.537379E-07  1.415941E-07 -8.297028E-09 _shell_0000000714   
       714   2 -7.178050E-07  8.999790E+00  1.904777E-07 -9.154535E-08  1.398737E-08 -1.148075E-08 _shell_0000000714   
       714   3 -1.776722E-06  8.999733E+00 -6.303987E-08 -2.935269E-08 -1.136194E-07 -1.466446E-08 _shell_0000000714   
       714   4 -1.971663E-06  8.999842E+00  4.260439E-08 -1.255787E-13  1.477858E-07 -3.589987E-15 _shell_0000000714   
       714   5 -1.348218E-06  8.999790E+00  1.154881E-07 -1.157798E-13  2.017905E-08  6.112194E-15 _shell_0000000714   
       714   6 -2.419518E-06  8.999733E+00 -1.669240E-07 -7.503164E-14 -1.074277E-07  3.993912E-15 _shell_0000000714   
       714   7 -1.353633E-06  8.999842E+00  8.869951E-08  1.537377E-07  1.415941E-07  8.297049E-09 _shell_0000000714   
       714   8 -7.178050E-07  8.999790E+00  1.904777E-07  9.154508E-08  1.398735E-08  1.148075E-08 _shell_0000000714   
       714   9 -1.776722E-06  8.999733E+00 -6.303983E-08  2.935251E-08 -1.136194E-07  1.466447E-08 _shell_0000000714   
       714  10 -1.110951E-06  8.999842E+00  5.036717E-08 -1.642194E-07  7.689937E-16 -2.249069E-15 _shell_0000000714   
       714  11 -4.436781E-07  8.999790E+00  1.835897E-07 -1.020267E-07  7.641569E-15 -2.862372E-15 _shell_0000000714   
       714  12 -1.471150E-06  8.999733E+00 -3.848366E-08 -3.983414E-08  1.598670E-14 -1.026988E-16 _shell_0000000714   
       714  13 -1.728981E-06  8.999842E+00  4.272068E-09 -1.224227E-13 -4.072274E-15 -1.884055E-15 _shell_0000000714   
       714  14 -1.074091E-06  8.999790E+00  1.086000E-07 -1.227791E-13 -1.844635E-15 -4.646281E-15 _shell_0000000714   
       714  15 -2.113947E-06  8.999733E+00 -1.423678E-07 -1.087806E-13  4.208616E-15  1.486287E-15 _shell_0000000714   
       714  16 -1.110951E-06  8.999842E+00  5.036715E-08  1.642191E-07 -1.359060E-14 -6.302518E-16 _shell_0000000714   
       714  17 -4.436781E-07  8.999790E+00  1.835897E-07  1.020265E-07 -7.779140E-15 -1.330200E-15 _shell_0000000714   
       714  18 -1.471150E-06  8.999733E+00 -3.848363E-08  3.983392E-08 -1.273418E-14 -9.273059E-16 _shell_0000000714   
       714  19 -1.353633E-06  8.999842E+00  8.869952E-08 -1.537380E-07 -1.415941E-07  8.297028E-09 _shell_0000000714   
       714  20 -7.178050E-07  8.999790E+00  1.904778E-07 -9.154536E-08 -1.398734E-08  1.148075E-08 _shell_0000000714   
       714  21 -1.776722E-06  8.999733E+00 -6.303987E-08 -2.935273E-08  1.136194E-07  1.466447E-08 _shell_0000000714   
       714  22 -1.971663E-06  8.999842E+00  4.260440E-08 -1.456092E-13 -1.477858E-07 -1.291249E-14 _shell_0000000714   
       714  23 -1.348218E-06  8.999790E+00  1.154881E-07 -1.392209E-13 -2.017905E-08 -1.249569E-14 _shell_0000000714   
       714  24 -2.419518E-06  8.999733E+00 -1.669241E-07 -1.224991E-13  1.074277E-07 -4.207044E-15 _shell_0000000714   
       714  25 -1.353633E-06  8.999842E+00  8.869951E-08  1.537377E-07 -1.415942E-07 -8.297036E-09 _shell_0000000714   
       714  26 -7.178050E-07  8.999790E+00  1.904777E-07  9.154507E-08 -1.398737E-08 -1.148076E-08 _shell_0000000714   
       714  27 -1.776722E-06  8.999733E+00 -6.303983E-08  2.935249E-08  1.136194E-07 -1.466447E-08 _shell_0000000714   
       715   1 -1.643631E-06  8.999698E+00 -5.416751E-08  2.360086E-07  4.439150E-08 -1.216771E-08 _shell_0000000715   
       715   2 -8.029374E-07  8.999635E+00 -6.463663E-08  3.358702E-07  1.326681E-08 -4.039793E-10 _shell_0000000715   
       715   3 -4.237375E-07  8.999571E+00  9.048293E-08  4.357318E-07 -1.785787E-08  1.135978E-08 _shell_0000000715   
       715   4 -1.754771E-06  8.999698E+00  3.774120E-08 -5.556109E-14  6.712060E-08 -8.261578E-15 _shell_0000000715   
       715   5 -9.595350E-07  8.999635E+00 -7.879713E-08 -4.138448E-14  3.599590E-08  2.214299E-15 _shell_0000000715   
       715   6 -6.257934E-07  8.999570E+00 -2.974676E-08 -1.175869E-14  4.871187E-09  2.692093E-15 _shell_0000000715   
       715   7 -1.643631E-06  8.999698E+00 -5.416752E-08 -2.360088E-07  4.439147E-08  1.216772E-08 _shell_0000000715   
       715   8 -8.029374E-07  8.999635E+00 -6.463665E-08 -3.358703E-07  1.326681E-08  4.039597E-10 _shell_0000000715   
       715   9 -4.237375E-07  8.999571E+00  9.048295E-08 -4.357318E-07 -1.785790E-08 -1.135977E-08 _shell_0000000715   
       715  10 -1.526983E-06  8.999698E+00 -9.054273E-08  2.063264E-07  1.621339E-14  8.556031E-17 _shell_0000000715   
       715  11 -5.972424E-07  8.999635E+00 -1.196506E-08  3.061879E-07  7.833087E-15 -3.703849E-15 _shell_0000000715   
       715  12 -1.289957E-07  8.999571E+00  2.322013E-07  4.060495E-07 -3.345377E-16  2.904388E-15 _shell_0000000715   
       715  13 -1.638122E-06  8.999698E+00  1.365979E-09 -7.910392E-14  3.765563E-15 -7.181936E-16 _shell_0000000715   
       715  14 -7.538400E-07  8.999635E+00 -2.612555E-08 -5.309227E-14  8.144548E-16 -3.533317E-15 _shell_0000000715   
       715  15 -3.310515E-07  8.999571E+00  1.119716E-07 -1.751078E-14 -7.927563E-15  8.787858E-15 _shell_0000000715   
       715  16 -1.526983E-06  8.999698E+00 -9.054273E-08 -2.063265E-07 -8.901413E-15 -5.672055E-16 _shell_0000000715   
       715  17 -5.972424E-07  8.999635E+00 -1.196508E-08 -3.061880E-07 -4.275887E-15  2.716400E-16 _shell_0000000715   
       715  18 -1.289957E-07  8.999571E+00  2.322013E-07 -4.060495E-07 -3.651566E-15  7.354684E-15 _shell_0000000715   
       715  19 -1.643631E-06  8.999698E+00 -5.416754E-08  2.360085E-07 -4.439146E-08  1.216772E-08 _shell_0000000715   
       715  20 -8.029374E-07  8.999635E+00 -6.463663E-08  3.358702E-07 -1.326681E-08  4.039719E-10 _shell_0000000715   
       715  21 -4.237375E-07  8.999571E+00  9.048291E-08  4.357318E-07  1.785789E-08 -1.135976E-08 _shell_0000000715   
       715  22 -1.754771E-06  8.999698E+00  3.774119E-08 -1.036394E-13 -6.712061E-08 -5.788208E-15 _shell_0000000715   
       715  23 -9.595350E-07  8.999635E+00 -7.879713E-08 -5.456847E-14 -3.599591E-08 -6.108411E-15 _shell_0000000715   
       715  24 -6.257934E-07  8.999570E+00 -2.974675E-08 -1.109695E-14 -4.871218E-09  1.208096E-14 _shell_0000000715   
       715  25 -1.643631E-06  8.999698E+00 -5.416752E-08 -2.360088E-07 -4.439148E-08 -1.216771E-08 _shell_0000000715   
       715  26 -8.029374E-07  8.999635E+00 -6.463665E-08 -3.358703E-07 -1.326681E-08 -4.039728E-10 _shell_0000000715   
       715  27 -4.237375E-07  8.999571E+00  9.048293E-08 -4.357318E-07  1.785789E-08  1.135978E-08 _shell_0000000715   
       801   1 -8.265990E-07  8.999570E+00 -2.373963E-07  9.098069E-07  3.908536E-08 -1.325125E-07 _shell_0000000801   
       801   2 -2.327807E-07  8.999636E+00  2.584408E-07  4.146448E-07 -1.249896E-08  6.338256E-08 _shell_0000000801   
       801   3 -1.025227E-06  8.999698E+00  9.123035E-08  4.819197E-07 -6.408327E-08  1.150289E-08 _shell_0000000801   
       801   4 -8.493953E-07  8.999569E+00 -3.669717E-08  1.047846E-06  8.671040E-08 -1.499370E-07 _shell_0000000801   
       801   5  2.896472E-07  8.999636E+00 -3.487027E-08  2.383977E-07 -3.518330E-08  6.671501E-08 _shell_0000000801   
       801   6  2.901996E-07  8.999698E+00 -1.179497E-07 -8.614028E-09 -1.570770E-07  3.559221E-08 _shell_0000000801   
       801   7 -3.082039E-07  8.999569E+00  3.846199E-07  1.158738E-06  1.757752E-07 -1.673614E-07 _shell_0000000801   
       801   8  1.293183E-06  8.999635E+00 -3.009492E-07  3.500310E-08 -1.642785E-08  7.004745E-08 _shell_0000000801   
       801   9  2.003855E-06  8.999698E+00 -4.932834E-07 -5.262953E-07 -2.086309E-07  5.968155E-08 _shell_0000000801   
       801  10 -5.704043E-07  8.999570E+00 -1.459182E-07  7.198700E-07  4.913865E-15  1.221682E-15 _shell_0000000801   
       801  11 -4.647404E-08  8.999636E+00  2.800308E-07  2.648914E-07  5.765771E-17 -5.507637E-15 _shell_0000000801   
       801  12 -9.088086E-07  8.999698E+00  4.293224E-08  3.723498E-07  5.879662E-15 -8.101076E-15 _shell_0000000801   
       801  13 -5.228795E-07  8.999569E+00  8.491854E-08  8.346134E-07  1.305673E-14  1.654361E-15 _shell_0000000801   
       801  14  5.462749E-07  8.999636E+00  1.685737E-08  6.534828E-08  7.272435E-15 -4.989660E-16 _shell_0000000801   
       801  15  4.769392E-07  8.999698E+00 -1.361102E-07 -1.414800E-07  5.382275E-15 -2.845549E-15 _shell_0000000801   
       801  16  8.863312E-08  8.999570E+00  5.363732E-07  9.222094E-07  2.794933E-14  4.998590E-15 _shell_0000000801   
       801  17  1.620132E-06  8.999635E+00 -2.190839E-07 -1.613424E-07  1.518270E-14 -2.952403E-15 _shell_0000000801   
       801  18  2.260915E-06  8.999698E+00 -4.813063E-07 -6.824573E-07  5.987884E-15 -4.256866E-15 _shell_0000000801   
       801  19 -8.265991E-07  8.999570E+00 -2.373963E-07  9.098069E-07 -3.908535E-08  1.325125E-07 _shell_0000000801   
       801  20 -2.327807E-07  8.999636E+00  2.584408E-07  4.146449E-07  1.249894E-08 -6.338257E-08 _shell_0000000801   
       801  21 -1.025227E-06  8.999698E+00  9.123036E-08  4.819197E-07  6.408327E-08 -1.150290E-08 _shell_0000000801   
       801  22 -8.493953E-07  8.999569E+00 -3.669718E-08  1.047846E-06 -8.671037E-08  1.499370E-07 _shell_0000000801   
       801  23  2.896472E-07  8.999636E+00 -3.487028E-08  2.383977E-07  3.518333E-08 -6.671502E-08 _shell_0000000801   
       801  24  2.901996E-07  8.999698E+00 -1.179497E-07 -8.614025E-09  1.570770E-07 -3.559222E-08 _shell_0000000801   
       801  25 -3.082040E-07  8.999569E+00  3.846198E-07  1.158738E-06 -1.757752E-07  1.673614E-07 _shell_0000000801   
       801  26  1.293183E-06  8.999635E+00 -3.009492E-07  3.500312E-08  1.642789E-08 -7.004746E-08 _shell_0000000801   
       801  27  2.003855E-06  8.999698E+00 -4.932834E-07 -5.262953E-07  2.086309E-07 -5.968155E-08 _shell_0000000801   
       802   1 -1.184809E-06  8.999733E+00 -1.427827E-07  1.870475E-07  1.018211E-07 -5.691287E-08 _shell_0000000802   
       802   2 -2.072111E-07  8.999790E+00 -4.388894E-08 -1.349797E-07 -1.646882E-08 -5.598169E-08 _shell_0000000802   
       802   3 -5.261134E-07  8.999842E+00  8.339358E-08 -2.993639E-07 -1.347587E-07 -1.752306E-08 _shell_0000000802   
       802   4  8.037843E-07  8.999733E+00 -6.072454E-08 -3.494727E-07  5.281491E-08 -2.951938E-08 _shell_0000000802   
       802   5  2.032857E-06  8.999790E+00  6.029580E-08 -4.191608E-07 -3.345759E-08 -3.799025E-08 _shell_0000000802   
       802   6  1.927903E-06  8.999843E+00  1.221409E-07 -3.312060E-07 -1.197301E-07 -8.933712E-09 _shell_0000000802   
       802   7  4.363791E-06  8.999734E+00  3.022053E-07 -8.761996E-07  1.267631E-08 -2.125878E-09 _shell_0000000802   
       802   8  5.826604E-06  8.999791E+00  4.039703E-07 -6.935487E-07 -4.157881E-08 -1.999883E-08 _shell_0000000802   
       802   9  5.917863E-06  8.999844E+00  3.589961E-07 -3.532549E-07 -9.583394E-08 -3.443462E-10 _shell_0000000802   
       802  10 -8.890271E-07  8.999733E+00 -1.309085E-07  1.206692E-07  5.675732E-15 -4.479501E-15 _shell_0000000802   
       802  11  5.804125E-08  8.999790E+00 -6.254411E-08 -1.914177E-07  2.005470E-15 -3.369721E-15 _shell_0000000802   
       802  12 -2.913904E-07  8.999842E+00  3.420904E-08 -3.458617E-07 -1.267971E-15 -4.741498E-15 _shell_0000000802   
       802  13  1.116961E-06  8.999733E+00 -4.139521E-08 -4.260274E-07  6.695314E-15 -1.628916E-15 _shell_0000000802   
       802  14  2.315505E-06  8.999790E+00  4.909582E-08 -4.857753E-07  4.886716E-15  5.191268E-16 _shell_0000000802   
       802  15  2.180021E-06  8.999842E+00  8.041161E-08 -3.878803E-07  7.744056E-15 -1.205127E-15 _shell_0000000802   
       802  16  4.694363E-06  8.999733E+00  3.289898E-07 -9.629308E-07  2.543857E-17 -1.720633E-15 _shell_0000000802   
       802  17  6.126647E-06  8.999791E+00  4.002255E-07 -7.703396E-07  2.819912E-15 -8.144610E-16 _shell_0000000802   
       802  18  6.187376E-06  8.999843E+00  3.247220E-07 -4.201055E-07  1.694177E-14 -1.718553E-16 _shell_0000000802   
       802  19 -1.184809E-06  8.999733E+00 -1.427827E-07  1.870475E-07 -1.018211E-07  5.691288E-08 _shell_0000000802   
       802  20 -2.072111E-07  8.999790E+00 -4.388894E-08 -1.349796E-07  1.646883E-08  5.598168E-08 _shell_0000000802   
       802  21 -5.261135E-07  8.999842E+00  8.339354E-08 -2.993639E-07  1.347587E-07  1.752306E-08 _shell_0000000802   
       802  22  8.037843E-07  8.999733E+00 -6.072456E-08 -3.494727E-07 -5.281490E-08  2.951936E-08 _shell_0000000802   
       802  23  2.032857E-06  8.999790E+00  6.029580E-08 -4.191608E-07  3.345762E-08  3.799025E-08 _shell_0000000802   
       802  24  1.927903E-06  8.999843E+00  1.221410E-07 -3.312060E-07  1.197301E-07  8.933705E-09 _shell_0000000802   
       802  25  4.363791E-06  8.999734E+00  3.022052E-07 -8.761996E-07 -1.267631E-08  2.125855E-09 _shell_0000000802   
       802  26  5.826604E-06  8.999791E+00  4.039703E-07 -6.935487E-07  4.157883E-08  1.999883E-08 _shell_0000000802   
       802  27  5.917863E-06  8.999844E+00  3.589962E-07 -3.532549E-07  9.583398E-08  3.443579E-10 _shell_0000000802   
       803   1 -9.638149E-07  8.999871E+00 -2.612978E-07 -7.838095E-07  2.015833E-07  1.476060E-08 _shell_0000000803   
       803   2  3.255251E-06  8.999914E+00  4.007989E-07 -2.048948E-06 -1.669314E-08  3.217901E-08 _shell_0000000803   
       803   3  4.115751E-06  8.999948E+00 -3.226372E-07 -3.429246E-06 -2.349695E-07  1.817875E-09 _shell_0000000803   
       803   4  1.073661E-06  8.999871E+00 -4.574719E-07 -1.136642E-06  2.004458E-07  1.869255E-08 _shell_0000000803   
       803   5  5.290297E-06  8.999915E+00  2.717666E-07 -3.352410E-06 -2.119753E-08  2.950798E-08 _shell_0000000803   
       803   6  6.196147E-06  8.999949E+00 -2.730421E-07 -5.683338E-06 -2.428409E-07 -7.456143E-09 _shell_0000000803   
       803   7  4.022441E-06  8.999871E+00 -7.344387E-07 -1.411710E-06  2.005421E-07  2.262451E-08 _shell_0000000803   
       803   8  8.234180E-06  8.999916E+00  5.618429E-08 -4.578108E-06 -2.446818E-08  2.683696E-08 _shell_0000000803   
       803   9  9.182912E-06  8.999950E+00 -3.157543E-07 -7.859666E-06 -2.494785E-07 -1.673015E-08 _shell_0000000803   
       803  10 -5.531690E-07  8.999870E+00 -2.418601E-07 -8.122701E-07 -1.718749E-15 -3.461431E-15 _shell_0000000803   
       803  11  3.655692E-06  8.999914E+00  4.100324E-07 -2.062016E-06  1.839950E-15 -1.008898E-14 _shell_0000000803   
       803  12  4.505988E-06  8.999948E+00 -3.236079E-07 -3.426922E-06  1.283274E-14 -1.414594E-14 _shell_0000000803   
       803  13  1.511243E-06  8.999871E+00 -4.264901E-07 -1.168504E-06  3.820790E-15 -3.665055E-15 _shell_0000000803   
       803  14  5.717675E-06  8.999915E+00  2.925442E-07 -3.368880E-06  8.144448E-16 -4.927519E-15 _shell_0000000803   
       803  15  6.613321E-06  8.999949E+00 -2.624687E-07 -5.684415E-06  4.491464E-15 -1.343344E-14 _shell_0000000803   
       803  16  4.486959E-06  8.999871E+00 -6.919128E-07 -1.446974E-06  1.779149E-14  1.435399E-15 _shell_0000000803   
       803  17  8.688494E-06  8.999915E+00  8.850599E-08 -4.597980E-06  4.168015E-15 -3.461409E-15 _shell_0000000803   
       803  18  9.627022E-06  8.999950E+00 -2.936368E-07 -7.864145E-06  3.225871E-15 -1.480659E-14 _shell_0000000803   
       803  19 -9.638149E-07  8.999871E+00 -2.612978E-07 -7.838095E-07 -2.015833E-07 -1.476059E-08 _shell_0000000803   
       803  20  3.255251E-06  8.999914E+00  4.007989E-07 -2.048948E-06  1.669314E-08 -3.217902E-08 _shell_0000000803   
       803  21  4.115751E-06  8.999948E+00 -3.226372E-07 -3.429246E-06  2.349696E-07 -1.817897E-09 _shell_0000000803   
       803  22  1.073661E-06  8.999871E+00 -4.574720E-07 -1.136642E-06 -2.004458E-07 -1.869257E-08 _shell_0000000803   
       803  23  5.290297E-06  8.999915E+00  2.717666E-07 -3.352410E-06  2.119753E-08 -2.950800E-08 _shell_0000000803   
       803  24  6.196147E-06  8.999949E+00 -2.730421E-07 -5.683338E-06  2.428409E-07  7.456115E-09 _shell_0000000803   
       803  25  4.022441E-06  8.999871E+00 -7.344388E-07 -1.411710E-06 -2.005421E-07 -2.262452E-08 _shell_0000000803   
       803  26  8.234180E-06  8.999916E+00  5.618428E-08 -4.578108E-06  2.446820E-08 -2.683697E-08 _shell_0000000803   
       803  27  9.182912E-06  8.999950E+00 -3.157543E-07 -7.859666E-06  2.494785E-07  1.673013E-08 _shell_0000000803   
       804   1  7.274874E-06  8.999965E+00 -2.116558E-07 -4.393478E-06  2.151124E-07 -1.042395E-08 _shell_0000000804   
       804   2  1.541618E-05  8.999989E+00  2.104021E-07 -5.404630E-06  2.407293E-08 -1.034055E-09 _shell_0000000804   
       804   3  2.090456E-05  9.000005E+00 -2.771138E-07 -6.310563E-06 -1.669666E-07 -6.739158E-09 _shell_0000000804   
       804   4  9.479279E-06  8.999966E+00 -7.755581E-08 -7.187214E-06  2.209191E-07 -1.873023E-08 _shell_0000000804   
       804   5  1.756466E-05  8.999989E+00  2.289210E-07 -8.753471E-06  3.015914E-08  5.883710E-10 _shell_0000000804   
       804   6  2.301222E-05  9.000005E+00 -3.389543E-07 -1.021451E-05 -1.606009E-07  4.811950E-09 _shell_0000000804   
       804   7  1.277375E-05  8.999967E+00  4.990162E-08 -1.007236E-05  2.192343E-07 -2.703649E-08 _shell_0000000804   
       804   8  2.081819E-05  8.999990E+00  2.757580E-07 -1.219372E-05  2.875377E-08  2.210787E-09 _shell_0000000804   
       804   9  2.623991E-05  9.000006E+00 -3.375161E-07 -1.420986E-05 -1.617267E-07  1.636307E-08 _shell_0000000804   
       804  10  7.592998E-06  8.999964E+00 -2.405691E-07 -4.365615E-06  1.206108E-14 -9.060807E-15 _shell_0000000804   
       804  11  1.576233E-05  8.999988E+00  2.095146E-07 -5.370896E-06  8.586166E-15 -4.489624E-15 _shell_0000000804   
       804  12  2.127874E-05  9.000005E+00 -2.499755E-07 -6.270959E-06  7.739523E-15 -4.576110E-15 _shell_0000000804   
       804  13  9.807675E-06  8.999965E+00 -1.020664E-07 -7.150009E-06  9.143234E-15 -1.262650E-14 _shell_0000000804   
       804  14  1.792108E-05  8.999989E+00  2.324362E-07 -8.710395E-06  5.647237E-15 -1.947207E-15 _shell_0000000804   
       804  15  2.339667E-05  9.000005E+00 -3.074133E-07 -1.016556E-05  4.975047E-15  2.550236E-15 _shell_0000000804   
       804  16  1.311242E-05  8.999967E+00  2.979376E-08 -1.002581E-05  4.668863E-15 -1.475187E-14 _shell_0000000804   
       804  17  2.118489E-05  8.999990E+00  2.836759E-07 -1.214130E-05  3.319172E-15 -3.359622E-15 _shell_0000000804   
       804  18  2.663463E-05  9.000005E+00 -3.015724E-07 -1.415157E-05 -1.520701E-15  5.796589E-15 _shell_0000000804   
       804  19  7.274874E-06  8.999965E+00 -2.116558E-07 -4.393478E-06 -2.151124E-07  1.042395E-08 _shell_0000000804   
       804  20  1.541618E-05  8.999989E+00  2.104021E-07 -5.404630E-06 -2.407291E-08  1.034048E-09 _shell_0000000804   
       804  21  2.090456E-05  9.000005E+00 -2.771138E-07 -6.310563E-06  1.669666E-07  6.739154E-09 _shell_0000000804   
       804  22  9.479279E-06  8.999966E+00 -7.755582E-08 -7.187214E-06 -2.209191E-07  1.873019E-08 _shell_0000000804   
       804  23  1.756466E-05  8.999989E+00  2.289210E-07 -8.753470E-06 -3.015912E-08 -5.883775E-10 _shell_0000000804   
       804  24  2.301222E-05  9.000005E+00 -3.389543E-07 -1.021451E-05  1.606009E-07 -4.811947E-09 _shell_0000000804   
       804  25  1.277375E-05  8.999967E+00  4.990157E-08 -1.007236E-05 -2.192343E-07  2.703645E-08 _shell_0000000804   
       804  26  2.081819E-05  8.999990E+00  2.757580E-07 -1.219372E-05 -2.875377E-08 -2.210800E-09 _shell_0000000804   
       804  27  2.623991E-05  9.000006E+00 -3.375161E-07 -1.420986E-05  1.617267E-07 -1.636305E-08 _shell_0000000804   
       805   1  2.637338E-05  9.000012E+00  1.376007E-07 -6.520301E-06  9.045011E-08 -1.553860E-08 _shell_0000000805   
       805   2  3.487975E-05  9.000021E+00  8.540392E-08 -6.348486E-06  2.449743E-08 -2.401028E-08 _shell_0000000805   
       805   3  4.222905E-05  9.000026E+00 -9.314109E-08 -6.201626E-06 -4.145524E-08 -2.269304E-08 _shell_0000000805   
       805   4  2.843689E-05  9.000012E+00  6.091170E-08 -1.055897E-05  9.193399E-08  4.033414E-10 _shell_0000000805   
       805   5  3.682796E-05  9.000021E+00  5.564454E-09 -1.024380E-05  2.942815E-08 -2.907891E-09 _shell_0000000805   
       805   6  4.405217E-05  9.000026E+00 -1.989718E-07 -9.953589E-06 -3.307768E-08  3.569775E-09 _shell_0000000805   
       805   7  3.166991E-05  9.000012E+00  9.070672E-08 -1.464330E-05  8.106630E-08  1.634529E-08 _shell_0000000805   
       805   8  3.997039E-05  9.000021E+00  8.984970E-08 -1.418479E-05  2.200730E-08  1.819448E-08 _shell_0000000805   
       805   9  4.709422E-05  9.000026E+00 -8.303710E-08 -1.375123E-05 -3.705169E-08  2.983260E-08 _shell_0000000805   
       805  10  2.657892E-05  9.000012E+00  1.027115E-07 -6.476116E-06  5.661489E-15 -1.730716E-15 _shell_0000000805   
       805  11  3.511888E-05  9.000021E+00  8.411120E-08 -6.305387E-06  2.090080E-15 -2.351688E-15 _shell_0000000805   
       805  12  4.250177E-05  9.000026E+00 -6.083732E-08 -6.159613E-06  3.670365E-15 -2.069126E-15 _shell_0000000805   
       805  13  2.864052E-05  9.000012E+00  2.520817E-08 -1.050358E-05  5.752087E-15  4.023356E-16 _shell_0000000805   
       805  14  3.706519E-05  9.000021E+00  3.457448E-09 -1.018950E-05  5.347887E-15  1.119362E-16 _shell_0000000805   
       805  15  4.432300E-05  9.000026E+00 -1.674823E-07 -9.900377E-06  3.203880E-15  4.232497E-15 _shell_0000000805   
       805  16  3.187165E-05  9.000012E+00  5.418896E-08 -1.457672E-05 -1.947062E-15  4.184210E-15 _shell_0000000805   
       805  17  4.020572E-05  9.000021E+00  8.692842E-08 -1.411929E-05  3.027237E-15 -1.730716E-15 _shell_0000000805   
       805  18  4.736315E-05  9.000025E+00 -5.236185E-08 -1.368681E-05  1.524149E-15  8.150878E-15 _shell_0000000805   
       805  19  2.637338E-05  9.000012E+00  1.376007E-07 -6.520301E-06 -9.045009E-08  1.553861E-08 _shell_0000000805   
       805  20  3.487975E-05  9.000021E+00  8.540391E-08 -6.348486E-06 -2.449742E-08  2.401027E-08 _shell_0000000805   
       805  21  4.222905E-05  9.000026E+00 -9.314108E-08 -6.201626E-06  4.145525E-08  2.269304E-08 _shell_0000000805   
       805  22  2.843689E-05  9.000012E+00  6.091170E-08 -1.055897E-05 -9.193398E-08 -4.033536E-10 _shell_0000000805   
       805  23  3.682796E-05  9.000021E+00  5.564438E-09 -1.024380E-05 -2.942815E-08  2.907890E-09 _shell_0000000805   
       805  24  4.405217E-05  9.000026E+00 -1.989718E-07 -9.953589E-06  3.307768E-08 -3.569764E-09 _shell_0000000805   
       805  25  3.166991E-05  9.000012E+00  9.070672E-08 -1.464330E-05 -8.106631E-08 -1.634530E-08 _shell_0000000805   
       805  26  3.997039E-05  9.000021E+00  8.984969E-08 -1.418479E-05 -2.200731E-08 -1.819449E-08 _shell_0000000805   
       805  27  4.709422E-05  9.000026E+00 -8.303707E-08 -1.375123E-05  3.705169E-08 -2.983258E-08 _shell_0000000805   
       806   1  4.706700E-05  9.000028E+00  1.793097E-07 -5.831239E-06 -1.769542E-08 -2.481654E-08 _shell_0000000806   
       806   2  5.337754E-05  9.000030E+00 -7.699379E-09 -4.968696E-06  1.182057E-08 -3.225876E-08 _shell_0000000806   
       806   3  5.949664E-05  9.000031E+00  4.506374E-08 -4.230567E-06  4.133656E-08 -2.809568E-08 _shell_0000000806   
       806   4  4.883699E-05  9.000028E+00  8.313988E-08 -9.364116E-06 -1.403479E-08  3.098689E-09 _shell_0000000806   
       806   5  5.495489E-05  9.000029E+00 -1.048379E-07 -7.997605E-06  1.604468E-08 -3.825376E-09 _shell_0000000806   
       806   6  6.086973E-05  9.000030E+00 -8.012240E-08 -6.755509E-06  4.612415E-08  8.558439E-10 _shell_0000000806   
       806   7  5.164454E-05  9.000027E+00  1.559677E-07 -1.290545E-05 -2.054299E-08  3.101394E-08 _shell_0000000806   
       806   8  5.759012E-05  9.000029E+00  1.447582E-08 -1.103497E-05  1.009996E-08  2.460800E-08 _shell_0000000806   
       806   9  6.332105E-05  9.000029E+00  5.859814E-08 -9.288908E-06  4.074290E-08  2.980738E-08 _shell_0000000806   
       806  10  4.718656E-05  9.000028E+00  1.554610E-07 -5.795085E-06  2.993607E-15  9.162617E-16 _shell_0000000806   
       806  11  5.352057E-05  9.000030E+00 -8.085340E-09 -4.936471E-06 -2.733938E-15 -4.387826E-15 _shell_0000000806   
       806  12  5.966313E-05  9.000031E+00  6.814055E-08 -4.202272E-06 -1.734500E-15 -8.622941E-15 _shell_0000000806   
       806  13  4.894968E-05  9.000027E+00  5.634412E-08 -9.320140E-06  1.272586E-15  3.257819E-15 _shell_0000000806   
       806  14  5.509104E-05  9.000029E+00 -1.081708E-07 -7.957559E-06  8.144513E-16 -4.758977E-16 _shell_0000000806   
       806  15  6.102935E-05  9.000030E+00 -5.999261E-08 -6.719392E-06  2.287622E-15  1.000129E-15 _shell_0000000806   
       806  16  5.175035E-05  9.000027E+00  1.262249E-07 -1.285365E-05 -2.769427E-16  8.765520E-15 _shell_0000000806   
       806  17  5.771940E-05  9.000028E+00  8.195807E-09 -1.098711E-05  1.152903E-15 -1.628909E-15 _shell_0000000806   
       806  18  6.347379E-05  9.000029E+00  7.578091E-08 -9.244971E-06 -1.999040E-16  5.491176E-15 _shell_0000000806   
       806  19  4.706700E-05  9.000028E+00  1.793097E-07 -5.831239E-06  1.769543E-08  2.481655E-08 _shell_0000000806   
       806  20  5.337754E-05  9.000030E+00 -7.699388E-09 -4.968696E-06 -1.182057E-08  3.225876E-08 _shell_0000000806   
       806  21  5.949664E-05  9.000031E+00  4.506377E-08 -4.230567E-06 -4.133656E-08  2.809567E-08 _shell_0000000806   
       806  22  4.883699E-05  9.000028E+00  8.313989E-08 -9.364116E-06  1.403480E-08 -3.098699E-09 _shell_0000000806   
       806  23  5.495489E-05  9.000029E+00 -1.048379E-07 -7.997605E-06 -1.604467E-08  3.825373E-09 _shell_0000000806   
       806  24  6.086973E-05  9.000030E+00 -8.012237E-08 -6.755509E-06 -4.612415E-08 -8.558424E-10 _shell_0000000806   
       806  25  5.164454E-05  9.000027E+00  1.559676E-07 -1.290545E-05  2.054300E-08 -3.101393E-08 _shell_0000000806   
       806  26  5.759012E-05  9.000029E+00  1.447581E-08 -1.103497E-05 -1.009996E-08 -2.460801E-08 _shell_0000000806   
       806  27  6.332105E-05  9.000029E+00  5.859820E-08 -9.288908E-06 -4.074291E-08 -2.980736E-08 _shell_0000000806   
       807   1  6.251179E-05  9.000031E+00  1.569687E-07 -3.652126E-06 -6.946576E-08 -2.679130E-08 _shell_0000000807   
       807   2  6.564855E-05  9.000030E+00 -3.965297E-08 -2.603347E-06  3.689692E-09 -3.016215E-08 _shell_0000000807   
       807   3  6.901964E-05  9.000030E+00  1.014481E-07 -1.647665E-06  7.684515E-08 -2.764459E-08 _shell_0000000807   
       807   4  6.386676E-05  9.000030E+00  5.525161E-08 -5.822157E-06 -6.500428E-08  2.105682E-09 _shell_0000000807   
       807   5  6.687902E-05  9.000029E+00 -1.398532E-07 -4.181484E-06  5.932938E-09 -1.970713E-09 _shell_0000000807   
       807   6  7.011971E-05  9.000029E+00 -1.097496E-08 -2.633909E-06  7.687017E-08 -1.586950E-10 _shell_0000000807   
       807   7  6.607109E-05  9.000029E+00  1.365833E-07 -7.987615E-06 -6.591655E-08  3.100267E-08 _shell_0000000807   
       807   8  6.896958E-05  9.000028E+00 -3.192716E-08 -5.755050E-06  2.802450E-09  2.622072E-08 _shell_0000000807   
       807   9  7.209063E-05  9.000028E+00  1.098058E-07 -3.615581E-06  7.152143E-08  2.732721E-08 _shell_0000000807   
       807  10  6.258433E-05  9.000031E+00  1.455583E-07 -3.632433E-06 -6.520477E-16 -4.479501E-15 _shell_0000000807   
       807  11  6.573238E-05  9.000030E+00 -3.976618E-08 -2.587526E-06 -1.976440E-15 -2.453496E-15 _shell_0000000807   
       807  12  6.911477E-05  9.000030E+00  1.126320E-07 -1.635716E-06  6.265241E-16 -6.675884E-15 _shell_0000000807   
       807  13  6.393252E-05  9.000030E+00  4.093734E-08 -5.798698E-06  1.597400E-15  3.817751E-16 _shell_0000000807   
       807  14  6.695607E-05  9.000029E+00 -1.428703E-07 -4.161897E-06  2.251864E-15 -2.535039E-15 _shell_0000000807   
       807  15  7.020806E-05  9.000029E+00 -2.694860E-09 -2.618194E-06  4.117700E-16 -3.023688E-15 _shell_0000000807   
       807  16  6.613007E-05  9.000029E+00  1.193652E-07 -7.960391E-06  1.339241E-15  6.831190E-15 _shell_0000000807   
       807  17  6.903986E-05  9.000028E+00 -3.784811E-08 -5.731697E-06  7.905172E-16 -4.479501E-15 _shell_0000000807   
       807  18  7.217220E-05  9.000028E+00  1.151820E-07 -3.596100E-06  8.084698E-16 -5.536060E-16 _shell_0000000807   
       807  19  6.251179E-05  9.000031E+00  1.569687E-07 -3.652126E-06  6.946575E-08  2.679130E-08 _shell_0000000807   
       807  20  6.564855E-05  9.000030E+00 -3.965298E-08 -2.603347E-06 -3.689703E-09  3.016215E-08 _shell_0000000807   
       807  21  6.901964E-05  9.000030E+00  1.014480E-07 -1.647665E-06 -7.684515E-08  2.764458E-08 _shell_0000000807   
       807  22  6.386676E-05  9.000030E+00  5.525164E-08 -5.822157E-06  6.500428E-08 -2.105693E-09 _shell_0000000807   
       807  23  6.687902E-05  9.000029E+00 -1.398532E-07 -4.181484E-06 -5.932942E-09  1.970706E-09 _shell_0000000807   
       807  24  7.011971E-05  9.000029E+00 -1.097496E-08 -2.633909E-06 -7.687016E-08  1.586890E-10 _shell_0000000807   
       807  25  6.607109E-05  9.000029E+00  1.365833E-07 -7.987615E-06  6.591655E-08 -3.100267E-08 _shell_0000000807   
       807  26  6.896958E-05  9.000028E+00 -3.192717E-08 -5.755050E-06 -2.802434E-09 -2.622073E-08 _shell_0000000807   
       807  27  7.209063E-05  9.000028E+00  1.098058E-07 -3.615581E-06 -7.152142E-08 -2.732721E-08 _shell_0000000807   
       808   1  7.002167E-05  9.000030E+00  1.280059E-07 -1.032356E-06 -8.438592E-08 -2.699884E-08 _shell_0000000808   
       808   2  6.984680E-05  9.000029E+00 -4.908520E-08 -2.053953E-14  4.800829E-15 -2.878822E-08 _shell_0000000808   
       808   3  7.002167E-05  9.000030E+00  1.280059E-07  1.032356E-06  8.438593E-08 -2.699884E-08 _shell_0000000808   
       808   4  7.111819E-05  9.000029E+00  2.693566E-08 -1.636030E-06 -8.117570E-08  2.817352E-10 _shell_0000000808   
       808   5  7.094512E-05  9.000028E+00 -1.459802E-07 -1.707810E-14 -3.531425E-15 -1.507635E-09 _shell_0000000808   
       808   6  7.111819E-05  9.000029E+00  2.693569E-08  1.636030E-06  8.117570E-08  2.817395E-10 _shell_0000000808   
       808   7  7.299871E-05  9.000028E+00  1.278002E-07 -2.239703E-06 -7.796548E-08  2.756232E-08 _shell_0000000808   
       808   8  7.282742E-05  9.000028E+00 -4.094038E-08 -2.809869E-14 -4.807192E-15  2.577294E-08 _shell_0000000808   
       808   9  7.299871E-05  9.000028E+00  1.278002E-07  2.239703E-06  7.796547E-08  2.756233E-08 _shell_0000000808   
       808  10  7.008613E-05  9.000030E+00  1.279238E-07 -1.028606E-06  7.574948E-16 -3.665046E-15 _shell_0000000808   
       808  11  6.991126E-05  9.000029E+00 -4.916721E-08 -2.631707E-14  2.906037E-15 -2.555302E-15 _shell_0000000808   
       808  12  7.008613E-05  9.000030E+00  1.279239E-07  1.028606E-06  3.418856E-15 -3.621678E-15 _shell_0000000808   
       808  13  7.117609E-05  9.000029E+00  2.404140E-08 -1.632280E-06 -3.054205E-16 -3.283271E-15 _shell_0000000808   
       808  14  7.100302E-05  9.000028E+00 -1.488744E-07 -1.791800E-14  3.054205E-16 -9.167634E-17 _shell_0000000808   
       808  15  7.117609E-05  9.000029E+00  2.404140E-08  1.632280E-06  2.163398E-16  3.080390E-16 _shell_0000000808   
       808  16  7.305004E-05  9.000028E+00  1.220937E-07 -2.235954E-06  9.320146E-16  7.227784E-16 _shell_0000000808   
       808  17  7.287876E-05  9.000028E+00 -4.664693E-08 -2.168486E-14  1.515276E-15 -4.174081E-15 _shell_0000000808   
       808  18  7.305004E-05  9.000028E+00  1.220937E-07  2.235954E-06 -8.716498E-16 -4.536799E-15 _shell_0000000808   
       808  19  7.002167E-05  9.000030E+00  1.280058E-07 -1.032356E-06  8.438592E-08  2.699884E-08 _shell_0000000808   
       808  20  6.984680E-05  9.000029E+00 -4.908520E-08 -3.357081E-14 -4.835825E-16  2.878822E-08 _shell_0000000808   
       808  21  7.002167E-05  9.000030E+00  1.280059E-07  1.032356E-06 -8.438592E-08  2.699884E-08 _shell_0000000808   
       808  22  7.111819E-05  9.000029E+00  2.693567E-08 -1.636030E-06  8.117570E-08 -2.817556E-10 _shell_0000000808   
       808  23  7.094512E-05  9.000028E+00 -1.459802E-07 -1.893607E-14 -3.105109E-15  1.507630E-09 _shell_0000000808   
       808  24  7.111819E-05  9.000029E+00  2.693568E-08  1.636030E-06 -8.117571E-08 -2.817399E-10 _shell_0000000808   
       808  25  7.299871E-05  9.000028E+00  1.278002E-07 -2.239703E-06  7.796548E-08 -2.756234E-08 _shell_0000000808   
       808  26  7.282742E-05  9.000028E+00 -4.094041E-08 -2.947308E-14 -3.766853E-15 -2.577295E-08 _shell_0000000808   
       808  27  7.299871E-05  9.000028E+00  1.278002E-07  2.239703E-06 -7.796548E-08 -2.756233E-08 _shell_0000000808   
       809   1  6.901964E-05  9.000030E+00  1.014481E-07  1.647665E-06 -7.684515E-08 -2.764457E-08 _shell_0000000809   
       809   2  6.564855E-05  9.000030E+00 -3.965298E-08  2.603347E-06 -3.689699E-09 -3.016215E-08 _shell_0000000809   
       809   3  6.251179E-05  9.000031E+00  1.569687E-07  3.652126E-06  6.946574E-08 -2.679130E-08 _shell_0000000809   
       809   4  7.011971E-05  9.000029E+00 -1.097494E-08  2.633909E-06 -7.687016E-08 -1.586874E-10 _shell_0000000809   
       809   5  6.687902E-05  9.000029E+00 -1.398532E-07  4.181484E-06 -5.932940E-09 -1.970701E-09 _shell_0000000809   
       809   6  6.386676E-05  9.000030E+00  5.525160E-08  5.822157E-06  6.500427E-08  2.105692E-09 _shell_0000000809   
       809   7  7.209063E-05  9.000028E+00  1.098058E-07  3.615581E-06 -7.152142E-08  2.732720E-08 _shell_0000000809   
       809   8  6.896958E-05  9.000028E+00 -3.192715E-08  5.755050E-06 -2.802430E-09  2.622073E-08 _shell_0000000809   
       809   9  6.607109E-05  9.000029E+00  1.365833E-07  7.987615E-06  6.591655E-08  3.100270E-08 _shell_0000000809   
       809  10  6.911477E-05  9.000030E+00  1.126320E-07  1.635716E-06  9.992845E-16 -2.036133E-16 _shell_0000000809   
       809  11  6.573238E-05  9.000030E+00 -3.976619E-08  2.587526E-06  1.405901E-15 -2.046268E-15 _shell_0000000809   
       809  12  6.258433E-05  9.000031E+00  1.455583E-07  3.632434E-06 -2.618954E-15 -4.130713E-15 _shell_0000000809   
       809  13  7.020806E-05  9.000029E+00 -2.694856E-09  2.618194E-06 -5.720525E-16  4.072285E-16 _shell_0000000809   
       809  14  6.695607E-05  9.000029E+00 -1.428703E-07  4.161897E-06  2.188849E-15  1.119376E-16 _shell_0000000809   
       809  15  6.393252E-05  9.000030E+00  4.093734E-08  5.798698E-06 -1.050187E-15 -2.283360E-17 _shell_0000000809   
       809  16  7.217221E-05  9.000028E+00  1.151820E-07  3.596101E-06 -2.417903E-16 -1.211552E-15 _shell_0000000809   
       809  17  6.903986E-05  9.000028E+00 -3.784811E-08  5.731697E-06  2.474873E-15 -1.628910E-15 _shell_0000000809   
       809  18  6.613007E-05  9.000029E+00  1.193652E-07  7.960391E-06 -5.604981E-15  2.513325E-15 _shell_0000000809   
       809  19  6.901964E-05  9.000030E+00  1.014481E-07  1.647665E-06  7.684516E-08  2.764458E-08 _shell_0000000809   
       809  20  6.564855E-05  9.000030E+00 -3.965298E-08  2.603347E-06  3.689693E-09  3.016215E-08 _shell_0000000809   
       809  21  6.251179E-05  9.000031E+00  1.569687E-07  3.652126E-06 -6.946576E-08  2.679129E-08 _shell_0000000809   
       809  22  7.011971E-05  9.000029E+00 -1.097494E-08  2.633909E-06  7.687016E-08  1.586702E-10 _shell_0000000809   
       809  23  6.687902E-05  9.000029E+00 -1.398532E-07  4.181484E-06  5.932936E-09  1.970702E-09 _shell_0000000809   
       809  24  6.386676E-05  9.000030E+00  5.525161E-08  5.822157E-06 -6.500427E-08 -2.105693E-09 _shell_0000000809   
       809  25  7.209063E-05  9.000028E+00  1.098058E-07  3.615581E-06  7.152142E-08 -2.732722E-08 _shell_0000000809   
       809  26  6.896958E-05  9.000028E+00 -3.192717E-08  5.755050E-06  2.802427E-09 -2.622074E-08 _shell_0000000809   
       809  27  6.607109E-05  9.000029E+00  1.365833E-07  7.987615E-06 -6.591655E-08 -3.100268E-08 _shell_0000000809   
       810   1  5.949664E-05  9.000031E+00  4.506375E-08  4.230567E-06 -4.133656E-08 -2.809565E-08 _shell_0000000810   
       810   2  5.337754E-05  9.000030E+00 -7.699398E-09  4.968696E-06 -1.182056E-08 -3.225875E-08 _shell_0000000810   
       810   3  4.706700E-05  9.000028E+00  1.793097E-07  5.831239E-06  1.769544E-08 -2.481656E-08 _shell_0000000810   
       810   4  6.086973E-05  9.000030E+00 -8.012240E-08  6.755509E-06 -4.612415E-08  8.558613E-10 _shell_0000000810   
       810   5  5.495489E-05  9.000029E+00 -1.048379E-07  7.997605E-06 -1.604467E-08 -3.825367E-09 _shell_0000000810   
       810   6  4.883699E-05  9.000028E+00  8.313987E-08  9.364116E-06  1.403480E-08  3.098684E-09 _shell_0000000810   
       810   7  6.332105E-05  9.000029E+00  5.859815E-08  9.288909E-06 -4.074292E-08  2.980738E-08 _shell_0000000810   
       810   8  5.759012E-05  9.000029E+00  1.447581E-08  1.103497E-05 -1.009996E-08  2.460802E-08 _shell_0000000810   
       810   9  5.164454E-05  9.000027E+00  1.559677E-07  1.290545E-05  2.054300E-08  3.101394E-08 _shell_0000000810   
       810  10  5.966313E-05  9.000031E+00  6.814055E-08  4.202272E-06 -1.438022E-15 -1.628910E-15 _shell_0000000810   
       810  11  5.352057E-05  9.000030E+00 -8.085349E-09  4.936471E-06  5.057622E-15 -4.387826E-15 _shell_0000000810   
       810  12  4.718656E-05  9.000028E+00  1.554610E-07  5.795085E-06 -9.212053E-17 -6.141399E-15 _shell_0000000810   
       810  13  6.102935E-05  9.000030E+00 -5.999262E-08  6.719392E-06 -2.169426E-16 -5.627754E-22 _shell_0000000810   
       810  14  5.509104E-05  9.000029E+00 -1.081708E-07  7.957559E-06  3.442345E-21  1.119381E-16 _shell_0000000810   
       810  15  4.894968E-05  9.000027E+00  5.634412E-08  9.320141E-06 -1.079268E-15 -1.364434E-15 _shell_0000000810   
       810  16  6.347379E-05  9.000029E+00  7.578095E-08  9.244971E-06 -5.637551E-15  3.776984E-15 _shell_0000000810   
       810  17  5.771940E-05  9.000028E+00  8.195812E-09  1.098711E-05  2.150065E-15  2.239750E-15 _shell_0000000810   
       810  18  5.175035E-05  9.000027E+00  1.262249E-07  1.285365E-05 -7.537002E-16 -1.972823E-16 _shell_0000000810   
       810  19  5.949664E-05  9.000031E+00  4.506375E-08  4.230567E-06  4.133656E-08  2.809566E-08 _shell_0000000810   
       810  20  5.337754E-05  9.000030E+00 -7.699390E-09  4.968696E-06  1.182057E-08  3.225875E-08 _shell_0000000810   
       810  21  4.706700E-05  9.000028E+00  1.793097E-07  5.831239E-06 -1.769543E-08  2.481655E-08 _shell_0000000810   
       810  22  6.086973E-05  9.000030E+00 -8.012239E-08  6.755509E-06  4.612414E-08 -8.558727E-10 _shell_0000000810   
       810  23  5.495489E-05  9.000029E+00 -1.048379E-07  7.997605E-06  1.604466E-08  3.825363E-09 _shell_0000000810   
       810  24  4.883699E-05  9.000028E+00  8.313987E-08  9.364116E-06 -1.403480E-08 -3.098689E-09 _shell_0000000810   
       810  25  6.332105E-05  9.000029E+00  5.859813E-08  9.288908E-06  4.074290E-08 -2.980739E-08 _shell_0000000810   
       810  26  5.759012E-05  9.000029E+00  1.447581E-08  1.103497E-05  1.009996E-08 -2.460801E-08 _shell_0000000810   
       810  27  5.164454E-05  9.000027E+00  1.559677E-07  1.290545E-05 -2.054301E-08 -3.101393E-08 _shell_0000000810   
       811   1  4.222905E-05  9.000026E+00 -9.314109E-08  6.201626E-06  4.145526E-08 -2.269303E-08 _shell_0000000811   
       811   2  3.487975E-05  9.000021E+00  8.540392E-08  6.348486E-06 -2.449743E-08 -2.401028E-08 _shell_0000000811   
       811   3  2.637338E-05  9.000012E+00  1.376008E-07  6.520301E-06 -9.045011E-08 -1.553862E-08 _shell_0000000811   
       811   4  4.405217E-05  9.000026E+00 -1.989718E-07  9.953589E-06  3.307769E-08  3.569769E-09 _shell_0000000811   
       811   5  3.682796E-05  9.000021E+00  5.564454E-09  1.024380E-05 -2.942816E-08 -2.907893E-09 _shell_0000000811   
       811   6  2.843689E-05  9.000012E+00  6.091174E-08  1.055897E-05 -9.193398E-08  4.033335E-10 _shell_0000000811   
       811   7  4.709422E-05  9.000026E+00 -8.303706E-08  1.375123E-05  3.705170E-08  2.983258E-08 _shell_0000000811   
       811   8  3.997039E-05  9.000021E+00  8.984971E-08  1.418479E-05 -2.200731E-08  1.819449E-08 _shell_0000000811   
       811   9  3.166991E-05  9.000012E+00  9.070676E-08  1.464330E-05 -8.106631E-08  1.634530E-08 _shell_0000000811   
       811  10  4.250177E-05  9.000026E+00 -6.083733E-08  6.159613E-06  2.351330E-16 -1.527101E-15 _shell_0000000811   
       811  11  3.511888E-05  9.000021E+00  8.411119E-08  6.305387E-06 -2.485172E-15 -1.639038E-15 _shell_0000000811   
       811  12  2.657892E-05  9.000012E+00  1.027115E-07  6.476116E-06 -1.068004E-14 -1.572814E-15 _shell_0000000811   
       811  13  4.432300E-05  9.000026E+00 -1.674823E-07  9.900377E-06 -4.645530E-15 -1.247130E-15 _shell_0000000811   
       811  14  3.706519E-05  9.000021E+00  3.457448E-09  1.018950E-05 -6.922860E-15  2.351688E-15 _shell_0000000811   
       811  15  2.864052E-05  9.000012E+00  2.520818E-08  1.050358E-05 -7.193731E-15  9.746794E-16 _shell_0000000811   
       811  16  4.736315E-05  9.000025E+00 -5.236181E-08  1.368681E-05 -3.913493E-15 -1.934797E-16 _shell_0000000811   
       811  17  4.020572E-05  9.000021E+00  8.692842E-08  1.411929E-05 -5.491504E-15 -1.527100E-15 _shell_0000000811   
       811  18  3.187165E-05  9.000012E+00  5.418895E-08  1.457672E-05 -6.464567E-15 -1.889815E-15 _shell_0000000811   
       811  19  4.222905E-05  9.000026E+00 -9.314112E-08  6.201626E-06 -4.145525E-08  2.269304E-08 _shell_0000000811   
       811  20  3.487975E-05  9.000021E+00  8.540391E-08  6.348486E-06  2.449743E-08  2.401028E-08 _shell_0000000811   
       811  21  2.637338E-05  9.000012E+00  1.376007E-07  6.520301E-06  9.045009E-08  1.553863E-08 _shell_0000000811   
       811  22  4.405217E-05  9.000026E+00 -1.989718E-07  9.953589E-06 -3.307769E-08 -3.569782E-09 _shell_0000000811   
       811  23  3.682796E-05  9.000021E+00  5.564435E-09  1.024380E-05  2.942815E-08  2.907892E-09 _shell_0000000811   
       811  24  2.843689E-05  9.000012E+00  6.091169E-08  1.055897E-05  9.193398E-08 -4.033309E-10 _shell_0000000811   
       811  25  4.709422E-05  9.000026E+00 -8.303712E-08  1.375123E-05 -3.705172E-08 -2.983259E-08 _shell_0000000811   
       811  26  3.997039E-05  9.000021E+00  8.984969E-08  1.418479E-05  2.200730E-08 -1.819449E-08 _shell_0000000811   
       811  27  3.166991E-05  9.000012E+00  9.070675E-08  1.464330E-05  8.106630E-08 -1.634530E-08 _shell_0000000811   
       812   1  2.090456E-05  9.000005E+00 -2.771138E-07  6.310563E-06  1.669665E-07 -6.739156E-09 _shell_0000000812   
       812   2  1.541618E-05  8.999989E+00  2.104021E-07  5.404630E-06 -2.407293E-08 -1.034061E-09 _shell_0000000812   
       812   3  7.274874E-06  8.999965E+00 -2.116558E-07  4.393478E-06 -2.151124E-07 -1.042396E-08 _shell_0000000812   
       812   4  2.301222E-05  9.000005E+00 -3.389543E-07  1.021451E-05  1.606009E-07  4.811941E-09 _shell_0000000812   
       812   5  1.756466E-05  8.999989E+00  2.289210E-07  8.753471E-06 -3.015915E-08  5.883612E-10 _shell_0000000812   
       812   6  9.479279E-06  8.999966E+00 -7.755580E-08  7.187214E-06 -2.209192E-07 -1.873024E-08 _shell_0000000812   
       812   7  2.623991E-05  9.000006E+00 -3.375161E-07  1.420986E-05  1.617267E-07  1.636304E-08 _shell_0000000812   
       812   8  2.081819E-05  8.999990E+00  2.757580E-07  1.219372E-05 -2.875380E-08  2.210775E-09 _shell_0000000812   
       812   9  1.277375E-05  8.999967E+00  4.990162E-08  1.007236E-05 -2.192343E-07 -2.703650E-08 _shell_0000000812   
       812  10  2.127874E-05  9.000005E+00 -2.499755E-07  6.270959E-06 -1.137084E-14  3.054254E-16 _shell_0000000812   
       812  11  1.576233E-05  8.999988E+00  2.095146E-07  5.370896E-06 -9.120827E-15 -2.148077E-15 _shell_0000000812   
       812  12  7.592998E-06  8.999964E+00 -2.405690E-07  4.365615E-06 -3.248730E-15 -2.667215E-15 _shell_0000000812   
       812  13  2.339667E-05  9.000005E+00 -3.074133E-07  1.016556E-05 -6.007775E-15  4.327107E-16 _shell_0000000812   
       812  14  1.792108E-05  8.999989E+00  2.324362E-07  8.710395E-06 -9.366222E-15  1.333614E-15 _shell_0000000812   
       812  15  9.807675E-06  8.999965E+00 -1.020664E-07  7.150009E-06 -1.115695E-14 -1.265090E-15 _shell_0000000812   
       812  16  2.663463E-05  9.000005E+00 -3.015724E-07  1.415157E-05 -7.699136E-15  1.012847E-17 _shell_0000000812   
       812  17  2.118489E-05  8.999990E+00  2.836759E-07  1.214130E-05 -9.216554E-15  1.628904E-15 _shell_0000000812   
       812  18  1.311242E-05  8.999967E+00  2.979374E-08  1.002581E-05 -1.044413E-14 -1.062639E-15 _shell_0000000812   
       812  19  2.090456E-05  9.000005E+00 -2.771138E-07  6.310563E-06 -1.669666E-07  6.739169E-09 _shell_0000000812   
       812  20  1.541618E-05  8.999989E+00  2.104021E-07  5.404630E-06  2.407292E-08  1.034060E-09 _shell_0000000812   
       812  21  7.274874E-06  8.999965E+00 -2.116558E-07  4.393478E-06  2.151124E-07  1.042396E-08 _shell_0000000812   
       812  22  2.301222E-05  9.000005E+00 -3.389543E-07  1.021451E-05 -1.606009E-07 -4.811953E-09 _shell_0000000812   
       812  23  1.756466E-05  8.999989E+00  2.289210E-07  8.753471E-06  3.015913E-08 -5.883612E-10 _shell_0000000812   
       812  24  9.479279E-06  8.999966E+00 -7.755582E-08  7.187214E-06  2.209191E-07  1.873023E-08 _shell_0000000812   
       812  25  2.623991E-05  9.000006E+00 -3.375161E-07  1.420986E-05 -1.617267E-07 -1.636306E-08 _shell_0000000812   
       812  26  2.081819E-05  8.999990E+00  2.757580E-07  1.219372E-05  2.875377E-08 -2.210777E-09 _shell_0000000812   
       812  27  1.277375E-05  8.999967E+00  4.990164E-08  1.007236E-05  2.192343E-07  2.703650E-08 _shell_0000000812   
       813   1  4.115751E-06  8.999948E+00 -3.226372E-07  3.429246E-06  2.349696E-07  1.817903E-09 _shell_0000000813   
       813   2  3.255251E-06  8.999914E+00  4.007989E-07  2.048948E-06  1.669315E-08  3.217902E-08 _shell_0000000813   
       813   3 -9.638149E-07  8.999871E+00 -2.612978E-07  7.838095E-07 -2.015832E-07  1.476059E-08 _shell_0000000813   
       813   4  6.196147E-06  8.999949E+00 -2.730421E-07  5.683338E-06  2.428409E-07 -7.456145E-09 _shell_0000000813   
       813   5  5.290297E-06  8.999915E+00  2.717666E-07  3.352410E-06  2.119753E-08  2.950799E-08 _shell_0000000813   
       813   6  1.073661E-06  8.999871E+00 -4.574720E-07  1.136642E-06 -2.004458E-07  1.869256E-08 _shell_0000000813   
       813   7  9.182912E-06  8.999950E+00 -3.157543E-07  7.859666E-06  2.494785E-07 -1.673018E-08 _shell_0000000813   
       813   8  8.234180E-06  8.999916E+00  5.618427E-08  4.578108E-06  2.446819E-08  2.683695E-08 _shell_0000000813   
       813   9  4.022441E-06  8.999871E+00 -7.344388E-07  1.411710E-06 -2.005421E-07  2.262454E-08 _shell_0000000813   
       813  10  4.505988E-06  8.999948E+00 -3.236079E-07  3.426922E-06 -3.629824E-16  1.323499E-15 _shell_0000000813   
       813  11  3.655692E-06  8.999914E+00  4.100324E-07  2.062016E-06 -2.497311E-15  1.934954E-16 _shell_0000000813   
       813  12 -5.531690E-07  8.999870E+00 -2.418601E-07  8.122700E-07 -1.233441E-14  6.924296E-16 _shell_0000000813   
       813  13  6.613321E-06  8.999949E+00 -2.624687E-07  5.684415E-06 -6.248988E-15 -2.036103E-15 _shell_0000000813   
       813  14  5.717675E-06  8.999915E+00  2.925442E-07  3.368880E-06 -2.634835E-15  3.970834E-15 _shell_0000000813   
       813  15  1.511243E-06  8.999871E+00 -4.264902E-07  1.168504E-06 -2.661476E-15  8.226057E-15 _shell_0000000813   
       813  16  9.627022E-06  8.999950E+00 -2.936367E-07  7.864145E-06 -7.496114E-15 -2.025971E-15 _shell_0000000813   
       813  17  8.688494E-06  8.999915E+00  8.850599E-08  4.597980E-06 -3.654227E-16  2.341522E-15 _shell_0000000813   
       813  18  4.486959E-06  8.999871E+00 -6.919129E-07  1.446974E-06  5.752852E-15  1.093783E-14 _shell_0000000813   
       813  19  4.115751E-06  8.999948E+00 -3.226372E-07  3.429246E-06 -2.349696E-07 -1.817887E-09 _shell_0000000813   
       813  20  3.255251E-06  8.999914E+00  4.007989E-07  2.048948E-06 -1.669317E-08 -3.217902E-08 _shell_0000000813   
       813  21 -9.638150E-07  8.999871E+00 -2.612978E-07  7.838094E-07  2.015832E-07 -1.476059E-08 _shell_0000000813   
       813  22  6.196147E-06  8.999949E+00 -2.730420E-07  5.683338E-06 -2.428409E-07  7.456128E-09 _shell_0000000813   
       813  23  5.290297E-06  8.999915E+00  2.717666E-07  3.352410E-06 -2.119756E-08 -2.950799E-08 _shell_0000000813   
       813  24  1.073661E-06  8.999871E+00 -4.574720E-07  1.136642E-06  2.004458E-07 -1.869254E-08 _shell_0000000813   
       813  25  9.182912E-06  8.999950E+00 -3.157543E-07  7.859666E-06 -2.494785E-07  1.673016E-08 _shell_0000000813   
       813  26  8.234180E-06  8.999916E+00  5.618428E-08  4.578108E-06 -2.446820E-08 -2.683695E-08 _shell_0000000813   
       813  27  4.022441E-06  8.999871E+00 -7.344388E-07  1.411710E-06  2.005421E-07 -2.262451E-08 _shell_0000000813   
       814   1 -5.261135E-07  8.999842E+00  8.339355E-08  2.993639E-07  1.347587E-07 -1.752304E-08 _shell_0000000814   
       814   2 -2.072111E-07  8.999790E+00 -4.388896E-08  1.349796E-07  1.646886E-08 -5.598169E-08 _shell_0000000814   
       814   3 -1.184809E-06  8.999733E+00 -1.427826E-07 -1.870475E-07 -1.018211E-07 -5.691289E-08 _shell_0000000814   
       814   4  1.927903E-06  8.999843E+00  1.221409E-07  3.312060E-07  1.197301E-07 -8.933695E-09 _shell_0000000814   
       814   5  2.032857E-06  8.999790E+00  6.029580E-08  4.191608E-07  3.345761E-08 -3.799026E-08 _shell_0000000814   
       814   6  8.037844E-07  8.999733E+00 -6.072452E-08  3.494727E-07 -5.281492E-08 -2.951938E-08 _shell_0000000814   
       814   7  5.917863E-06  8.999844E+00  3.589962E-07  3.532548E-07  9.583399E-08 -3.443396E-10 _shell_0000000814   
       814   8  5.826604E-06  8.999791E+00  4.039703E-07  6.935486E-07  4.157882E-08 -1.999883E-08 _shell_0000000814   
       814   9  4.363791E-06  8.999734E+00  3.022053E-07  8.761996E-07 -1.267636E-08 -2.125857E-09 _shell_0000000814   
       814  10 -2.913905E-07  8.999842E+00  3.420901E-08  3.458616E-07 -1.044249E-14  2.341602E-15 _shell_0000000814   
       814  11  5.804124E-08  8.999790E+00 -6.254413E-08  1.914176E-07 -8.443925E-15 -2.453442E-15 _shell_0000000814   
       814  12 -8.890271E-07  8.999733E+00 -1.309085E-07 -1.206693E-07 -9.197792E-15 -1.674520E-15 _shell_0000000814   
       814  13  2.180021E-06  8.999842E+00  8.041161E-08  3.878802E-07 -8.169999E-15  6.525411E-15 _shell_0000000814   
       814  14  2.315505E-06  8.999790E+00  4.909581E-08  4.857752E-07 -9.174713E-15  9.263061E-16 _shell_0000000814   
       814  15  1.116961E-06  8.999733E+00 -4.139521E-08  4.260274E-07 -4.088637E-15  4.227618E-15 _shell_0000000814   
       814  16  6.187377E-06  8.999843E+00  3.247220E-07  4.201055E-07  7.012576E-15  9.172651E-15 _shell_0000000814   
       814  17  6.126647E-06  8.999791E+00  4.002255E-07  7.703395E-07  5.862974E-15  5.008278E-20 _shell_0000000814   
       814  18  4.694363E-06  8.999733E+00  3.289898E-07  9.629308E-07 -1.051987E-14  7.425430E-15 _shell_0000000814   
       814  19 -5.261134E-07  8.999842E+00  8.339359E-08  2.993639E-07 -1.347588E-07  1.752306E-08 _shell_0000000814   
       814  20 -2.072111E-07  8.999790E+00 -4.388895E-08  1.349796E-07 -1.646886E-08  5.598169E-08 _shell_0000000814   
       814  21 -1.184809E-06  8.999733E+00 -1.427826E-07 -1.870475E-07  1.018210E-07  5.691289E-08 _shell_0000000814   
       814  22  1.927903E-06  8.999843E+00  1.221410E-07  3.312060E-07 -1.197302E-07  8.933695E-09 _shell_0000000814   
       814  23  2.032857E-06  8.999790E+00  6.029580E-08  4.191608E-07 -3.345763E-08  3.799026E-08 _shell_0000000814   
       814  24  8.037843E-07  8.999733E+00 -6.072454E-08  3.494727E-07  5.281491E-08  2.951939E-08 _shell_0000000814   
       814  25  5.917863E-06  8.999844E+00  3.589961E-07  3.532548E-07 -9.583398E-08  3.443454E-10 _shell_0000000814   
       814  26  5.826604E-06  8.999791E+00  4.039703E-07  6.935487E-07 -4.157880E-08  1.999883E-08 _shell_0000000814   
       814  27  4.363791E-06  8.999734E+00  3.022053E-07  8.761996E-07  1.267634E-08  2.125882E-09 _shell_0000000814   
       815   1 -1.025227E-06  8.999698E+00  9.123033E-08 -4.819198E-07  6.408329E-08  1.150291E-08 _shell_0000000815   
       815   2 -2.327807E-07  8.999636E+00  2.584408E-07 -4.146449E-07  1.249897E-08  6.338256E-08 _shell_0000000815   
       815   3 -8.265990E-07  8.999570E+00 -2.373962E-07 -9.098068E-07 -3.908535E-08 -1.325125E-07 _shell_0000000815   
       815   4  2.901995E-07  8.999698E+00 -1.179497E-07  8.614032E-09  1.570770E-07  3.559222E-08 _shell_0000000815   
       815   5  2.896472E-07  8.999636E+00 -3.487028E-08 -2.383977E-07  3.518331E-08  6.671502E-08 _shell_0000000815   
       815   6 -8.493953E-07  8.999569E+00 -3.669717E-08 -1.047846E-06 -8.671039E-08 -1.499370E-07 _shell_0000000815   
       815   7  2.003855E-06  8.999698E+00 -4.932835E-07  5.262953E-07  2.086309E-07  5.968154E-08 _shell_0000000815   
       815   8  1.293183E-06  8.999635E+00 -3.009492E-07 -3.500309E-08  1.642787E-08  7.004746E-08 _shell_0000000815   
       815   9 -3.082039E-07  8.999569E+00  3.846198E-07 -1.158738E-06 -1.757752E-07 -1.673614E-07 _shell_0000000815   
       815  10 -9.088086E-07  8.999698E+00  4.293222E-08 -3.723499E-07 -8.691114E-15  1.018034E-15 _shell_0000000815   
       815  11 -4.647406E-08  8.999636E+00  2.800308E-07 -2.648915E-07 -4.994589E-15 -2.046221E-15 _shell_0000000815   
       815  12 -5.704043E-07  8.999570E+00 -1.459182E-07 -7.198699E-07 -4.343211E-15  4.663030E-15 _shell_0000000815   
       815  13  4.769392E-07  8.999698E+00 -1.361102E-07  1.414799E-07 -2.826432E-15  3.665159E-15 _shell_0000000815   
       815  14  5.462750E-07  8.999636E+00  1.685737E-08 -6.534829E-08 -4.886715E-15  1.546934E-15 _shell_0000000815   
       815  15 -5.228794E-07  8.999569E+00  8.491855E-08 -8.346134E-07 -1.556307E-14  6.018899E-15 _shell_0000000815   
       815  16  2.260916E-06  8.999698E+00 -4.813063E-07  6.824573E-07 -1.061939E-14  9.681689E-15 _shell_0000000815   
       815  17  1.620132E-06  8.999635E+00 -2.190839E-07  1.613424E-07 -2.443364E-15  2.646978E-15 _shell_0000000815   
       815  18  8.863316E-08  8.999570E+00  5.363732E-07 -9.222094E-07 -3.206152E-15  4.383984E-15 _shell_0000000815   
       815  19 -1.025227E-06  8.999698E+00  9.123034E-08 -4.819198E-07 -6.408330E-08 -1.150289E-08 _shell_0000000815   
       815  20 -2.327807E-07  8.999636E+00  2.584408E-07 -4.146449E-07 -1.249899E-08 -6.338256E-08 _shell_0000000815   
       815  21 -8.265991E-07  8.999570E+00 -2.373963E-07 -9.098069E-07  3.908534E-08  1.325125E-07 _shell_0000000815   
       815  22  2.901996E-07  8.999698E+00 -1.179497E-07  8.614020E-09 -1.570770E-07 -3.559222E-08 _shell_0000000815   
       815  23  2.896472E-07  8.999636E+00 -3.487028E-08 -2.383977E-07 -3.518332E-08 -6.671502E-08 _shell_0000000815   
       815  24 -8.493953E-07  8.999569E+00 -3.669719E-08 -1.047846E-06  8.671035E-08  1.499370E-07 _shell_0000000815   
       815  25  2.003855E-06  8.999698E+00 -4.932835E-07  5.262953E-07 -2.086309E-07 -5.968154E-08 _shell_0000000815   
       815  26  1.293183E-06  8.999635E+00 -3.009492E-07 -3.500307E-08 -1.642788E-08 -7.004746E-08 _shell_0000000815   
       815  27 -3.082039E-07  8.999569E+00  3.846198E-07 -1.158738E-06  1.757752E-07  1.673614E-07 _shell_0000000815   
       901   1 -1.465425E-06  8.999567E+00 -6.045868E-07  1.515305E-06  1.631346E-07 -2.188390E-07 _shell_0000000901   
       901   2  3.265055E-06  8.999638E+00  7.833238E-07 -8.333327E-07 -2.383507E-10  7.654104E-08 _shell_0000000901   
       901   3  4.214883E-06  8.999699E+00  3.463969E-09 -1.490350E-06 -1.636113E-07  2.965333E-08 _shell_0000000901   
       901   4 -1.108733E-06  8.999569E+00 -1.023312E-07  3.910047E-07  3.229555E-09 -3.156081E-07 _shell_0000000901   
       901   5  4.972133E-06  8.999638E+00  2.311662E-07 -2.774411E-06  9.240423E-09  5.360556E-08 _shell_0000000901   
       901   6  7.614614E-06  8.999698E+00 -8.044821E-07 -4.248207E-06  1.525128E-08  8.055147E-08 _shell_0000000901   
       901   7  4.660723E-07  8.999571E+00  4.199899E-07 -1.091651E-06 -1.576849E-07 -4.123772E-07 _shell_0000000901   
       901   8  7.899343E-06  8.999639E+00 -2.962156E-07 -5.073845E-06  1.770983E-08  3.067010E-08 _shell_0000000901   
       901   9  1.223650E-05  8.999697E+00 -1.582942E-06 -7.364419E-06  1.931045E-07  1.314497E-07 _shell_0000000901   
       901  10 -1.291361E-06  8.999566E+00 -7.616160E-07  1.040427E-06  3.091285E-14 -1.852634E-15 _shell_0000000901   
       901  11  3.524453E-06  8.999638E+00  7.116287E-07 -1.052822E-06  1.797572E-14 -5.471834E-15 _shell_0000000901   
       901  12  4.559615E-06  8.999699E+00  1.710268E-08 -1.454452E-06  4.657953E-15 -4.963092E-15 _shell_0000000901   
       901  13 -4.877396E-07  8.999568E+00 -6.781909E-08 -5.542862E-08  2.761499E-14 -3.650278E-15 _shell_0000000901   
       901  14  5.678460E-06  8.999638E+00  3.510123E-07 -2.965456E-06  1.297363E-14  5.293959E-15 _shell_0000000901   
       901  15  8.406276E-06  8.999698E+00 -5.993021E-07 -4.183864E-06  1.589893E-15  2.779022E-15 _shell_0000000901   
       901  16  1.533995E-06  8.999570E+00  6.460431E-07 -1.509639E-06  2.373712E-14 -2.678526E-14 _shell_0000000901   
       901  17  9.052600E-06  8.999638E+00  1.517158E-08 -5.236445E-06  9.481503E-15  7.182407E-15 _shell_0000000901   
       901  18  1.347509E-05  8.999697E+00 -1.186221E-06 -7.271631E-06  6.684812E-16 -3.854679E-15 _shell_0000000901   
       901  19 -1.465426E-06  8.999567E+00 -6.045869E-07  1.515305E-06 -1.631346E-07  2.188390E-07 _shell_0000000901   
       901  20  3.265055E-06  8.999638E+00  7.833238E-07 -8.333327E-07  2.384029E-10 -7.654104E-08 _shell_0000000901   
       901  21  4.214883E-06  8.999699E+00  3.463932E-09 -1.490350E-06  1.636113E-07 -2.965332E-08 _shell_0000000901   
       901  22 -1.108734E-06  8.999569E+00 -1.023313E-07  3.910048E-07 -3.229512E-09  3.156081E-07 _shell_0000000901   
       901  23  4.972133E-06  8.999638E+00  2.311662E-07 -2.774411E-06 -9.240391E-09 -5.360556E-08 _shell_0000000901   
       901  24  7.614614E-06  8.999698E+00 -8.044821E-07 -4.248207E-06 -1.525127E-08 -8.055147E-08 _shell_0000000901   
       901  25  4.660721E-07  8.999571E+00  4.199897E-07 -1.091651E-06  1.576849E-07  4.123772E-07 _shell_0000000901   
       901  26  7.899343E-06  8.999639E+00 -2.962157E-07 -5.073845E-06 -1.770983E-08 -3.067010E-08 _shell_0000000901   
       901  27  1.223650E-05  8.999697E+00 -1.582942E-06 -7.364419E-06 -1.931045E-07 -1.314496E-07 _shell_0000000901   
       902   1  6.672595E-06  8.999733E+00  1.102621E-07 -1.310448E-06  6.807434E-08 -8.268363E-08 _shell_0000000902   
       902   2  7.496788E-06  8.999789E+00 -4.492202E-07 -6.889384E-07 -7.371610E-09 -1.296165E-07 _shell_0000000902   
       902   3  8.445874E-06  8.999844E+00  2.835959E-07 -3.426465E-07 -8.281753E-08 -6.610500E-08 _shell_0000000902   
       902   4  1.260423E-05  8.999732E+00  3.027757E-07 -3.185337E-06  2.932000E-07 -1.446462E-08 _shell_0000000902   
       902   5  1.333063E-05  8.999789E+00 -1.648894E-07 -1.338693E-06  1.129146E-07 -7.570813E-08 _shell_0000000902   
       902   6  1.407148E-05  8.999844E+00  4.020404E-07  2.327325E-07 -6.737077E-08 -2.650730E-08 _shell_0000000902   
       902   7  2.085851E-05  8.999732E+00  9.969590E-07 -4.910877E-06  5.188463E-07  5.375442E-08 _shell_0000000902   
       902   8  2.148608E-05  8.999790E+00  6.186811E-07 -1.839099E-06  2.337215E-07 -2.179974E-08 _shell_0000000902   
       902   9  2.201765E-05  8.999846E+00  1.017295E-06  9.574605E-07 -5.140329E-08  1.309045E-08 _shell_0000000902   
       902  10  6.933278E-06  8.999733E+00  9.919748E-08 -1.186455E-06 -5.217059E-16 -7.553872E-15 _shell_0000000902   
       902  11  7.740200E-06  8.999788E+00 -4.775558E-07 -6.849919E-07  3.766098E-16 -5.471904E-15 _shell_0000000902   
       902  12  8.672015E-06  8.999843E+00  2.379891E-07 -4.587463E-07  1.998418E-14 -1.145331E-15 _shell_0000000902   
       902  13  1.265483E-05  8.999732E+00  2.016764E-07 -3.067101E-06  1.783024E-15  2.865458E-15 _shell_0000000902   
       902  14  1.336396E-05  8.999788E+00 -2.832597E-07 -1.340504E-06  3.257819E-15 -2.036137E-15 _shell_0000000902   
       902  15  1.408754E-05  8.999844E+00  2.663990E-07  1.108757E-07  1.331792E-14 -3.012398E-15 _shell_0000000902   
       902  16  2.069903E-05  8.999732E+00  8.058251E-07 -4.798398E-06  1.412597E-15 -1.029257E-14 _shell_0000000902   
       902  17  2.130933E-05  8.999789E+00  4.102761E-07 -1.846667E-06  2.412671E-15 -2.896460E-15 _shell_0000000902   
       902  18  2.182363E-05  8.999845E+00  7.916186E-07  8.298467E-07  2.956058E-15 -1.128658E-14 _shell_0000000902   
       902  19  6.672595E-06  8.999733E+00  1.102621E-07 -1.310448E-06 -6.807434E-08  8.268364E-08 _shell_0000000902   
       902  20  7.496788E-06  8.999789E+00 -4.492201E-07 -6.889384E-07  7.371606E-09  1.296165E-07 _shell_0000000902   
       902  21  8.445874E-06  8.999844E+00  2.835959E-07 -3.426466E-07  8.281757E-08  6.610501E-08 _shell_0000000902   
       902  22  1.260423E-05  8.999732E+00  3.027756E-07 -3.185337E-06 -2.932000E-07  1.446462E-08 _shell_0000000902   
       902  23  1.333063E-05  8.999789E+00 -1.648894E-07 -1.338693E-06 -1.129146E-07  7.570811E-08 _shell_0000000902   
       902  24  1.407148E-05  8.999844E+00  4.020404E-07  2.327325E-07  6.737080E-08  2.650728E-08 _shell_0000000902   
       902  25  2.085851E-05  8.999732E+00  9.969590E-07 -4.910877E-06 -5.188463E-07 -5.375444E-08 _shell_0000000902   
       902  26  2.148608E-05  8.999790E+00  6.186811E-07 -1.839099E-06 -2.337215E-07  2.179974E-08 _shell_0000000902   
       902  27  2.201765E-05  8.999846E+00  1.017295E-06  9.574604E-07  5.140329E-08 -1.309046E-08 _shell_0000000902   
       903   1  6.905650E-06  8.999873E+00 -2.735446E-07 -1.686631E-06  1.901521E-07  1.644233E-08 _shell_0000000903   
       903   2  1.119665E-05  8.999918E+00  6.534734E-07 -5.260967E-06 -3.310349E-08  7.743808E-08 _shell_0000000903   
       903   3  1.130718E-05  8.999951E+00 -4.281875E-07 -9.108523E-06 -2.563591E-07  2.299287E-09 _shell_0000000903   
       903   4  1.166469E-05  8.999874E+00 -6.181123E-07 -1.516794E-06  1.572305E-07  4.506006E-08 _shell_0000000903   
       903   5  1.585519E-05  8.999920E+00  3.307662E-07 -6.380816E-06 -5.662823E-08  8.263381E-08 _shell_0000000903   
       903   6  1.600134E-05  8.999954E+00 -4.113870E-07 -1.151806E-05 -2.704869E-07 -1.592700E-08 _shell_0000000903   
       903   7  1.729064E-05  8.999875E+00 -1.095757E-06 -1.183366E-06  1.300038E-07  7.367783E-08 _shell_0000000903   
       903   8  2.136925E-05  8.999922E+00 -1.515951E-07 -7.337074E-06 -7.445798E-08  8.782956E-08 _shell_0000000903   
       903   9  2.153963E-05  8.999957E+00 -5.808172E-07 -1.376400E-05 -2.789197E-07 -3.415325E-08 _shell_0000000903   
       903  10  7.415721E-06  8.999873E+00 -2.068512E-07 -1.796694E-06  2.223135E-14 -2.463574E-15 _shell_0000000903   
       903  11  1.166756E-05  8.999918E+00  6.810034E-07 -5.312932E-06  9.577312E-15 -6.286380E-15 _shell_0000000903   
       903  12  1.173892E-05  8.999951E+00 -4.398211E-07 -9.102389E-06  9.485819E-15 -1.720536E-14 _shell_0000000903   
       903  13  1.227644E-05  8.999874E+00 -5.078453E-07 -1.639911E-06  1.354326E-14  2.891001E-15 _shell_0000000903   
       903  14  1.642777E-05  8.999919E+00  4.018698E-07 -6.445834E-06  1.710355E-14  8.144548E-16 _shell_0000000903   
       903  15  1.653476E-05  8.999953E+00 -3.794470E-07 -1.152498E-05  1.681004E-14 -1.768403E-14 _shell_0000000903   
       903  16  1.800406E-05  8.999875E+00 -9.419169E-07 -1.319538E-06  6.758209E-15 -6.220329E-15 _shell_0000000903   
       903  17  2.204350E-05  8.999921E+00 -3.691801E-08 -7.415148E-06  1.271978E-14  7.080673E-15 _shell_0000000903   
       903  18  2.217472E-05  8.999956E+00 -5.053035E-07 -1.378398E-05  2.052031E-14 -2.645582E-14 _shell_0000000903   
       903  19  6.905650E-06  8.999873E+00 -2.735446E-07 -1.686631E-06 -1.901521E-07 -1.644230E-08 _shell_0000000903   
       903  20  1.119665E-05  8.999918E+00  6.534735E-07 -5.260967E-06  3.310350E-08 -7.743808E-08 _shell_0000000903   
       903  21  1.130718E-05  8.999951E+00 -4.281876E-07 -9.108523E-06  2.563591E-07 -2.299309E-09 _shell_0000000903   
       903  22  1.166469E-05  8.999874E+00 -6.181123E-07 -1.516794E-06 -1.572304E-07 -4.506005E-08 _shell_0000000903   
       903  23  1.585519E-05  8.999920E+00  3.307663E-07 -6.380816E-06  5.662826E-08 -8.263381E-08 _shell_0000000903   
       903  24  1.600134E-05  8.999954E+00 -4.113870E-07 -1.151806E-05  2.704869E-07  1.592696E-08 _shell_0000000903   
       903  25  1.729064E-05  8.999875E+00 -1.095757E-06 -1.183366E-06 -1.300038E-07 -7.367783E-08 _shell_0000000903   
       903  26  2.136925E-05  8.999922E+00 -1.515951E-07 -7.337074E-06  7.445800E-08 -8.782955E-08 _shell_0000000903   
       903  27  2.153963E-05  8.999957E+00 -5.808172E-07 -1.376400E-05  2.789198E-07  3.415323E-08 _shell_0000000903   
       904   1  1.473647E-05  8.999968E+00 -2.895608E-07 -1.171007E-05  2.243998E-07 -3.313786E-08 _shell_0000000904   
       904   2  2.303835E-05  8.999991E+00  1.552656E-07 -1.424911E-05  3.324413E-08 -7.796870E-09 _shell_0000000904   
       904   3  2.871238E-05  9.000006E+00 -2.287473E-07 -1.657966E-05 -1.579115E-07 -7.076919E-09 _shell_0000000904   
       904   4  1.991773E-05  8.999970E+00  1.856889E-08 -1.465738E-05  2.403918E-07 -5.240350E-08 _shell_0000000904   
       904   5  2.805466E-05  8.999992E+00  2.151136E-07 -1.760407E-05  4.663649E-08 -7.212210E-09 _shell_0000000904   
       904   6  3.358837E-05  9.000007E+00 -3.597320E-07 -2.034226E-05 -1.471188E-07  1.335802E-08 _shell_0000000904   
       904   7  2.642205E-05  8.999973E+00  3.536265E-07 -1.781258E-05  2.435566E-07 -7.166910E-08 _shell_0000000904   
       904   8  3.441968E-05  8.999994E+00  3.617491E-07 -2.116691E-05  4.720177E-08 -6.627516E-09 _shell_0000000904   
       904   9  3.983871E-05  9.000007E+00 -3.440693E-07 -2.431276E-05 -1.491531E-07  3.379300E-08 _shell_0000000904   
       904  10  1.503036E-05  8.999967E+00 -3.582737E-07 -1.162760E-05  9.630473E-15 -2.119606E-14 _shell_0000000904   
       904  11  2.338344E-05  8.999990E+00  1.377454E-07 -1.415935E-05  3.903084E-15 -7.202688E-15 _shell_0000000904   
       904  12  2.910866E-05  9.000006E+00 -1.950751E-07 -1.648262E-05 -3.879195E-15  5.701192E-15 _shell_0000000904   
       904  13  2.022437E-05  8.999970E+00 -4.468154E-08 -1.455785E-05  1.744042E-14 -1.665829E-14 _shell_0000000904   
       904  14  2.841249E-05  8.999992E+00  2.030557E-07 -1.749725E-05  4.425564E-15  2.013138E-15 _shell_0000000904   
       904  15  3.399739E-05  9.000006E+00 -3.205974E-07 -2.022816E-05 -2.965924E-15  6.927800E-15 _shell_0000000904   
       904  16  2.674143E-05  8.999973E+00  2.958384E-07 -1.769598E-05  1.493866E-14 -2.882146E-14 _shell_0000000904   
       904  17  3.479026E-05  8.999994E+00  3.551536E-07 -2.104303E-05 -7.531076E-16  6.877032E-15 _shell_0000000904   
       904  18  4.026047E-05  9.000007E+00 -2.994723E-07 -2.418159E-05 -5.313006E-15 -1.284055E-15 _shell_0000000904   
       904  19  1.473647E-05  8.999968E+00 -2.895608E-07 -1.171007E-05 -2.243998E-07  3.313785E-08 _shell_0000000904   
       904  20  2.303835E-05  8.999991E+00  1.552656E-07 -1.424911E-05 -3.324411E-08  7.796867E-09 _shell_0000000904   
       904  21  2.871238E-05  9.000006E+00 -2.287473E-07 -1.657966E-05  1.579115E-07  7.076938E-09 _shell_0000000904   
       904  22  1.991773E-05  8.999970E+00  1.856884E-08 -1.465738E-05 -2.403917E-07  5.240346E-08 _shell_0000000904   
       904  23  2.805466E-05  8.999992E+00  2.151136E-07 -1.760407E-05 -4.663649E-08  7.212197E-09 _shell_0000000904   
       904  24  3.358837E-05  9.000007E+00 -3.597320E-07 -2.034226E-05  1.471188E-07 -1.335802E-08 _shell_0000000904   
       904  25  2.642205E-05  8.999973E+00  3.536265E-07 -1.781258E-05 -2.435566E-07  7.166904E-08 _shell_0000000904   
       904  26  3.441968E-05  8.999994E+00  3.617491E-07 -2.116691E-05 -4.720177E-08  6.627528E-09 _shell_0000000904   
       904  27  3.983871E-05  9.000007E+00 -3.440694E-07 -2.431276E-05  1.491531E-07 -3.379298E-08 _shell_0000000904   
       905   1  3.415496E-05  9.000013E+00  2.161837E-07 -1.704340E-05  7.730182E-08 -2.020800E-08 _shell_0000000905   
       905   2  4.217555E-05  9.000021E+00  6.788729E-08 -1.643751E-05  2.190733E-08 -3.321383E-08 _shell_0000000905   
       905   3  4.921420E-05  9.000025E+00 -7.172055E-08 -1.594604E-05 -3.348719E-08 -1.996676E-08 _shell_0000000905   
       905   4  3.894994E-05  9.000013E+00  7.768851E-08 -2.088911E-05  7.274996E-08  6.082133E-09 _shell_0000000905   
       905   5  4.669919E-05  9.000020E+00 -2.525813E-08 -2.003882E-05  2.650161E-08 -6.652639E-09 _shell_0000000905   
       905   6  5.344025E-05  9.000024E+00 -1.807729E-07 -1.930296E-05 -1.974675E-08  6.865478E-09 _shell_0000000905   
       905   7  4.496345E-05  9.000013E+00  5.123744E-08 -2.480908E-05  5.199996E-08  3.237232E-08 _shell_0000000905   
       905   8  5.247376E-05  9.000020E+00  6.923181E-08 -2.371440E-05  1.489775E-08  1.990858E-08 _shell_0000000905   
       905   9  5.894963E-05  9.000024E+00 -2.659866E-08 -2.273415E-05 -2.220446E-08  3.369775E-08 _shell_0000000905   
       905  10  3.435714E-05  9.000013E+00  1.812945E-07 -1.693907E-05 -3.081148E-15 -6.310986E-16 _shell_0000000905   
       905  11  4.241448E-05  9.000020E+00  6.974888E-08 -1.633616E-05  2.700941E-15 -4.962958E-15 _shell_0000000905   
       905  12  4.948988E-05  9.000025E+00 -3.310826E-08 -1.584768E-05  2.512300E-15  8.704482E-15 _shell_0000000905   
       905  13  3.914689E-05  9.000012E+00  4.056042E-08 -2.077253E-05 -8.399571E-16  4.515126E-15 _shell_0000000905   
       905  14  4.693289E-05  9.000020E+00 -2.563547E-08 -1.992523E-05  4.126209E-15  3.563220E-16 _shell_0000000905   
       905  15  5.371071E-05  9.000024E+00 -1.443996E-07 -1.919235E-05  4.680056E-15  1.000991E-14 _shell_0000000905   
       905  16  4.515518E-05  9.000013E+00  1.187039E-08 -2.468025E-05 -2.303367E-15 -8.052870E-15 _shell_0000000905   
       905  17  5.270224E-05  9.000020E+00  6.661549E-08 -2.358856E-05  5.266983E-15 -4.530648E-16 _shell_0000000905   
       905  18  5.921486E-05  9.000023E+00  7.535840E-09 -2.261129E-05  6.741749E-15 -3.423343E-16 _shell_0000000905   
       905  19  3.415496E-05  9.000013E+00  2.161837E-07 -1.704340E-05 -7.730182E-08  2.020803E-08 _shell_0000000905   
       905  20  4.217555E-05  9.000021E+00  6.788733E-08 -1.643751E-05 -2.190732E-08  3.321383E-08 _shell_0000000905   
       905  21  4.921420E-05  9.000025E+00 -7.172056E-08 -1.594604E-05  3.348719E-08  1.996679E-08 _shell_0000000905   
       905  22  3.894994E-05  9.000013E+00  7.768850E-08 -2.088911E-05 -7.274996E-08 -6.082132E-09 _shell_0000000905   
       905  23  4.669919E-05  9.000020E+00 -2.525812E-08 -2.003882E-05 -2.650159E-08  6.652630E-09 _shell_0000000905   
       905  24  5.344025E-05  9.000024E+00 -1.807730E-07 -1.930296E-05  1.974676E-08 -6.865467E-09 _shell_0000000905   
       905  25  4.496345E-05  9.000013E+00  5.123743E-08 -2.480908E-05 -5.199996E-08 -3.237233E-08 _shell_0000000905   
       905  26  5.247376E-05  9.000020E+00  6.923181E-08 -2.371440E-05 -1.489775E-08 -1.990858E-08 _shell_0000000905   
       905  27  5.894963E-05  9.000024E+00 -2.659869E-08 -2.273415E-05  2.220447E-08 -3.369773E-08 _shell_0000000905   
       906   1  5.367690E-05  9.000027E+00  1.755707E-07 -1.493557E-05 -2.130344E-08 -1.983212E-08 _shell_0000000906   
       906   2  5.937579E-05  9.000028E+00 -2.137679E-08 -1.268852E-05  9.664258E-09 -3.419846E-08 _shell_0000000906   
       906   3  6.495273E-05  9.000029E+00  4.624986E-08 -1.073159E-05  4.063196E-08 -2.476263E-08 _shell_0000000906   
       906   4  5.771401E-05  9.000026E+00  7.547774E-08 -1.804791E-05 -1.797547E-08  6.937817E-09 _shell_0000000906   
       906   5  6.299387E-05  9.000027E+00 -1.006260E-07 -1.531875E-05  1.354474E-08 -7.913677E-09 _shell_0000000906   
       906   6  6.812797E-05  9.000027E+00 -6.769397E-08 -1.287972E-05  4.506496E-08  1.036968E-09 _shell_0000000906   
       906   7  6.270035E-05  9.000025E+00  1.256271E-07 -2.116813E-05 -2.569467E-08  3.370779E-08 _shell_0000000906   
       906   8  6.758326E-05  9.000025E+00  2.192042E-08 -1.795687E-05  6.378063E-09  1.837114E-08 _shell_0000000906   
       906   9  7.229661E-05  9.000026E+00  7.171136E-08 -1.503574E-05  3.845080E-08  2.683661E-08 _shell_0000000906   
       906  10  5.378637E-05  9.000027E+00  1.531027E-07 -1.485390E-05 -2.387451E-16  5.070081E-15 _shell_0000000906   
       906  11  5.950957E-05  9.000028E+00 -1.953437E-08 -1.261536E-05 -3.242956E-15 -5.777414E-15 _shell_0000000906   
       906  12  6.511082E-05  9.000028E+00  7.240256E-08 -1.066694E-05 -7.927905E-16  4.072271E-16 _shell_0000000906   
       906  13  5.780859E-05  9.000025E+00  4.662625E-08 -1.795814E-05  1.679781E-15  1.103566E-14 _shell_0000000906   
       906  14  6.311275E-05  9.000026E+00 -1.051672E-07 -1.523749E-05 -1.628910E-15 -1.198677E-15 _shell_0000000906   
       906  15  6.827116E-05  9.000027E+00 -4.792482E-08 -1.280697E-05  9.132172E-16 -8.417131E-15 _shell_0000000906   
       906  16  6.278003E-05  9.000024E+00  9.039198E-08 -2.107026E-05  2.739096E-15 -5.191644E-16 _shell_0000000906   
       906  17  6.768725E-05  9.000025E+00  1.099567E-08 -1.786751E-05 -5.778215E-16  8.704243E-16 _shell_0000000906   
       906  18  7.242491E-05  9.000026E+00  8.509702E-08 -1.495488E-05  9.199740E-16 -1.953292E-14 _shell_0000000906   
       906  19  5.367690E-05  9.000027E+00  1.755707E-07 -1.493557E-05  2.130344E-08  1.983216E-08 _shell_0000000906   
       906  20  5.937579E-05  9.000028E+00 -2.137678E-08 -1.268852E-05 -9.664265E-09  3.419844E-08 _shell_0000000906   
       906  21  6.495273E-05  9.000029E+00  4.624979E-08 -1.073159E-05 -4.063196E-08  2.476264E-08 _shell_0000000906   
       906  22  5.771401E-05  9.000026E+00  7.547771E-08 -1.804791E-05  1.797547E-08 -6.937793E-09 _shell_0000000906   
       906  23  6.299387E-05  9.000027E+00 -1.006260E-07 -1.531875E-05 -1.354475E-08  7.913656E-09 _shell_0000000906   
       906  24  6.812797E-05  9.000027E+00 -6.769401E-08 -1.287972E-05 -4.506497E-08 -1.036998E-09 _shell_0000000906   
       906  25  6.270035E-05  9.000025E+00  1.256270E-07 -2.116813E-05  2.569468E-08 -3.370778E-08 _shell_0000000906   
       906  26  6.758326E-05  9.000025E+00  2.192045E-08 -1.795687E-05 -6.378070E-09 -1.837113E-08 _shell_0000000906   
       906  27  7.229661E-05  9.000026E+00  7.171138E-08 -1.503574E-05 -3.845080E-08 -2.683663E-08 _shell_0000000906   
       907   1  6.762596E-05  9.000028E+00  1.394143E-07 -9.240191E-06 -6.411729E-08 -2.135464E-08 _shell_0000000907   
       907   2  7.039504E-05  9.000028E+00 -3.913929E-08 -6.601728E-06  2.484868E-09 -2.758147E-08 _shell_0000000907   
       907   3  7.338419E-05  9.000028E+00  8.365860E-08 -4.161999E-06  6.908703E-08 -2.317827E-08 _shell_0000000907   
       907   4  7.067444E-05  9.000027E+00  4.731894E-08 -1.107082E-05 -5.710038E-08  3.919854E-09 _shell_0000000907   
       907   5  7.318592E-05  9.000026E+00 -1.187776E-07 -7.929291E-06  4.445557E-09 -3.626370E-09 _shell_0000000907   
       907   6  7.590683E-05  9.000026E+00 -8.325928E-09 -4.986495E-06  6.599150E-08 -5.425825E-10 _shell_0000000907   
       907   7  7.442959E-05  9.000025E+00  1.040208E-07 -1.288922E-05 -5.557889E-08  2.919439E-08 _shell_0000000907   
       907   8  7.669446E-05  9.000025E+00 -2.397335E-08 -9.244625E-06  9.108350E-10  2.032877E-08 _shell_0000000907   
       907   9  7.915813E-05  9.000024E+00  9.977733E-08 -5.798760E-06  5.740054E-08  2.209314E-08 _shell_0000000907   
       907  10  6.769082E-05  9.000028E+00  1.314639E-07 -9.197211E-06 -3.084402E-16 -2.667239E-15 _shell_0000000907   
       907  11  7.047078E-05  9.000028E+00 -3.620920E-08 -6.566526E-06 -2.587270E-15 -9.646074E-15 _shell_0000000907   
       907  12  7.347081E-05  9.000028E+00  9.746903E-08 -4.134576E-06 -8.612469E-17 -3.715950E-15 _shell_0000000907   
       907  13  7.072569E-05  9.000027E+00  3.353481E-08 -1.102422E-05  5.793174E-16 -6.067891E-15 _shell_0000000907   
       907  14  7.324805E-05  9.000026E+00 -1.216813E-07 -7.890462E-06  6.229511E-16 -4.835823E-15 _shell_0000000907   
       907  15  7.597984E-05  9.000026E+00 -3.493064E-10 -4.955444E-06  1.572461E-16 -8.343223E-15 _shell_0000000907   
       907  16  7.446723E-05  9.000025E+00  8.440282E-08 -1.283899E-05  2.828171E-15 -1.925162E-14 _shell_0000000907   
       907  17  7.674298E-05  9.000025E+00 -3.271094E-08 -9.202169E-06 -1.347429E-15 -8.602929E-16 _shell_0000000907   
       907  18  7.921753E-05  9.000024E+00  1.019202E-07 -5.764083E-06 -1.459692E-16 -2.772837E-14 _shell_0000000907   
       907  19  6.762596E-05  9.000028E+00  1.394142E-07 -9.240191E-06  6.411728E-08  2.135466E-08 _shell_0000000907   
       907  20  7.039504E-05  9.000028E+00 -3.913927E-08 -6.601728E-06 -2.484880E-09  2.758146E-08 _shell_0000000907   
       907  21  7.338419E-05  9.000028E+00  8.365855E-08 -4.161999E-06 -6.908703E-08  2.317828E-08 _shell_0000000907   
       907  22  7.067444E-05  9.000027E+00  4.731890E-08 -1.107082E-05  5.710038E-08 -3.919867E-09 _shell_0000000907   
       907  23  7.318592E-05  9.000026E+00 -1.187776E-07 -7.929291E-06 -4.445566E-09  3.626344E-09 _shell_0000000907   
       907  24  7.590683E-05  9.000026E+00 -8.325978E-09 -4.986495E-06 -6.599150E-08  5.425611E-10 _shell_0000000907   
       907  25  7.442959E-05  9.000025E+00  1.040208E-07 -1.288922E-05  5.557890E-08 -2.919442E-08 _shell_0000000907   
       907  26  7.669446E-05  9.000025E+00 -2.397333E-08 -9.244625E-06 -9.108245E-10 -2.032877E-08 _shell_0000000907   
       907  27  7.915813E-05  9.000024E+00  9.977729E-08 -5.798761E-06 -5.740054E-08 -2.209317E-08 _shell_0000000907   
       908   1  7.425952E-05  9.000027E+00  1.045710E-07 -2.594779E-06 -7.507432E-08 -2.195492E-08 _shell_0000000908   
       908   2  7.410458E-05  9.000027E+00 -4.593667E-08 -2.300835E-14  2.923765E-15 -2.503690E-08 _shell_0000000908   
       908   3  7.425952E-05  9.000027E+00  1.045710E-07  2.594779E-06  7.507432E-08 -2.195493E-08 _shell_0000000908   
       908   4  7.673628E-05  9.000026E+00  2.288960E-08 -3.092644E-06 -6.834911E-08  2.968394E-10 _shell_0000000908   
       908   5  7.658441E-05  9.000025E+00 -1.204268E-07 -2.300835E-14 -3.276908E-15 -2.785125E-09 _shell_0000000908   
       908   6  7.673628E-05  9.000026E+00  2.288960E-08  3.092644E-06  6.834911E-08  2.968289E-10 _shell_0000000908   
       908   7  7.984395E-05  9.000024E+00  1.054986E-07 -3.590510E-06 -6.162390E-08  2.254863E-08 _shell_0000000908   
       908   8  7.969517E-05  9.000024E+00 -3.062667E-08 -3.924654E-14 -3.124198E-15  1.946668E-08 _shell_0000000908   
       908   9  7.984395E-05  9.000024E+00  1.054985E-07  3.590509E-06  6.162389E-08  2.254863E-08 _shell_0000000908   
       908  10  7.431606E-05  9.000027E+00  1.072963E-07 -2.587423E-06 -1.333112E-16 -4.499761E-15 _shell_0000000908   
       908  11  7.416111E-05  9.000027E+00 -4.321127E-08 -2.779327E-14  8.189959E-16 -7.100900E-15 _shell_0000000908   
       908  12  7.431606E-05  9.000027E+00  1.072964E-07  2.587423E-06 -5.770639E-16 -7.966386E-15 _shell_0000000908   
       908  13  7.677994E-05  9.000026E+00  2.009842E-08 -3.085289E-06  1.399840E-15 -3.649979E-15 _shell_0000000908   
       908  14  7.662808E-05  9.000025E+00 -1.232180E-07 -2.249931E-14  2.697881E-15  2.850592E-15 _shell_0000000908   
       908  15  7.677994E-05  9.000026E+00  2.009842E-08  3.085289E-06  1.527136E-16 -1.127262E-14 _shell_0000000908   
       908  16  7.987474E-05  9.000024E+00  9.719077E-08 -3.583154E-06  3.515364E-15 -2.373112E-14 _shell_0000000908   
       908  17  7.972596E-05  9.000024E+00 -3.893442E-08 -3.084747E-14  7.140098E-15  6.978834E-15 _shell_0000000908   
       908  18  7.987474E-05  9.000024E+00  9.719084E-08  3.583154E-06  1.317194E-15 -2.385971E-14 _shell_0000000908   
       908  19  7.425952E-05  9.000027E+00  1.045710E-07 -2.594779E-06  7.507432E-08  2.195494E-08 _shell_0000000908   
       908  20  7.410458E-05  9.000027E+00 -4.593662E-08 -2.868408E-14 -2.748785E-15  2.503689E-08 _shell_0000000908   
       908  21  7.425952E-05  9.000027E+00  1.045710E-07  2.594779E-06 -7.507432E-08  2.195493E-08 _shell_0000000908   
       908  22  7.673628E-05  9.000026E+00  2.288957E-08 -3.092644E-06  6.834911E-08 -2.968459E-10 _shell_0000000908   
       908  23  7.658441E-05  9.000025E+00 -1.204268E-07 -2.059043E-14  1.323489E-15  2.785120E-09 _shell_0000000908   
       908  24  7.673628E-05  9.000026E+00  2.288956E-08  3.092644E-06 -6.834911E-08 -2.968596E-10 _shell_0000000908   
       908  25  7.984395E-05  9.000024E+00  1.054985E-07 -3.590509E-06  6.162390E-08 -2.254867E-08 _shell_0000000908   
       908  26  7.969517E-05  9.000024E+00 -3.062665E-08 -3.270545E-14  5.981152E-15 -1.946666E-08 _shell_0000000908   
       908  27  7.984395E-05  9.000024E+00  1.054985E-07  3.590509E-06 -6.162389E-08 -2.254865E-08 _shell_0000000908   
       909   1  7.338419E-05  9.000028E+00  8.365861E-08  4.161999E-06 -6.908704E-08 -2.317829E-08 _shell_0000000909   
       909   2  7.039504E-05  9.000028E+00 -3.913929E-08  6.601728E-06 -2.484876E-09 -2.758145E-08 _shell_0000000909   
       909   3  6.762596E-05  9.000028E+00  1.394143E-07  9.240191E-06  6.411727E-08 -2.135461E-08 _shell_0000000909   
       909   4  7.590683E-05  9.000026E+00 -8.325935E-09  4.986495E-06 -6.599150E-08 -5.425861E-10 _shell_0000000909   
       909   5  7.318592E-05  9.000026E+00 -1.187776E-07  7.929291E-06 -4.445559E-09 -3.626358E-09 _shell_0000000909   
       909   6  7.067444E-05  9.000027E+00  4.731893E-08  1.107082E-05  5.710037E-08  3.919881E-09 _shell_0000000909   
       909   7  7.915813E-05  9.000024E+00  9.977735E-08  5.798760E-06 -5.740054E-08  2.209315E-08 _shell_0000000909   
       909   8  7.669446E-05  9.000025E+00 -2.397333E-08  9.244625E-06 -9.108194E-10  2.032877E-08 _shell_0000000909   
       909   9  7.442959E-05  9.000025E+00  1.040208E-07  1.288922E-05  5.557890E-08  2.919440E-08 _shell_0000000909   
       909  10  7.347081E-05  9.000028E+00  9.746898E-08  4.134576E-06 -1.405904E-15 -1.142263E-14 _shell_0000000909   
       909  11  7.047078E-05  9.000028E+00 -3.620919E-08  6.566526E-06  2.882092E-15 -5.777412E-15 _shell_0000000909   
       909  12  6.769082E-05  9.000028E+00  1.314640E-07  9.197211E-06 -6.328535E-15  1.883427E-15 _shell_0000000909   
       909  13  7.597984E-05  9.000026E+00 -3.493184E-10  4.955444E-06 -1.615561E-15 -1.260898E-14 _shell_0000000909   
       909  14  7.324805E-05  9.000026E+00 -1.216813E-07  7.890462E-06  2.137944E-15 -2.036137E-15 _shell_0000000909   
       909  15  7.072569E-05  9.000027E+00  3.353482E-08  1.102422E-05 -2.030069E-15  4.431089E-15 _shell_0000000909   
       909  16  7.921753E-05  9.000024E+00  1.019201E-07  5.764083E-06 -1.692541E-15 -3.126483E-14 _shell_0000000909   
       909  17  7.674298E-05  9.000025E+00 -3.271093E-08  9.202169E-06 -5.029790E-16 -4.530671E-16 _shell_0000000909   
       909  18  7.446723E-05  9.000025E+00  8.440292E-08  1.283899E-05 -3.136166E-15 -4.287347E-15 _shell_0000000909   
       909  19  7.338419E-05  9.000028E+00  8.365857E-08  4.161999E-06  6.908704E-08  2.317830E-08 _shell_0000000909   
       909  20  7.039504E-05  9.000028E+00 -3.913926E-08  6.601728E-06  2.484873E-09  2.758146E-08 _shell_0000000909   
       909  21  6.762596E-05  9.000028E+00  1.394143E-07  9.240191E-06 -6.411729E-08  2.135462E-08 _shell_0000000909   
       909  22  7.590683E-05  9.000026E+00 -8.325968E-09  4.986495E-06  6.599150E-08  5.425616E-10 _shell_0000000909   
       909  23  7.318592E-05  9.000026E+00 -1.187775E-07  7.929291E-06  4.445554E-09  3.626349E-09 _shell_0000000909   
       909  24  7.067444E-05  9.000027E+00  4.731891E-08  1.107082E-05 -5.710037E-08 -3.919878E-09 _shell_0000000909   
       909  25  7.915813E-05  9.000024E+00  9.977731E-08  5.798761E-06  5.740054E-08 -2.209320E-08 _shell_0000000909   
       909  26  7.669446E-05  9.000025E+00 -2.397334E-08  9.244625E-06  9.108080E-10 -2.032878E-08 _shell_0000000909   
       909  27  7.442959E-05  9.000025E+00  1.040208E-07  1.288922E-05 -5.557890E-08 -2.919439E-08 _shell_0000000909   
       910   1  6.495273E-05  9.000029E+00  4.624982E-08  1.073159E-05 -4.063197E-08 -2.476261E-08 _shell_0000000910   
       910   2  5.937579E-05  9.000028E+00 -2.137681E-08  1.268852E-05 -9.664259E-09 -3.419843E-08 _shell_0000000910   
       910   3  5.367690E-05  9.000027E+00  1.755707E-07  1.493557E-05  2.130345E-08 -1.983212E-08 _shell_0000000910   
       910   4  6.812797E-05  9.000027E+00 -6.769399E-08  1.287972E-05 -4.506497E-08  1.037001E-09 _shell_0000000910   
       910   5  6.299387E-05  9.000027E+00 -1.006260E-07  1.531875E-05 -1.354475E-08 -7.913660E-09 _shell_0000000910   
       910   6  5.771401E-05  9.000026E+00  7.547772E-08  1.804791E-05  1.797547E-08  6.937822E-09 _shell_0000000910   
       910   7  7.229661E-05  9.000026E+00  7.171143E-08  1.503574E-05 -3.845081E-08  2.683664E-08 _shell_0000000910   
       910   8  6.758326E-05  9.000025E+00  2.192046E-08  1.795687E-05 -6.378069E-09  1.837113E-08 _shell_0000000910   
       910   9  6.270035E-05  9.000025E+00  1.256270E-07  2.116813E-05  2.569468E-08  3.370778E-08 _shell_0000000910   
       910  10  6.511082E-05  9.000028E+00  7.240251E-08  1.066694E-05 -6.095695E-15  3.869669E-16 _shell_0000000910   
       910  11  5.950957E-05  9.000028E+00 -1.953438E-08  1.261536E-05  3.326886E-15 -1.297913E-15 _shell_0000000910   
       910  12  5.378637E-05  9.000027E+00  1.531028E-07  1.485390E-05 -2.306410E-15  3.817759E-16 _shell_0000000910   
       910  13  6.827116E-05  9.000027E+00 -4.792484E-08  1.280697E-05 -8.532211E-16  4.520021E-15 _shell_0000000910   
       910  14  6.311275E-05  9.000026E+00 -1.051672E-07  1.523749E-05  8.144548E-16  2.850592E-15 _shell_0000000910   
       910  15  5.780859E-05  9.000025E+00  4.662625E-08  1.795814E-05  9.568837E-16  6.016436E-15 _shell_0000000910   
       910  16  7.242491E-05  9.000026E+00  8.509696E-08  1.495488E-05 -2.481547E-15 -1.090346E-14 _shell_0000000910   
       910  17  6.768725E-05  9.000025E+00  1.099569E-08  1.786751E-05  2.353675E-15 -3.812693E-15 _shell_0000000910   
       910  18  6.278003E-05  9.000024E+00  9.039205E-08  2.107026E-05  4.654781E-15 -3.981928E-15 _shell_0000000910   
       910  19  6.495273E-05  9.000029E+00  4.624982E-08  1.073159E-05  4.063196E-08  2.476264E-08 _shell_0000000910   
       910  20  5.937579E-05  9.000028E+00 -2.137679E-08  1.268852E-05  9.664256E-09  3.419844E-08 _shell_0000000910   
       910  21  5.367690E-05  9.000027E+00  1.755707E-07  1.493557E-05 -2.130345E-08  1.983213E-08 _shell_0000000910   
       910  22  6.812797E-05  9.000027E+00 -6.769402E-08  1.287972E-05  4.506496E-08 -1.036996E-09 _shell_0000000910   
       910  23  6.299387E-05  9.000027E+00 -1.006261E-07  1.531875E-05  1.354474E-08  7.913652E-09 _shell_0000000910   
       910  24  5.771401E-05  9.000026E+00  7.547771E-08  1.804791E-05 -1.797547E-08 -6.937815E-09 _shell_0000000910   
       910  25  7.229661E-05  9.000026E+00  7.171138E-08  1.503574E-05  3.845080E-08 -2.683665E-08 _shell_0000000910   
       910  26  6.758326E-05  9.000025E+00  2.192043E-08  1.795687E-05  6.378071E-09 -1.837115E-08 _shell_0000000910   
       910  27  6.270035E-05  9.000025E+00  1.256270E-07  2.116813E-05 -2.569466E-08 -3.370777E-08 _shell_0000000910   
       911   1  4.921420E-05  9.000025E+00 -7.172057E-08  1.594604E-05  3.348721E-08 -1.996677E-08 _shell_0000000911   
       911   2  4.217555E-05  9.000021E+00  6.788728E-08  1.643751E-05 -2.190732E-08 -3.321384E-08 _shell_0000000911   
       911   3  3.415496E-05  9.000013E+00  2.161837E-07  1.704340E-05 -7.730184E-08 -2.020801E-08 _shell_0000000911   
       911   4  5.344025E-05  9.000024E+00 -1.807729E-07  1.930296E-05  1.974676E-08  6.865483E-09 _shell_0000000911   
       911   5  4.669919E-05  9.000020E+00 -2.525814E-08  2.003882E-05 -2.650160E-08 -6.652637E-09 _shell_0000000911   
       911   6  3.894994E-05  9.000013E+00  7.768853E-08  2.088911E-05 -7.274995E-08  6.082138E-09 _shell_0000000911   
       911   7  5.894963E-05  9.000024E+00 -2.659865E-08  2.273415E-05  2.220448E-08  3.369776E-08 _shell_0000000911   
       911   8  5.247376E-05  9.000020E+00  6.923179E-08  2.371440E-05 -1.489774E-08  1.990858E-08 _shell_0000000911   
       911   9  4.496345E-05  9.000013E+00  5.123741E-08  2.480908E-05 -5.199994E-08  3.237232E-08 _shell_0000000911   
       911  10  4.948988E-05  9.000025E+00 -3.310832E-08  1.584768E-05 -2.806367E-15 -4.703372E-15 _shell_0000000911   
       911  11  4.241448E-05  9.000020E+00  6.974887E-08  1.633616E-05 -2.790618E-15 -4.148497E-15 _shell_0000000911   
       911  12  3.435714E-05  9.000013E+00  1.812945E-07  1.693907E-05 -6.785914E-15 -1.552556E-15 _shell_0000000911   
       911  13  5.371071E-05  9.000024E+00 -1.443996E-07  1.919235E-05 -4.968715E-16  7.777850E-15 _shell_0000000911   
       911  14  4.693289E-05  9.000020E+00 -2.563548E-08  1.992523E-05  2.850592E-15  1.628910E-15 _shell_0000000911   
       911  15  3.914689E-05  9.000012E+00  4.056043E-08  2.077253E-05  3.877793E-15  6.650285E-15 _shell_0000000911   
       911  16  5.921486E-05  9.000023E+00  7.535760E-09  2.261129E-05  6.788933E-15 -4.387820E-15 _shell_0000000911   
       911  17  5.270224E-05  9.000020E+00  6.661549E-08  2.358856E-05  1.069579E-14  1.583075E-15 _shell_0000000911   
       911  18  4.515518E-05  9.000013E+00  1.187045E-08  2.468025E-05  1.289145E-14  2.966400E-15 _shell_0000000911   
       911  19  4.921420E-05  9.000025E+00 -7.172057E-08  1.594604E-05 -3.348720E-08  1.996679E-08 _shell_0000000911   
       911  20  4.217555E-05  9.000021E+00  6.788732E-08  1.643751E-05  2.190731E-08  3.321383E-08 _shell_0000000911   
       911  21  3.415496E-05  9.000013E+00  2.161837E-07  1.704340E-05  7.730182E-08  2.020802E-08 _shell_0000000911   
       911  22  5.344025E-05  9.000024E+00 -1.807730E-07  1.930296E-05 -1.974676E-08 -6.865470E-09 _shell_0000000911   
       911  23  4.669919E-05  9.000020E+00 -2.525813E-08  2.003882E-05  2.650161E-08  6.652630E-09 _shell_0000000911   
       911  24  3.894994E-05  9.000013E+00  7.768852E-08  2.088911E-05  7.274997E-08 -6.082129E-09 _shell_0000000911   
       911  25  5.894963E-05  9.000024E+00 -2.659868E-08  2.273415E-05 -2.220447E-08 -3.369777E-08 _shell_0000000911   
       911  26  5.247376E-05  9.000020E+00  6.923179E-08  2.371440E-05  1.489776E-08 -1.990859E-08 _shell_0000000911   
       911  27  4.496345E-05  9.000013E+00  5.123742E-08  2.480908E-05  5.199997E-08 -3.237228E-08 _shell_0000000911   
       912   1  2.871238E-05  9.000006E+00 -2.287473E-07  1.657966E-05  1.579115E-07 -7.076929E-09 _shell_0000000912   
       912   2  2.303835E-05  8.999991E+00  1.552656E-07  1.424911E-05 -3.324413E-08 -7.796877E-09 _shell_0000000912   
       912   3  1.473647E-05  8.999968E+00 -2.895608E-07  1.171007E-05 -2.243998E-07 -3.313786E-08 _shell_0000000912   
       912   4  3.358837E-05  9.000007E+00 -3.597320E-07  2.034226E-05  1.471188E-07  1.335802E-08 _shell_0000000912   
       912   5  2.805466E-05  8.999992E+00  2.151136E-07  1.760407E-05 -4.663650E-08 -7.212224E-09 _shell_0000000912   
       912   6  1.991773E-05  8.999970E+00  1.856885E-08  1.465738E-05 -2.403917E-07 -5.240350E-08 _shell_0000000912   
       912   7  3.983871E-05  9.000007E+00 -3.440693E-07  2.431276E-05  1.491531E-07  3.379301E-08 _shell_0000000912   
       912   8  3.441968E-05  8.999994E+00  3.617491E-07  2.116691E-05 -4.720176E-08 -6.627542E-09 _shell_0000000912   
       912   9  2.642205E-05  8.999973E+00  3.536264E-07  1.781258E-05 -2.435566E-07 -7.166909E-08 _shell_0000000912   
       912  10  2.910866E-05  9.000006E+00 -1.950751E-07  1.648262E-05 -3.938974E-15 -4.906972E-15 _shell_0000000912   
       912  11  2.338344E-05  8.999990E+00  1.377454E-07  1.415935E-05 -5.863035E-15 -4.046703E-15 _shell_0000000912   
       912  12  1.503036E-05  8.999967E+00 -3.582736E-07  1.162760E-05 -7.906380E-15 -2.799669E-15 _shell_0000000912   
       912  13  3.399739E-05  9.000006E+00 -3.205974E-07  2.022816E-05  3.613013E-15  7.777894E-15 _shell_0000000912   
       912  14  2.841249E-05  8.999992E+00  2.030557E-07  1.749725E-05 -2.443364E-15 -1.628910E-15 _shell_0000000912   
       912  15  2.022437E-05  8.999970E+00 -4.468153E-08  1.455785E-05 -6.117459E-15  1.345976E-16 _shell_0000000912   
       912  16  4.026047E-05  9.000007E+00 -2.994724E-07  2.418159E-05  6.502899E-15  4.989061E-16 _shell_0000000912   
       912  17  3.479026E-05  8.999994E+00  3.551536E-07  2.104303E-05 -1.886451E-15 -3.201862E-15 _shell_0000000912   
       912  18  2.674143E-05  8.999973E+00  2.958385E-07  1.769598E-05  4.877795E-15 -2.022134E-15 _shell_0000000912   
       912  19  2.871238E-05  9.000006E+00 -2.287473E-07  1.657966E-05 -1.579115E-07  7.076952E-09 _shell_0000000912   
       912  20  2.303835E-05  8.999991E+00  1.552656E-07  1.424911E-05  3.324413E-08  7.796880E-09 _shell_0000000912   
       912  21  1.473647E-05  8.999968E+00 -2.895608E-07  1.171007E-05  2.243998E-07  3.313787E-08 _shell_0000000912   
       912  22  3.358837E-05  9.000007E+00 -3.597320E-07  2.034226E-05 -1.471188E-07 -1.335801E-08 _shell_0000000912   
       912  23  2.805466E-05  8.999992E+00  2.151136E-07  1.760407E-05  4.663648E-08  7.212208E-09 _shell_0000000912   
       912  24  1.991773E-05  8.999970E+00  1.856884E-08  1.465738E-05  2.403917E-07  5.240349E-08 _shell_0000000912   
       912  25  3.983871E-05  9.000007E+00 -3.440693E-07  2.431276E-05 -1.491531E-07 -3.379300E-08 _shell_0000000912   
       912  26  3.441968E-05  8.999994E+00  3.617491E-07  2.116691E-05  4.720175E-08  6.627526E-09 _shell_0000000912   
       912  27  2.642205E-05  8.999973E+00  3.536265E-07  1.781258E-05  2.435566E-07  7.166912E-08 _shell_0000000912   
       913   1  1.130718E-05  8.999951E+00 -4.281876E-07  9.108523E-06  2.563591E-07  2.299281E-09 _shell_0000000913   
       913   2  1.119665E-05  8.999918E+00  6.534734E-07  5.260967E-06  3.310350E-08  7.743807E-08 _shell_0000000913   
       913   3  6.905650E-06  8.999873E+00 -2.735446E-07  1.686631E-06 -1.901521E-07  1.644234E-08 _shell_0000000913   
       913   4  1.600134E-05  8.999954E+00 -4.113870E-07  1.151806E-05  2.704869E-07 -1.592699E-08 _shell_0000000913   
       913   5  1.585519E-05  8.999920E+00  3.307662E-07  6.380816E-06  5.662825E-08  8.263380E-08 _shell_0000000913   
       913   6  1.166469E-05  8.999874E+00 -6.181123E-07  1.516794E-06 -1.572304E-07  4.506006E-08 _shell_0000000913   
       913   7  2.153963E-05  8.999957E+00 -5.808172E-07  1.376400E-05  2.789198E-07 -3.415324E-08 _shell_0000000913   
       913   8  2.136925E-05  8.999922E+00 -1.515951E-07  7.337074E-06  7.445800E-08  8.782955E-08 _shell_0000000913   
       913   9  1.729064E-05  8.999875E+00 -1.095757E-06  1.183366E-06 -1.300038E-07  7.367783E-08 _shell_0000000913   
       913  10  1.173892E-05  8.999951E+00 -4.398211E-07  9.102389E-06 -8.431214E-15 -7.350305E-15 _shell_0000000913   
       913  11  1.166756E-05  8.999918E+00  6.810034E-07  5.312931E-06  2.592992E-15 -3.334019E-15 _shell_0000000913   
       913  12  7.415721E-06  8.999873E+00 -2.068512E-07  1.796694E-06  7.899724E-15  9.188054E-15 _shell_0000000913   
       913  13  1.653476E-05  8.999953E+00 -3.794469E-07  1.152498E-05 -3.042006E-15  2.916591E-15 _shell_0000000913   
       913  14  1.642777E-05  8.999919E+00  4.018698E-07  6.445834E-06 -5.987141E-16  1.619197E-15 _shell_0000000913   
       913  15  1.227644E-05  8.999874E+00 -5.078453E-07  1.639911E-06  3.726943E-15  9.116784E-15 _shell_0000000913   
       913  16  2.217472E-05  8.999956E+00 -5.053036E-07  1.378398E-05  6.311404E-15  1.313450E-15 _shell_0000000913   
       913  17  2.204350E-05  8.999921E+00 -3.691800E-08  7.415148E-06 -1.994316E-15  6.978765E-15 _shell_0000000913   
       913  18  1.800406E-05  8.999875E+00 -9.419168E-07  1.319538E-06 -1.144567E-15  5.993836E-16 _shell_0000000913   
       913  19  1.130718E-05  8.999951E+00 -4.281875E-07  9.108523E-06 -2.563591E-07 -2.299261E-09 _shell_0000000913   
       913  20  1.119665E-05  8.999918E+00  6.534735E-07  5.260967E-06 -3.310351E-08 -7.743807E-08 _shell_0000000913   
       913  21  6.905650E-06  8.999873E+00 -2.735447E-07  1.686631E-06  1.901521E-07 -1.644230E-08 _shell_0000000913   
       913  22  1.600134E-05  8.999954E+00 -4.113870E-07  1.151806E-05 -2.704869E-07  1.592700E-08 _shell_0000000913   
       913  23  1.585519E-05  8.999920E+00  3.307662E-07  6.380816E-06 -5.662828E-08 -8.263380E-08 _shell_0000000913   
       913  24  1.166469E-05  8.999874E+00 -6.181123E-07  1.516794E-06  1.572305E-07 -4.506005E-08 _shell_0000000913   
       913  25  2.153963E-05  8.999957E+00 -5.808172E-07  1.376400E-05 -2.789198E-07  3.415324E-08 _shell_0000000913   
       913  26  2.136925E-05  8.999922E+00 -1.515951E-07  7.337074E-06 -7.445800E-08 -8.782955E-08 _shell_0000000913   
       913  27  1.729064E-05  8.999875E+00 -1.095757E-06  1.183366E-06  1.300038E-07 -7.367779E-08 _shell_0000000913   
       914   1  8.445875E-06  8.999844E+00  2.835959E-07  3.426466E-07  8.281759E-08 -6.610500E-08 _shell_0000000914   
       914   2  7.496788E-06  8.999789E+00 -4.492201E-07  6.889383E-07  7.371613E-09 -1.296165E-07 _shell_0000000914   
       914   3  6.672595E-06  8.999733E+00  1.102621E-07  1.310448E-06 -6.807442E-08 -8.268363E-08 _shell_0000000914   
       914   4  1.407148E-05  8.999844E+00  4.020404E-07 -2.327325E-07  6.737079E-08 -2.650728E-08 _shell_0000000914   
       914   5  1.333063E-05  8.999789E+00 -1.648894E-07  1.338693E-06 -1.129146E-07 -7.570813E-08 _shell_0000000914   
       914   6  1.260423E-05  8.999732E+00  3.027757E-07  3.185337E-06 -2.932000E-07 -1.446462E-08 _shell_0000000914   
       914   7  2.201765E-05  8.999846E+00  1.017295E-06 -9.574605E-07  5.140328E-08  1.309048E-08 _shell_0000000914   
       914   8  2.148608E-05  8.999790E+00  6.186811E-07  1.839099E-06 -2.337215E-07 -2.179974E-08 _shell_0000000914   
       914   9  2.085851E-05  8.999732E+00  9.969590E-07  4.910877E-06 -5.188463E-07  5.375442E-08 _shell_0000000914   
       914  10  8.672015E-06  8.999843E+00  2.379890E-07  4.587462E-07  1.306212E-14  3.237732E-15 _shell_0000000914   
       914  11  7.740200E-06  8.999788E+00 -4.775558E-07  6.849919E-07  5.198140E-15 -4.250176E-15 _shell_0000000914   
       914  12  6.933278E-06  8.999733E+00  9.919753E-08  1.186455E-06 -8.256054E-15  8.322729E-15 _shell_0000000914   
       914  13  1.408754E-05  8.999844E+00  2.663990E-07 -1.108758E-07 -8.907194E-16  9.441863E-15 _shell_0000000914   
       914  14  1.336396E-05  8.999788E+00 -2.832597E-07  1.340504E-06 -1.844625E-15  4.580339E-16 _shell_0000000914   
       914  15  1.265483E-05  8.999732E+00  2.016764E-07  3.067101E-06 -9.560686E-15  1.532436E-14 _shell_0000000914   
       914  16  2.182363E-05  8.999845E+00  7.916185E-07 -8.298468E-07 -5.815110E-15 -1.537320E-15 _shell_0000000914   
       914  17  2.130933E-05  8.999789E+00  4.102761E-07  1.846667E-06 -1.470200E-14  4.026503E-15 _shell_0000000914   
       914  18  2.069903E-05  8.999732E+00  8.058252E-07  4.798398E-06 -2.912507E-14  1.434322E-14 _shell_0000000914   
       914  19  8.445875E-06  8.999844E+00  2.835959E-07  3.426465E-07 -8.281757E-08  6.610504E-08 _shell_0000000914   
       914  20  7.496788E-06  8.999789E+00 -4.492201E-07  6.889383E-07 -7.371587E-09  1.296165E-07 _shell_0000000914   
       914  21  6.672595E-06  8.999733E+00  1.102621E-07  1.310448E-06  6.807437E-08  8.268365E-08 _shell_0000000914   
       914  22  1.407148E-05  8.999844E+00  4.020404E-07 -2.327325E-07 -6.737080E-08  2.650730E-08 _shell_0000000914   
       914  23  1.333063E-05  8.999789E+00 -1.648894E-07  1.338693E-06  1.129146E-07  7.570813E-08 _shell_0000000914   
       914  24  1.260423E-05  8.999732E+00  3.027757E-07  3.185337E-06  2.932000E-07  1.446465E-08 _shell_0000000914   
       914  25  2.201765E-05  8.999846E+00  1.017295E-06 -9.574605E-07 -5.140330E-08 -1.309048E-08 _shell_0000000914   
       914  26  2.148608E-05  8.999790E+00  6.186811E-07  1.839099E-06  2.337215E-07  2.179974E-08 _shell_0000000914   
       914  27  2.085851E-05  8.999732E+00  9.969590E-07  4.910877E-06  5.188463E-07 -5.375437E-08 _shell_0000000914   
       915   1  4.214883E-06  8.999699E+00  3.463905E-09  1.490350E-06  1.636113E-07  2.965332E-08 _shell_0000000915   
       915   2  3.265055E-06  8.999638E+00  7.833238E-07  8.333327E-07  2.383601E-10  7.654103E-08 _shell_0000000915   
       915   3 -1.465426E-06  8.999567E+00 -6.045869E-07 -1.515305E-06 -1.631345E-07 -2.188390E-07 _shell_0000000915   
       915   4  7.614614E-06  8.999698E+00 -8.044821E-07  4.248207E-06 -1.525133E-08  8.055147E-08 _shell_0000000915   
       915   5  4.972133E-06  8.999638E+00  2.311662E-07  2.774411E-06 -9.240416E-09  5.360554E-08 _shell_0000000915   
       915   6 -1.108734E-06  8.999569E+00 -1.023313E-07 -3.910048E-07 -3.229534E-09 -3.156081E-07 _shell_0000000915   
       915   7  1.223650E-05  8.999697E+00 -1.582942E-06  7.364419E-06 -1.931046E-07  1.314497E-07 _shell_0000000915   
       915   8  7.899343E-06  8.999639E+00 -2.962156E-07  5.073845E-06 -1.770984E-08  3.067009E-08 _shell_0000000915   
       915   9  4.660721E-07  8.999571E+00  4.199898E-07  1.091651E-06  1.576849E-07 -4.123772E-07 _shell_0000000915   
       915  10  4.559615E-06  8.999699E+00  1.710260E-08  1.454452E-06 -1.240712E-14  7.309849E-15 _shell_0000000915   
       915  11  3.524453E-06  8.999638E+00  7.116287E-07  1.052822E-06  1.520991E-15 -2.824898E-15 _shell_0000000915   
       915  12 -1.291361E-06  8.999566E+00 -7.616159E-07 -1.040427E-06  1.744949E-16  3.181532E-15 _shell_0000000915   
       915  13  8.406276E-06  8.999698E+00 -5.993021E-07  4.183864E-06 -4.480688E-15  1.592240E-14 _shell_0000000915   
       915  14  5.678460E-06  8.999638E+00  3.510123E-07  2.965456E-06  1.628910E-15 -1.568240E-15 _shell_0000000915   
       915  15 -4.877396E-07  8.999568E+00 -6.781907E-08  5.542862E-08 -7.800210E-15  1.126158E-14 _shell_0000000915   
       915  16  1.347509E-05  8.999697E+00 -1.186221E-06  7.271631E-06 -2.282352E-14  5.385619E-15 _shell_0000000915   
       915  17  9.052600E-06  8.999638E+00  1.517158E-08  5.236445E-06 -7.330078E-15 -5.747054E-15 _shell_0000000915   
       915  18  1.533995E-06  8.999570E+00  6.460432E-07  1.509639E-06 -1.080349E-14  1.207810E-14 _shell_0000000915   
       915  19  4.214883E-06  8.999699E+00  3.463943E-09  1.490350E-06 -1.636113E-07 -2.965327E-08 _shell_0000000915   
       915  20  3.265055E-06  8.999638E+00  7.833238E-07  8.333327E-07 -2.383866E-10 -7.654102E-08 _shell_0000000915   
       915  21 -1.465426E-06  8.999567E+00 -6.045869E-07 -1.515305E-06  1.631345E-07  2.188390E-07 _shell_0000000915   
       915  22  7.614614E-06  8.999698E+00 -8.044820E-07  4.248207E-06  1.525128E-08 -8.055144E-08 _shell_0000000915   
       915  23  4.972133E-06  8.999638E+00  2.311662E-07  2.774411E-06  9.240418E-09 -5.360555E-08 _shell_0000000915   
       915  24 -1.108734E-06  8.999569E+00 -1.023313E-07 -3.910048E-07  3.229514E-09  3.156081E-07 _shell_0000000915   
       915  25  1.223650E-05  8.999697E+00 -1.582942E-06  7.364419E-06  1.931045E-07 -1.314496E-07 _shell_0000000915   
       915  26  7.899343E-06  8.999639E+00 -2.962156E-07  5.073845E-06  1.770981E-08 -3.067010E-08 _shell_0000000915   
       915  27  4.660721E-07  8.999571E+00  4.199898E-07  1.091651E-06 -1.576849E-07  4.123772E-07 _shell_0000000915   
      1001   1 -1.156929E-06  8.999569E+00 -1.059321E-06 -1.706144E-06  1.625721E-07 -4.407917E-07 _shell_0000001001   
      1001   2  1.170910E-05  8.999643E+00  1.099191E-06 -8.907573E-06  3.231227E-08  3.264970E-08 _shell_0000001001   
      1001   3  1.782809E-05  8.999698E+00 -6.359087E-07 -1.034673E-05 -9.794757E-08  3.411900E-09 _shell_0000001001   
      1001   4 -5.466626E-07  8.999578E+00 -1.902567E-07 -6.570214E-06  1.316145E-06 -3.631878E-07 _shell_0000001001   
      1001   5  1.724496E-05  8.999645E+00  7.929985E-07 -1.467569E-05 -3.387808E-08  1.796715E-07 _shell_0000001001   
      1001   6  2.879223E-05  8.999693E+00 -9.444402E-07 -1.701890E-05 -1.383901E-06  2.198516E-07 _shell_0000001001   
      1001   7  2.814958E-06  8.999588E+00  2.375625E-07 -1.306910E-05  2.301547E-06 -2.855838E-07 _shell_0000001001   
      1001   8  2.586852E-05  8.999648E+00  8.303563E-07 -2.207863E-05 -2.682389E-07  3.266934E-07 _shell_0000001001   
      1001   9  4.318040E-05  8.999689E+00 -1.246257E-07 -2.532589E-05 -2.838025E-06  4.362913E-07 _shell_0000001001   
      1001  10 -7.932152E-07  8.999568E+00 -1.400439E-06 -1.011190E-06  1.702888E-14 -3.237458E-14 _shell_0000001001   
      1001  11  1.252930E-05  8.999643E+00  1.214551E-06 -8.938937E-06  5.351692E-15  1.710581E-15 _shell_0000001001   
      1001  12  1.910477E-05  8.999699E+00 -6.406958E-08 -1.110441E-05  4.365169E-15 -3.594007E-15 _shell_0000001001   
      1001  13 -1.454005E-06  8.999576E+00 -1.076113E-06 -5.723101E-06 -2.545171E-17 -3.665046E-14 _shell_0000001001   
      1001  14  1.679410E-05  8.999644E+00  3.636206E-07 -1.455490E-05  1.571312E-15  1.720656E-15 _shell_0000001001   
      1001  15  2.879784E-05  8.999693E+00 -9.173394E-07 -1.762442E-05  6.654890E-15 -1.675225E-14 _shell_0000001001   
      1001  16  6.365598E-07  8.999586E+00 -1.193032E-06 -1.206983E-05 -1.696010E-14 -3.952117E-14 _shell_0000001001   
      1001  17  2.414660E-05  8.999646E+00 -1.437598E-07 -2.180567E-05 -3.142532E-15  9.875253E-15 _shell_0000001001   
      1001  18  4.191496E-05  8.999689E+00 -6.422630E-07 -2.577925E-05  5.758799E-15 -1.929883E-14 _shell_0000001001   
      1001  19 -1.156929E-06  8.999569E+00 -1.059321E-06 -1.706144E-06 -1.625721E-07  4.407916E-07 _shell_0000001001   
      1001  20  1.170910E-05  8.999643E+00  1.099191E-06 -8.907573E-06 -3.231225E-08 -3.264969E-08 _shell_0000001001   
      1001  21  1.782809E-05  8.999698E+00 -6.359087E-07 -1.034673E-05  9.794757E-08 -3.411913E-09 _shell_0000001001   
      1001  22 -5.466626E-07  8.999578E+00 -1.902567E-07 -6.570214E-06 -1.316145E-06  3.631877E-07 _shell_0000001001   
      1001  23  1.724496E-05  8.999645E+00  7.929985E-07 -1.467569E-05  3.387810E-08 -1.796715E-07 _shell_0000001001   
      1001  24  2.879223E-05  8.999693E+00 -9.444402E-07 -1.701890E-05  1.383901E-06 -2.198516E-07 _shell_0000001001   
      1001  25  2.814958E-06  8.999588E+00  2.375626E-07 -1.306910E-05 -2.301547E-06  2.855838E-07 _shell_0000001001   
      1001  26  2.586852E-05  8.999648E+00  8.303564E-07 -2.207863E-05  2.682389E-07 -3.266933E-07 _shell_0000001001   
      1001  27  4.318040E-05  8.999689E+00 -1.246257E-07 -2.532589E-05  2.838025E-06 -4.362913E-07 _shell_0000001001   
      1002   1  2.593644E-05  8.999730E+00  7.061249E-07 -5.221680E-06  2.444224E-07 -1.603230E-07 _shell_0000001002   
      1002   2  2.505049E-05  8.999785E+00 -7.344775E-07 -9.368069E-07  9.747258E-08 -2.218522E-07 _shell_0000001002   
      1002   3  2.629578E-05  8.999845E+00  6.975771E-07  1.797323E-06 -4.947725E-08 -5.498614E-08 _shell_0000001002   
      1002   4  3.614781E-05  8.999723E+00 -5.294511E-08 -7.836781E-06 -8.900262E-07  3.552021E-08 _shell_0000001002   
      1002   5  3.477061E-05  8.999783E+00 -7.138184E-07 -1.229132E-06 -4.572994E-07 -1.662065E-07 _shell_0000001002   
      1002   6  3.529627E-05  8.999847E+00  9.650433E-07  3.827774E-06 -2.457269E-08 -1.395381E-07 _shell_0000001002   
      1002   7  4.939384E-05  8.999717E+00  2.764814E-07 -9.641086E-06 -1.970889E-06  2.313634E-07 _shell_0000001002   
      1002   8  4.741824E-05  8.999782E+00  1.452711E-07 -7.106599E-07 -9.584858E-07 -1.105609E-07 _shell_0000001002   
      1002   9  4.711708E-05  8.999850E+00  1.820874E-06  6.669022E-06  5.391750E-08 -2.240901E-07 _shell_0000001002   
      1002  10  2.620355E-05  8.999730E+00  8.749255E-07 -6.190044E-06  3.105109E-15 -1.466019E-14 _shell_0000001002   
      1002  11  2.503931E-05  8.999785E+00 -8.439669E-07 -1.556062E-06  3.766231E-16 -1.142256E-14 _shell_0000001002   
      1002  12  2.600631E-05  8.999844E+00  3.097978E-07  1.527177E-06 -1.178982E-15 -1.275656E-14 _shell_0000001002   
      1002  13  3.702586E-05  8.999724E+00  3.776873E-07 -8.897909E-06  5.168208E-15 -2.117584E-14 _shell_0000001002   
      1002  14  3.537038E-05  8.999783E+00 -5.614759E-07 -1.941150E-06  2.443403E-15 -8.460059E-15 _shell_0000001002   
      1002  15  3.561774E-05  8.999846E+00  8.390959E-07  3.464865E-06 -1.774862E-15 -2.740504E-14 _shell_0000001002   
      1002  16  5.088284E-05  8.999718E+00  9.689459E-07 -1.079498E-05  6.273932E-15 -3.015499E-14 _shell_0000001002   
      1002  17  4.862894E-05  8.999782E+00  5.594456E-07 -1.515441E-06  5.801586E-16 -2.748801E-15 _shell_0000001002   
      1002  18  4.804949E-05  8.999849E+00  1.956758E-06  6.213350E-06  1.352579E-15 -2.535633E-14 _shell_0000001002   
      1002  19  2.593644E-05  8.999730E+00  7.061249E-07 -5.221680E-06 -2.444224E-07  1.603229E-07 _shell_0000001002   
      1002  20  2.505049E-05  8.999785E+00 -7.344775E-07 -9.368069E-07 -9.747257E-08  2.218521E-07 _shell_0000001002   
      1002  21  2.629578E-05  8.999845E+00  6.975771E-07  1.797323E-06  4.947726E-08  5.498611E-08 _shell_0000001002   
      1002  22  3.614781E-05  8.999723E+00 -5.294517E-08 -7.836781E-06  8.900262E-07 -3.552025E-08 _shell_0000001002   
      1002  23  3.477061E-05  8.999783E+00 -7.138184E-07 -1.229132E-06  4.572994E-07  1.662065E-07 _shell_0000001002   
      1002  24  3.529627E-05  8.999847E+00  9.650433E-07  3.827774E-06  2.457268E-08  1.395381E-07 _shell_0000001002   
      1002  25  4.939384E-05  8.999717E+00  2.764815E-07 -9.641085E-06  1.970889E-06 -2.313635E-07 _shell_0000001002   
      1002  26  4.741824E-05  8.999782E+00  1.452711E-07 -7.106599E-07  9.584858E-07  1.105609E-07 _shell_0000001002   
      1002  27  4.711708E-05  8.999850E+00  1.820874E-06  6.669022E-06 -5.391750E-08  2.240901E-07 _shell_0000001002   
      1003   1  2.190356E-05  8.999878E+00 -5.178308E-07 -1.160464E-06  1.485521E-07  1.209257E-07 _shell_0000001003   
      1003   2  2.674194E-05  8.999927E+00  1.134861E-06 -8.186552E-06 -7.223617E-08  2.090134E-07 _shell_0000001003   
      1003   3  2.534857E-05  8.999958E+00 -7.350599E-07 -1.520142E-05 -2.930244E-07 -1.604855E-08 _shell_0000001003   
      1003   4  2.926998E-05  8.999880E+00 -1.030451E-06  2.307159E-09  2.350971E-07  1.281558E-08 _shell_0000001003   
      1003   5  3.429736E-05  8.999930E+00  5.397149E-07 -9.072896E-06 -5.119400E-08  1.601439E-07 _shell_0000001003   
      1003   6  3.340612E-05  8.999962E+00 -6.820487E-07 -1.813688E-05 -3.374851E-07 -5.677550E-09 _shell_0000001003   
      1003   7  3.751471E-05  8.999883E+00 -1.845125E-06  1.286606E-06  3.204854E-07 -9.529446E-08 _shell_0000001003   
      1003   8  4.273338E-05  8.999933E+00 -3.520860E-07 -9.837712E-06 -3.130857E-08  1.112744E-07 _shell_0000001003   
      1003   9  4.234659E-05  8.999966E+00 -9.202942E-07 -2.095081E-05 -3.831025E-07  4.693470E-09 _shell_0000001003   
      1003  10  2.242484E-05  8.999877E+00 -5.929065E-07 -1.268089E-06  1.424538E-15 -1.018068E-14 _shell_0000001003   
      1003  11  2.733247E-05  8.999926E+00  1.129033E-06 -8.225873E-06  8.559257E-15  4.052086E-15 _shell_0000001003   
      1003  12  2.600835E-05  8.999958E+00 -6.716390E-07 -1.517244E-05  1.554327E-14 -2.235182E-14 _shell_0000001003   
      1003  13  2.991080E-05  8.999879E+00 -1.054299E-06 -8.223466E-08 -4.552827E-15 -2.364467E-14 _shell_0000001003   
      1003  14  3.500742E-05  8.999929E+00  5.851154E-07 -9.089134E-06  1.628939E-15  4.079020E-17 _shell_0000001003   
      1003  15  3.418543E-05  8.999962E+00 -5.673998E-07 -1.808482E-05  4.949614E-15 -2.196988E-14 _shell_0000001003   
      1003  16  3.827505E-05  8.999882E+00 -1.817745E-06  1.225147E-06 -1.264371E-16 -2.913698E-14 _shell_0000001003   
      1003  17  4.356297E-05  8.999932E+00 -2.554574E-07 -9.830867E-06 -1.736772E-15  2.036195E-15 _shell_0000001003   
      1003  18  4.324543E-05  8.999966E+00 -7.544173E-07 -2.087567E-05  4.600244E-15 -1.219782E-14 _shell_0000001003   
      1003  19  2.190356E-05  8.999878E+00 -5.178308E-07 -1.160464E-06 -1.485521E-07 -1.209257E-07 _shell_0000001003   
      1003  20  2.674194E-05  8.999927E+00  1.134861E-06 -8.186552E-06  7.223619E-08 -2.090134E-07 _shell_0000001003   
      1003  21  2.534857E-05  8.999958E+00 -7.350598E-07 -1.520142E-05  2.930245E-07  1.604850E-08 _shell_0000001003   
      1003  22  2.926998E-05  8.999880E+00 -1.030451E-06  2.307232E-09 -2.350971E-07 -1.281561E-08 _shell_0000001003   
      1003  23  3.429736E-05  8.999930E+00  5.397149E-07 -9.072896E-06  5.119401E-08 -1.601439E-07 _shell_0000001003   
      1003  24  3.340612E-05  8.999962E+00 -6.820486E-07 -1.813688E-05  3.374851E-07  5.677513E-09 _shell_0000001003   
      1003  25  3.751471E-05  8.999883E+00 -1.845125E-06  1.286606E-06 -3.204854E-07  9.529440E-08 _shell_0000001003   
      1003  26  4.273338E-05  8.999933E+00 -3.520860E-07 -9.837712E-06  3.130857E-08 -1.112743E-07 _shell_0000001003   
      1003  27  4.234659E-05  8.999966E+00 -9.202941E-07 -2.095081E-05  3.831025E-07 -4.693496E-09 _shell_0000001003   
      1004   1  2.983570E-05  8.999973E+00 -3.594480E-07 -1.947795E-05  2.581644E-07 -1.135296E-07 _shell_0000001004   
      1004   2  3.824986E-05  8.999995E+00  5.491894E-08 -2.317870E-05  5.697781E-08 -4.383599E-08 _shell_0000001004   
      1004   3  4.418313E-05  9.000008E+00 -1.238572E-07 -2.667463E-05 -1.442088E-07 -9.019191E-09 _shell_0000001004   
      1004   4  3.860582E-05  8.999977E+00  1.562589E-07 -2.270414E-05  3.001575E-07 -8.547228E-08 _shell_0000001004   
      1004   5  4.656196E-05  8.999997E+00  1.398112E-07 -2.648428E-05  8.496632E-08 -1.424028E-08 _shell_0000001004   
      1004   6  5.207207E-05  9.000008E+00 -3.884004E-07 -3.005960E-05 -1.302248E-07  2.211488E-08 _shell_0000001004   
      1004   7  4.917121E-05  8.999982E+00  7.958712E-07 -2.626050E-05  3.215133E-07 -5.741493E-08 _shell_0000001004   
      1004   8  5.671059E-05  8.999999E+00  4.449162E-07 -3.012004E-05  9.231757E-08  1.535540E-08 _shell_0000001004   
      1004   9  6.183882E-05  9.000009E+00 -3.364235E-07 -3.377475E-05 -1.368781E-07  5.324896E-08 _shell_0000001004   
      1004  10  3.015109E-05  8.999973E+00 -4.240979E-07 -1.930407E-05  9.375924E-15 -2.850591E-14 _shell_0000001004   
      1004  11  3.861342E-05  8.999994E+00  3.843363E-08 -2.300225E-05 -2.205317E-15  8.156878E-17 _shell_0000001004   
      1004  12  4.459485E-05  9.000008E+00 -9.217783E-08 -2.649561E-05 -3.828328E-15  1.063789E-15 _shell_0000001004   
      1004  13  3.892572E-05  8.999977E+00  9.354050E-08 -2.251420E-05  7.437960E-15 -2.446156E-14 _shell_0000001004   
      1004  14  4.693002E-05  8.999996E+00  1.252574E-07 -2.629178E-05 -1.682821E-15 -1.102092E-15 _shell_0000001004   
      1004  15  5.248830E-05  9.000008E+00 -3.547896E-07 -2.986452E-05  4.720545E-15 -5.553534E-15 _shell_0000001004   
      1004  16  4.949562E-05  8.999981E+00  7.350844E-07 -2.605451E-05  2.670966E-15 -2.465750E-14 _shell_0000001004   
      1004  17  5.708316E-05  8.999999E+00  4.322940E-07 -2.991147E-05 -1.567552E-15 -7.839118E-15 _shell_0000001004   
      1004  18  6.225956E-05  9.000009E+00 -3.008812E-07 -3.356361E-05  6.242056E-15 -7.489212E-15 _shell_0000001004   
      1004  19  2.983570E-05  8.999973E+00 -3.594480E-07 -1.947795E-05 -2.581644E-07  1.135295E-07 _shell_0000001004   
      1004  20  3.824986E-05  8.999995E+00  5.491890E-08 -2.317870E-05 -5.697781E-08  4.383600E-08 _shell_0000001004   
      1004  21  4.418313E-05  9.000008E+00 -1.238571E-07 -2.667463E-05  1.442087E-07  9.019184E-09 _shell_0000001004   
      1004  22  3.860582E-05  8.999977E+00  1.562588E-07 -2.270414E-05 -3.001575E-07  8.547223E-08 _shell_0000001004   
      1004  23  4.656196E-05  8.999997E+00  1.398111E-07 -2.648428E-05 -8.496633E-08  1.424028E-08 _shell_0000001004   
      1004  24  5.207207E-05  9.000008E+00 -3.884004E-07 -3.005960E-05  1.302248E-07 -2.211488E-08 _shell_0000001004   
      1004  25  4.917121E-05  8.999982E+00  7.958712E-07 -2.626050E-05 -3.215133E-07  5.741488E-08 _shell_0000001004   
      1004  26  5.671059E-05  8.999999E+00  4.449162E-07 -3.012004E-05 -9.231758E-08 -1.535543E-08 _shell_0000001004   
      1004  27  6.183882E-05  9.000009E+00 -3.364235E-07 -3.377475E-05  1.368781E-07 -5.324898E-08 _shell_0000001004   
      1005   1  4.934703E-05  9.000014E+00  3.422394E-07 -2.712841E-05  4.403196E-08 -1.905995E-08 _shell_0000001005   
      1005   2  5.621462E-05  9.000019E+00  3.549594E-08 -2.567316E-05  1.352492E-08 -3.949982E-08 _shell_0000001005   
      1005   3  6.242601E-05  9.000023E+00 -3.285791E-08 -2.462396E-05 -1.698214E-08 -1.908892E-08 _shell_0000001005   
      1005   4  5.721017E-05  9.000013E+00  1.512373E-07 -3.048619E-05  3.195533E-08  1.180236E-08 _shell_0000001005   
      1005   5  6.340976E-05  9.000018E+00 -7.609316E-08 -2.862703E-05  1.496634E-08 -1.110967E-08 _shell_0000001005   
      1005   6  6.891230E-05  9.000021E+00 -1.603524E-07 -2.717392E-05 -2.022646E-09  6.829018E-09 _shell_0000001005   
      1005   7  6.632433E-05  9.000013E+00  5.831174E-08 -3.391512E-05 -4.754289E-09  4.266471E-08 _shell_0000001005   
      1005   8  7.190518E-05  9.000018E+00  2.534812E-08 -3.165205E-05 -8.225221E-09  1.728049E-08 _shell_0000001005   
      1005   9  7.674814E-05  9.000020E+00  4.013731E-08 -2.979503E-05 -1.169614E-08  3.274698E-08 _shell_0000001005   
      1005  10  4.952328E-05  9.000013E+00  2.897644E-07 -2.695469E-05 -6.759854E-16 -8.144546E-15 _shell_0000001005   
      1005  11  5.644351E-05  9.000019E+00  3.566391E-08 -2.550463E-05  3.922624E-15 -4.601568E-15 _shell_0000001005   
      1005  12  6.270754E-05  9.000023E+00  1.995303E-08 -2.446061E-05  4.370246E-15  3.252621E-15 _shell_0000001005   
      1005  13  5.737735E-05  9.000013E+00  9.487693E-08 -3.029492E-05  6.464735E-15 -8.149440E-15 _shell_0000001005   
      1005  14  6.362958E-05  9.000018E+00 -7.981060E-08 -2.844095E-05 -1.982189E-15  4.989029E-16 _shell_0000001005   
      1005  15  6.918477E-05  9.000021E+00 -1.114269E-07 -2.699302E-05 -5.067913E-15  3.815141E-15 _shell_0000001005   
      1005  16  6.648244E-05  9.000013E+00 -1.933966E-09 -3.370630E-05  4.021407E-15 -1.020094E-14 _shell_0000001005   
      1005  17  7.211594E-05  9.000018E+00  1.774534E-08 -3.144842E-05 -9.800422E-15  6.108425E-16 _shell_0000001005   
      1005  18  7.701154E-05  9.000020E+00  8.517751E-08 -2.959658E-05 -9.827326E-15  3.047807E-15 _shell_0000001005   
      1005  19  4.934703E-05  9.000014E+00  3.422395E-07 -2.712841E-05 -4.403196E-08  1.905993E-08 _shell_0000001005   
      1005  20  5.621462E-05  9.000019E+00  3.549596E-08 -2.567316E-05 -1.352491E-08  3.949981E-08 _shell_0000001005   
      1005  21  6.242601E-05  9.000023E+00 -3.285786E-08 -2.462396E-05  1.698215E-08  1.908891E-08 _shell_0000001005   
      1005  22  5.721017E-05  9.000013E+00  1.512373E-07 -3.048619E-05 -3.195531E-08 -1.180237E-08 _shell_0000001005   
      1005  23  6.340976E-05  9.000018E+00 -7.609318E-08 -2.862703E-05 -1.496633E-08  1.110965E-08 _shell_0000001005   
      1005  24  6.891230E-05  9.000021E+00 -1.603524E-07 -2.717392E-05  2.022643E-09 -6.829020E-09 _shell_0000001005   
      1005  25  6.632433E-05  9.000013E+00  5.831173E-08 -3.391512E-05  4.754290E-09 -4.266475E-08 _shell_0000001005   
      1005  26  7.190518E-05  9.000018E+00  2.534810E-08 -3.165205E-05  8.225195E-09 -1.728049E-08 _shell_0000001005   
      1005  27  7.674814E-05  9.000020E+00  4.013732E-08 -2.979503E-05  1.169611E-08 -3.274697E-08 _shell_0000001005   
      1006   1  6.600908E-05  9.000024E+00  1.463811E-07 -2.289319E-05 -2.446304E-08 -1.590659E-08 _shell_0000001006   
      1006   2  7.045995E-05  9.000024E+00 -3.341673E-08 -1.927134E-05  6.093900E-09 -3.234816E-08 _shell_0000001006   
      1006   3  7.486693E-05  9.000025E+00  4.504720E-08 -1.617720E-05  3.665085E-08 -1.873181E-08 _shell_0000001006   
      1006   4  7.219062E-05  9.000022E+00  6.695454E-08 -2.517707E-05 -1.251639E-08  8.572214E-09 _shell_0000001006   
      1006   5  7.591617E-05  9.000022E+00 -8.429698E-08 -2.115189E-05  1.227903E-08 -1.034266E-08 _shell_0000001006   
      1006   6  7.956775E-05  9.000022E+00 -4.742186E-08 -1.765443E-05  3.707445E-08  8.003288E-10 _shell_0000001006   
      1006   7  7.912509E-05  9.000020E+00  9.937864E-08 -2.745143E-05 -1.162469E-08  3.305106E-08 _shell_0000001006   
      1006   8  8.214741E-05  9.000021E+00  2.826321E-08 -2.302293E-05  7.409225E-09  1.166283E-08 _shell_0000001006   
      1006   9  8.506572E-05  9.000020E+00  7.513923E-08 -1.912215E-05  2.644313E-08  2.033249E-08 _shell_0000001006   
      1006  10  6.610092E-05  9.000024E+00  1.303228E-07 -2.276169E-05  9.320154E-16  1.628910E-15 _shell_0000001006   
      1006  11  7.057389E-05  9.000024E+00 -2.738395E-08 -1.915543E-05 -3.955595E-15 -7.329075E-16 _shell_0000001006   
      1006  12  7.500295E-05  9.000024E+00  7.317115E-08 -1.607688E-05  1.281513E-15 -1.728691E-14 _shell_0000001006   
      1006  13  7.225518E-05  9.000022E+00  3.920155E-08 -2.503820E-05 -4.810373E-15  3.283271E-15 _shell_0000001006   
      1006  14  7.600281E-05  9.000022E+00 -8.995886E-08 -2.102862E-05 -6.108320E-16 -4.008494E-15 _shell_0000001006   
      1006  15  7.967649E-05  9.000022E+00 -3.099261E-08 -1.754675E-05  4.400123E-15 -2.558159E-14 _shell_0000001006   
      1006  16  7.916235E-05  9.000020E+00  5.993106E-08 -2.730520E-05 -5.189101E-15 -1.038326E-15 _shell_0000001006   
      1006  17  8.220677E-05  9.000021E+00  1.090668E-08 -2.289230E-05  3.290835E-15 -7.126478E-15 _shell_0000001006   
      1006  18  8.514717E-05  9.000020E+00  7.987382E-08 -1.900711E-05  4.775907E-15 -3.408624E-14 _shell_0000001006   
      1006  19  6.600908E-05  9.000024E+00  1.463811E-07 -2.289319E-05  2.446304E-08  1.590660E-08 _shell_0000001006   
      1006  20  7.045995E-05  9.000024E+00 -3.341674E-08 -1.927134E-05 -6.093905E-09  3.234817E-08 _shell_0000001006   
      1006  21  7.486693E-05  9.000025E+00  4.504725E-08 -1.617720E-05 -3.665085E-08  1.873177E-08 _shell_0000001006   
      1006  22  7.219062E-05  9.000022E+00  6.695454E-08 -2.517707E-05  1.251638E-08 -8.572209E-09 _shell_0000001006   
      1006  23  7.591617E-05  9.000022E+00 -8.429700E-08 -2.115189E-05 -1.227903E-08  1.034264E-08 _shell_0000001006   
      1006  24  7.956775E-05  9.000022E+00 -4.742188E-08 -1.765443E-05 -3.707446E-08 -8.003868E-10 _shell_0000001006   
      1006  25  7.912509E-05  9.000020E+00  9.937867E-08 -2.745143E-05  1.162468E-08 -3.305107E-08 _shell_0000001006   
      1006  26  8.214741E-05  9.000021E+00  2.826315E-08 -2.302293E-05 -7.409219E-09 -1.166284E-08 _shell_0000001006   
      1006  27  8.506572E-05  9.000020E+00  7.513921E-08 -1.912215E-05 -2.644312E-08 -2.033257E-08 _shell_0000001006   
      1007   1  7.685197E-05  9.000024E+00  9.908923E-08 -1.387707E-05 -5.239441E-08 -1.372780E-08 _shell_0000001007   
      1007   2  7.890401E-05  9.000024E+00 -3.411886E-08 -9.884702E-06  2.907676E-10 -2.118045E-08 _shell_0000001007   
      1007   3  8.113368E-05  9.000023E+00  5.409535E-08 -6.215080E-06  5.297596E-08 -1.566673E-08 _shell_0000001007   
      1007   4  8.131120E-05  9.000022E+00  3.536040E-08 -1.511060E-05 -4.302057E-08  4.505620E-09 _shell_0000001007   
      1007   5  8.295119E-05  9.000021E+00 -8.098720E-08 -1.077376E-05  1.646590E-09 -4.936671E-09 _shell_0000001007   
      1007   6  8.475586E-05  9.000021E+00 -6.167390E-09 -6.759666E-06  4.631376E-08 -1.412686E-09 _shell_0000001007   
      1007   7  8.623200E-05  9.000020E+00  6.127108E-08 -1.631974E-05 -3.921675E-08  2.273908E-08 _shell_0000001007   
      1007   8  8.747108E-05  9.000019E+00 -1.222260E-08 -1.163843E-05 -2.567596E-09  1.130709E-08 _shell_0000001007   
      1007   9  8.886188E-05  9.000019E+00  7.519622E-08 -7.279867E-06  3.408154E-08  1.284139E-08 _shell_0000001007   
      1007  10  7.689929E-05  9.000024E+00  9.458273E-08 -1.381278E-05  2.211272E-15 -1.995414E-14 _shell_0000001007   
      1007  11  7.896162E-05  9.000024E+00 -2.833125E-08 -9.831289E-06 -4.368880E-15 -5.823251E-15 _shell_0000001007   
      1007  12  8.120159E-05  9.000023E+00  7.017708E-08 -6.172543E-06 -7.987755E-16 -3.344874E-14 _shell_0000001007   
      1007  13  8.133949E-05  9.000022E+00  2.269688E-08 -1.504288E-05  2.844540E-15 -2.033592E-14 _shell_0000001007   
      1007  14  8.298978E-05  9.000021E+00 -8.335656E-08 -1.071691E-05  4.193339E-16 -6.016729E-15 _shell_0000001007   
      1007  15  8.480474E-05  9.000021E+00  1.757399E-09 -6.713698E-06  8.089477E-17 -4.961045E-14 _shell_0000001007   
      1007  16  8.624125E-05  9.000020E+00  4.045068E-08 -1.624859E-05  2.942709E-15 -3.096954E-14 _shell_0000001007   
      1007  17  8.749063E-05  9.000019E+00 -2.274889E-08 -1.157815E-05 -1.551042E-15 -7.737320E-15 _shell_0000001007   
      1007  18  8.889173E-05  9.000019E+00  7.496406E-08 -7.230467E-06  1.482939E-15 -5.801085E-14 _shell_0000001007   
      1007  19  7.685197E-05  9.000024E+00  9.908924E-08 -1.387707E-05  5.239441E-08  1.372776E-08 _shell_0000001007   
      1007  20  7.890401E-05  9.000024E+00 -3.411886E-08 -9.884702E-06 -2.907846E-10  2.118044E-08 _shell_0000001007   
      1007  21  8.113368E-05  9.000023E+00  5.409533E-08 -6.215080E-06 -5.297596E-08  1.566667E-08 _shell_0000001007   
      1007  22  8.131120E-05  9.000022E+00  3.536037E-08 -1.511060E-05  4.302057E-08 -4.505659E-09 _shell_0000001007   
      1007  23  8.295119E-05  9.000021E+00 -8.098722E-08 -1.077376E-05 -1.646601E-09  4.936647E-09 _shell_0000001007   
      1007  24  8.475586E-05  9.000021E+00 -6.167431E-09 -6.759666E-06 -4.631376E-08  1.412581E-09 _shell_0000001007   
      1007  25  8.623200E-05  9.000020E+00  6.127104E-08 -1.631974E-05  3.921676E-08 -2.273914E-08 _shell_0000001007   
      1007  26  8.747108E-05  9.000019E+00 -1.222262E-08 -1.163843E-05  2.567607E-09 -1.130709E-08 _shell_0000001007   
      1007  27  8.886188E-05  9.000019E+00  7.519622E-08 -7.279867E-06 -3.408154E-08 -1.284151E-08 _shell_0000001007   
      1008   1  8.176299E-05  9.000023E+00  6.449270E-08 -3.865475E-06 -5.631352E-08 -1.385919E-08 _shell_0000001008   
      1008   2  8.164670E-05  9.000023E+00 -3.665007E-08 -4.275887E-14  5.424396E-15 -1.720788E-08 _shell_0000001008   
      1008   3  8.176299E-05  9.000023E+00  6.449267E-08  3.865475E-06  5.631351E-08 -1.385917E-08 _shell_0000001008   
      1008   4  8.530084E-05  9.000021E+00  1.680836E-08 -4.181697E-06 -4.478967E-08 -1.841511E-10 _shell_0000001008   
      1008   5  8.518790E-05  9.000021E+00 -7.652074E-08 -4.741654E-14 -7.635513E-16 -3.532789E-09 _shell_0000001008   
      1008   6  8.530084E-05  9.000021E+00  1.680836E-08  4.181697E-06  4.478967E-08 -1.841166E-10 _shell_0000001008   
      1008   7  8.921189E-05  9.000019E+00  6.950193E-08 -4.497918E-06 -3.326581E-08  1.349095E-08 _shell_0000001008   
      1008   8  8.910229E-05  9.000019E+00 -1.601349E-08 -6.548725E-14 -1.800709E-15  1.014228E-08 _shell_0000001008   
      1008   9  8.921189E-05  9.000019E+00  6.950192E-08  4.497918E-06  3.326581E-08  1.349097E-08 _shell_0000001008   
      1008  10  8.180220E-05  9.000023E+00  6.998485E-08 -3.854321E-06  2.220973E-15 -3.176374E-14 _shell_0000001008   
      1008  11  8.168591E-05  9.000023E+00 -3.115794E-08 -4.744199E-14  6.112950E-15  3.869705E-16 _shell_0000001008   
      1008  12  8.180220E-05  9.000023E+00  6.998487E-08  3.854321E-06  2.012647E-15 -1.952666E-14 _shell_0000001008   
      1008  13  8.532053E-05  9.000021E+00  1.393467E-08 -4.170542E-06  2.672430E-15 -4.723838E-14 _shell_0000001008   
      1008  14  8.520759E-05  9.000021E+00 -7.939443E-08 -3.950106E-14  4.428598E-15 -1.130004E-15 _shell_0000001008   
      1008  15  8.532053E-05  9.000021E+00  1.393468E-08  4.170542E-06  1.158052E-15 -1.858726E-14 _shell_0000001008   
      1008  16  8.921205E-05  9.000019E+00  5.826246E-08 -4.486763E-06  4.597061E-15 -6.110436E-14 _shell_0000001008   
      1008  17  8.910246E-05  9.000019E+00 -2.725301E-08 -4.683115E-14  5.562083E-15 -1.832523E-15 _shell_0000001008   
      1008  18  8.921205E-05  9.000019E+00  5.826241E-08  4.486763E-06  6.681724E-16 -1.576100E-14 _shell_0000001008   
      1008  19  8.176299E-05  9.000023E+00  6.449267E-08 -3.865475E-06  5.631352E-08  1.385913E-08 _shell_0000001008   
      1008  20  8.164670E-05  9.000023E+00 -3.665006E-08 -4.853641E-14  5.421214E-15  1.720789E-08 _shell_0000001008   
      1008  21  8.176299E-05  9.000023E+00  6.449273E-08  3.865475E-06 -5.631351E-08  1.385913E-08 _shell_0000001008   
      1008  22  8.530084E-05  9.000021E+00  1.680831E-08 -4.181697E-06  4.478967E-08  1.840469E-10 _shell_0000001008   
      1008  23  8.518790E-05  9.000021E+00 -7.652076E-08 -2.990576E-14  2.188847E-15  3.532787E-09 _shell_0000001008   
      1008  24  8.530084E-05  9.000021E+00  1.680837E-08  4.181696E-06 -4.478967E-08  1.840722E-10 _shell_0000001008   
      1008  25  8.921189E-05  9.000019E+00  6.950192E-08 -4.497918E-06  3.326582E-08 -1.349107E-08 _shell_0000001008   
      1008  26  8.910229E-05  9.000019E+00 -1.601352E-08 -3.659956E-14  1.628910E-15 -1.014229E-08 _shell_0000001008   
      1008  27  8.921189E-05  9.000019E+00  6.950191E-08  4.497918E-06 -3.326582E-08 -1.349101E-08 _shell_0000001008   
      1009   1  8.113368E-05  9.000023E+00  5.409537E-08  6.215080E-06 -5.297597E-08 -1.566673E-08 _shell_0000001009   
      1009   2  7.890401E-05  9.000024E+00 -3.411885E-08  9.884702E-06 -2.907792E-10 -2.118044E-08 _shell_0000001009   
      1009   3  7.685197E-05  9.000024E+00  9.908922E-08  1.387707E-05  5.239440E-08 -1.372778E-08 _shell_0000001009   
      1009   4  8.475586E-05  9.000021E+00 -6.167380E-09  6.759666E-06 -4.631377E-08 -1.412691E-09 _shell_0000001009   
      1009   5  8.295119E-05  9.000021E+00 -8.098719E-08  1.077376E-05 -1.646601E-09 -4.936671E-09 _shell_0000001009   
      1009   6  8.131120E-05  9.000022E+00  3.536041E-08  1.511060E-05  4.302056E-08  4.505645E-09 _shell_0000001009   
      1009   7  8.886188E-05  9.000019E+00  7.519623E-08  7.279867E-06 -3.408154E-08  1.284138E-08 _shell_0000001009   
      1009   8  8.747108E-05  9.000019E+00 -1.222257E-08  1.163843E-05  2.567606E-09  1.130706E-08 _shell_0000001009   
      1009   9  8.623200E-05  9.000020E+00  6.127112E-08  1.631974E-05  3.921675E-08  2.273907E-08 _shell_0000001009   
      1009  10  8.120159E-05  9.000023E+00  7.017714E-08  6.172543E-06 -2.793015E-15 -2.932037E-14 _shell_0000001009   
      1009  11  7.896162E-05  9.000024E+00 -2.833126E-08  9.831289E-06 -1.419251E-15 -3.583498E-15 _shell_0000001009   
      1009  12  7.689929E-05  9.000024E+00  9.458268E-08  1.381278E-05 -3.458841E-15 -4.790115E-15 _shell_0000001009   
      1009  13  8.480474E-05  9.000021E+00  1.757401E-09  6.713698E-06 -3.600794E-15 -2.359373E-14 _shell_0000001009   
      1009  14  8.298978E-05  9.000021E+00 -8.335656E-08  1.071691E-05 -3.868664E-15 -1.588135E-15 _shell_0000001009   
      1009  15  8.133949E-05  9.000022E+00  2.269691E-08  1.504288E-05 -2.284606E-15 -1.461680E-14 _shell_0000001009   
      1009  16  8.889173E-05  9.000019E+00  7.496413E-08  7.230467E-06 -4.708571E-15 -2.669365E-14 _shell_0000001009   
      1009  17  8.749063E-05  9.000019E+00 -2.274888E-08  1.157815E-05 -9.003856E-15 -2.239752E-15 _shell_0000001009   
      1009  18  8.624125E-05  9.000020E+00  4.045065E-08  1.624859E-05 -9.460914E-15 -1.599007E-14 _shell_0000001009   
      1009  19  8.113368E-05  9.000023E+00  5.409543E-08  6.215080E-06  5.297597E-08  1.566667E-08 _shell_0000001009   
      1009  20  7.890401E-05  9.000024E+00 -3.411884E-08  9.884702E-06  2.907698E-10  2.118044E-08 _shell_0000001009   
      1009  21  7.685197E-05  9.000024E+00  9.908925E-08  1.387707E-05 -5.239442E-08  1.372776E-08 _shell_0000001009   
      1009  22  8.475586E-05  9.000021E+00 -6.167373E-09  6.759666E-06  4.631376E-08  1.412635E-09 _shell_0000001009   
      1009  23  8.295119E-05  9.000021E+00 -8.098720E-08  1.077376E-05  1.646583E-09  4.936677E-09 _shell_0000001009   
      1009  24  8.131120E-05  9.000022E+00  3.536041E-08  1.511060E-05 -4.302057E-08 -4.505662E-09 _shell_0000001009   
      1009  25  8.886188E-05  9.000019E+00  7.519624E-08  7.279867E-06  3.408153E-08 -1.284145E-08 _shell_0000001009   
      1009  26  8.747108E-05  9.000019E+00 -1.222261E-08  1.163843E-05 -2.567629E-09 -1.130706E-08 _shell_0000001009   
      1009  27  8.623200E-05  9.000020E+00  6.127113E-08  1.631974E-05 -3.921676E-08 -2.273911E-08 _shell_0000001009   
      1010   1  7.486693E-05  9.000025E+00  4.504724E-08  1.617720E-05 -3.665085E-08 -1.873180E-08 _shell_0000001010   
      1010   2  7.045995E-05  9.000024E+00 -3.341673E-08  1.927134E-05 -6.093904E-09 -3.234817E-08 _shell_0000001010   
      1010   3  6.600908E-05  9.000024E+00  1.463811E-07  2.289319E-05  2.446305E-08 -1.590658E-08 _shell_0000001010   
      1010   4  7.956775E-05  9.000022E+00 -4.742184E-08  1.765443E-05 -3.707446E-08  8.003209E-10 _shell_0000001010   
      1010   5  7.591617E-05  9.000022E+00 -8.429699E-08  2.115189E-05 -1.227904E-08 -1.034266E-08 _shell_0000001010   
      1010   6  7.219062E-05  9.000022E+00  6.695453E-08  2.517707E-05  1.251638E-08  8.572231E-09 _shell_0000001010   
      1010   7  8.506572E-05  9.000020E+00  7.513924E-08  1.912215E-05 -2.644313E-08  2.033248E-08 _shell_0000001010   
      1010   8  8.214741E-05  9.000021E+00  2.826316E-08  2.302293E-05 -7.409222E-09  1.166284E-08 _shell_0000001010   
      1010   9  7.912509E-05  9.000020E+00  9.937863E-08  2.745143E-05  1.162469E-08  3.305107E-08 _shell_0000001010   
      1010  10  7.500295E-05  9.000024E+00  7.317117E-08  1.607688E-05 -1.947056E-15 -1.343850E-14 _shell_0000001010   
      1010  11  7.057389E-05  9.000024E+00 -2.738393E-08  1.915543E-05  3.988616E-15 -1.172805E-14 _shell_0000001010   
      1010  12  6.610092E-05  9.000024E+00  1.303228E-07  2.276169E-05  2.745779E-15 -5.757280E-15 _shell_0000001010   
      1010  13  7.967649E-05  9.000022E+00 -3.099261E-08  1.754675E-05  8.011104E-16 -1.547464E-14 _shell_0000001010   
      1010  14  7.600281E-05  9.000022E+00 -8.995886E-08  2.102862E-05  1.832514E-15 -1.171792E-14 _shell_0000001010   
      1010  15  7.225518E-05  9.000022E+00  3.920154E-08  2.503820E-05  5.207278E-15 -1.936893E-14 _shell_0000001010   
      1010  16  8.514717E-05  9.000020E+00  7.987389E-08  1.900711E-05 -5.166711E-15 -2.262138E-14 _shell_0000001010   
      1010  17  8.220677E-05  9.000021E+00  1.090667E-08  2.289230E-05  4.797025E-15 -1.119876E-14 _shell_0000001010   
      1010  18  7.916235E-05  9.000020E+00  5.993098E-08  2.730520E-05  1.047049E-14 -2.667979E-14 _shell_0000001010   
      1010  19  7.486693E-05  9.000025E+00  4.504726E-08  1.617720E-05  3.665085E-08  1.873178E-08 _shell_0000001010   
      1010  20  7.045995E-05  9.000024E+00 -3.341671E-08  1.927134E-05  6.093906E-09  3.234815E-08 _shell_0000001010   
      1010  21  6.600908E-05  9.000024E+00  1.463811E-07  2.289319E-05 -2.446303E-08  1.590657E-08 _shell_0000001010   
      1010  22  7.956775E-05  9.000022E+00 -4.742185E-08  1.765443E-05  3.707446E-08 -8.003584E-10 _shell_0000001010   
      1010  23  7.591617E-05  9.000022E+00 -8.429699E-08  2.115189E-05  1.227903E-08  1.034263E-08 _shell_0000001010   
      1010  24  7.219062E-05  9.000022E+00  6.695450E-08  2.517707E-05 -1.251638E-08 -8.572271E-09 _shell_0000001010   
      1010  25  8.506572E-05  9.000020E+00  7.513927E-08  1.912215E-05  2.644312E-08 -2.033254E-08 _shell_0000001010   
      1010  26  8.214741E-05  9.000021E+00  2.826317E-08  2.302293E-05  7.409229E-09 -1.166285E-08 _shell_0000001010   
      1010  27  7.912509E-05  9.000020E+00  9.937862E-08  2.745143E-05 -1.162467E-08 -3.305112E-08 _shell_0000001010   
      1011   1  6.242601E-05  9.000023E+00 -3.285787E-08  2.462396E-05  1.698216E-08 -1.908893E-08 _shell_0000001011   
      1011   2  5.621462E-05  9.000019E+00  3.549594E-08  2.567316E-05 -1.352491E-08 -3.949981E-08 _shell_0000001011   
      1011   3  4.934703E-05  9.000014E+00  3.422394E-07  2.712841E-05 -4.403195E-08 -1.905994E-08 _shell_0000001011   
      1011   4  6.891230E-05  9.000021E+00 -1.603524E-07  2.717392E-05  2.022650E-09  6.829003E-09 _shell_0000001011   
      1011   5  6.340976E-05  9.000018E+00 -7.609318E-08  2.862703E-05 -1.496634E-08 -1.110965E-08 _shell_0000001011   
      1011   6  5.721017E-05  9.000013E+00  1.512373E-07  3.048619E-05 -3.195530E-08  1.180240E-08 _shell_0000001011   
      1011   7  7.674814E-05  9.000020E+00  4.013729E-08  2.979503E-05  1.169613E-08  3.274697E-08 _shell_0000001011   
      1011   8  7.190518E-05  9.000018E+00  2.534809E-08  3.165205E-05  8.225208E-09  1.728051E-08 _shell_0000001011   
      1011   9  6.632433E-05  9.000013E+00  5.831172E-08  3.391512E-05  4.754305E-09  4.266476E-08 _shell_0000001011   
      1011  10  6.270754E-05  9.000023E+00  1.995308E-08  2.446061E-05  6.852570E-15 -8.755384E-15 _shell_0000001011   
      1011  11  5.644351E-05  9.000019E+00  3.566394E-08  2.550463E-05  1.227678E-14 -6.434081E-15 _shell_0000001011   
      1011  12  4.952328E-05  9.000013E+00  2.897644E-07  2.695469E-05  1.139937E-14  6.128665E-15 _shell_0000001011   
      1011  13  6.918477E-05  9.000021E+00 -1.114269E-07  2.699302E-05  3.957130E-15 -1.628908E-14 _shell_0000001011   
      1011  14  6.362958E-05  9.000018E+00 -7.981059E-08  2.844095E-05  2.239735E-15 -6.423960E-15 _shell_0000001011   
      1011  15  5.737735E-05  9.000013E+00  9.487691E-08  3.029492E-05  8.637207E-15 -5.351304E-17 _shell_0000001011   
      1011  16  7.701154E-05  9.000020E+00  8.517752E-08  2.959658E-05  8.099673E-15 -3.035869E-14 _shell_0000001011   
      1011  17  7.211594E-05  9.000018E+00  1.774534E-08  3.144842E-05  3.671101E-15 -4.479496E-15 _shell_0000001011   
      1011  18  6.648244E-05  9.000013E+00 -1.934020E-09  3.370630E-05  6.884839E-15 -2.220683E-15 _shell_0000001011   
      1011  19  6.242601E-05  9.000023E+00 -3.285789E-08  2.462396E-05 -1.698213E-08  1.908891E-08 _shell_0000001011   
      1011  20  5.621462E-05  9.000019E+00  3.549595E-08  2.567316E-05  1.352493E-08  3.949982E-08 _shell_0000001011   
      1011  21  4.934703E-05  9.000014E+00  3.422394E-07  2.712841E-05  4.403197E-08  1.905995E-08 _shell_0000001011   
      1011  22  6.891230E-05  9.000021E+00 -1.603525E-07  2.717392E-05 -2.022640E-09 -6.829046E-09 _shell_0000001011   
      1011  23  6.340976E-05  9.000018E+00 -7.609319E-08  2.862703E-05  1.496634E-08  1.110963E-08 _shell_0000001011   
      1011  24  5.721017E-05  9.000013E+00  1.512373E-07  3.048619E-05  3.195532E-08 -1.180240E-08 _shell_0000001011   
      1011  25  7.674814E-05  9.000020E+00  4.013724E-08  2.979503E-05 -1.169612E-08 -3.274705E-08 _shell_0000001011   
      1011  26  7.190518E-05  9.000018E+00  2.534807E-08  3.165205E-05 -8.225206E-09 -1.728052E-08 _shell_0000001011   
      1011  27  6.632433E-05  9.000013E+00  5.831171E-08  3.391512E-05 -4.754289E-09 -4.266477E-08 _shell_0000001011   
      1012   1  4.418313E-05  9.000008E+00 -1.238571E-07  2.667463E-05  1.442088E-07 -9.019196E-09 _shell_0000001012   
      1012   2  3.824986E-05  8.999995E+00  5.491891E-08  2.317870E-05 -5.697779E-08 -4.383601E-08 _shell_0000001012   
      1012   3  2.983570E-05  8.999973E+00 -3.594480E-07  1.947795E-05 -2.581643E-07 -1.135295E-07 _shell_0000001012   
      1012   4  5.207207E-05  9.000008E+00 -3.884004E-07  3.005960E-05  1.302248E-07  2.211486E-08 _shell_0000001012   
      1012   5  4.656196E-05  8.999997E+00  1.398111E-07  2.648428E-05 -8.496634E-08 -1.424028E-08 _shell_0000001012   
      1012   6  3.860582E-05  8.999977E+00  1.562589E-07  2.270414E-05 -3.001575E-07 -8.547224E-08 _shell_0000001012   
      1012   7  6.183882E-05  9.000009E+00 -3.364236E-07  3.377475E-05  1.368781E-07  5.324898E-08 _shell_0000001012   
      1012   8  5.671059E-05  8.999999E+00  4.449162E-07  3.012004E-05 -9.231760E-08  1.535543E-08 _shell_0000001012   
      1012   9  4.917121E-05  8.999982E+00  7.958712E-07  2.626050E-05 -3.215133E-07 -5.741489E-08 _shell_0000001012   
      1012  10  4.459485E-05  9.000008E+00 -9.217782E-08  2.649561E-05  6.267184E-15  2.239770E-15 _shell_0000001012   
      1012  11  3.861342E-05  8.999994E+00  3.843365E-08  2.300225E-05 -1.790761E-15 -8.673862E-15 _shell_0000001012   
      1012  12  3.015109E-05  8.999973E+00 -4.240979E-07  1.930407E-05  4.972230E-15 -2.728510E-15 _shell_0000001012   
      1012  13  5.248830E-05  9.000008E+00 -3.547896E-07  2.986452E-05  7.736111E-15 -1.628822E-15 _shell_0000001012   
      1012  14  4.693002E-05  8.999996E+00  1.252574E-07  2.629178E-05 -3.257842E-15 -8.460093E-15 _shell_0000001012   
      1012  15  3.892572E-05  8.999977E+00  9.354052E-08  2.251420E-05 -7.726551E-16 -1.137956E-14 _shell_0000001012   
      1012  16  6.225956E-05  9.000009E+00 -3.008812E-07  3.356361E-05  4.619446E-15 -6.332279E-15 _shell_0000001012   
      1012  17  5.708316E-05  8.999999E+00  4.322940E-07  2.991147E-05  1.496814E-16 -1.628922E-15 _shell_0000001012   
      1012  18  4.949562E-05  8.999981E+00  7.350844E-07  2.605451E-05  5.972228E-15 -1.033978E-14 _shell_0000001012   
      1012  19  4.418313E-05  9.000008E+00 -1.238571E-07  2.667463E-05 -1.442088E-07  9.019196E-09 _shell_0000001012   
      1012  20  3.824986E-05  8.999995E+00  5.491888E-08  2.317870E-05  5.697780E-08  4.383599E-08 _shell_0000001012   
      1012  21  2.983570E-05  8.999973E+00 -3.594480E-07  1.947795E-05  2.581644E-07  1.135295E-07 _shell_0000001012   
      1012  22  5.207207E-05  9.000008E+00 -3.884005E-07  3.005960E-05 -1.302248E-07 -2.211487E-08 _shell_0000001012   
      1012  23  4.656196E-05  8.999997E+00  1.398111E-07  2.648428E-05  8.496634E-08  1.424026E-08 _shell_0000001012   
      1012  24  3.860582E-05  8.999977E+00  1.562588E-07  2.270414E-05  3.001575E-07  8.547221E-08 _shell_0000001012   
      1012  25  6.183882E-05  9.000009E+00 -3.364236E-07  3.377475E-05 -1.368781E-07 -5.324900E-08 _shell_0000001012   
      1012  26  5.671059E-05  8.999999E+00  4.449162E-07  3.012004E-05  9.231759E-08 -1.535543E-08 _shell_0000001012   
      1012  27  4.917121E-05  8.999982E+00  7.958713E-07  2.626050E-05  3.215133E-07  5.741487E-08 _shell_0000001012   
      1013   1  2.534857E-05  8.999958E+00 -7.350598E-07  1.520142E-05  2.930245E-07 -1.604852E-08 _shell_0000001013   
      1013   2  2.674194E-05  8.999927E+00  1.134861E-06  8.186552E-06  7.223620E-08  2.090134E-07 _shell_0000001013   
      1013   3  2.190356E-05  8.999878E+00 -5.178309E-07  1.160464E-06 -1.485521E-07  1.209257E-07 _shell_0000001013   
      1013   4  3.340612E-05  8.999962E+00 -6.820486E-07  1.813688E-05  3.374851E-07 -5.677546E-09 _shell_0000001013   
      1013   5  3.429736E-05  8.999930E+00  5.397149E-07  9.072896E-06  5.119401E-08  1.601439E-07 _shell_0000001013   
      1013   6  2.926999E-05  8.999880E+00 -1.030451E-06 -2.307245E-09 -2.350971E-07  1.281563E-08 _shell_0000001013   
      1013   7  4.234659E-05  8.999966E+00 -9.202942E-07  2.095081E-05  3.831025E-07  4.693493E-09 _shell_0000001013   
      1013   8  4.273338E-05  8.999933E+00 -3.520860E-07  9.837712E-06  3.130854E-08  1.112744E-07 _shell_0000001013   
      1013   9  3.751471E-05  8.999883E+00 -1.845125E-06 -1.286606E-06 -3.204854E-07 -9.529439E-08 _shell_0000001013   
      1013  10  2.600835E-05  8.999958E+00 -6.716390E-07  1.517244E-05  6.279907E-15  2.036582E-16 _shell_0000001013   
      1013  11  2.733247E-05  8.999926E+00  1.129033E-06  8.225873E-06 -2.090130E-15 -8.347035E-16 _shell_0000001013   
      1013  12  2.242484E-05  8.999877E+00 -5.929065E-07  1.268089E-06 -1.161019E-15  1.903617E-15 _shell_0000001013   
      1013  13  3.418543E-05  8.999962E+00 -5.673998E-07  1.808482E-05  5.051555E-15 -8.958899E-15 _shell_0000001013   
      1013  14  3.500742E-05  8.999929E+00  5.851154E-07  9.089134E-06 -5.987546E-16  2.932606E-15 _shell_0000001013   
      1013  15  2.991080E-05  8.999879E+00 -1.054299E-06  8.223459E-08  3.446862E-15 -7.487547E-15 _shell_0000001013   
      1013  16  4.324543E-05  8.999966E+00 -7.544173E-07  2.087567E-05  7.940265E-15 -8.979126E-15 _shell_0000001013   
      1013  17  4.356297E-05  8.999932E+00 -2.554574E-07  9.830867E-06  4.114094E-15  1.038421E-14 _shell_0000001013   
      1013  18  3.827505E-05  8.999882E+00 -1.817745E-06 -1.225147E-06  5.345636E-15 -6.420233E-15 _shell_0000001013   
      1013  19  2.534857E-05  8.999958E+00 -7.350599E-07  1.520142E-05 -2.930245E-07  1.604852E-08 _shell_0000001013   
      1013  20  2.674194E-05  8.999927E+00  1.134861E-06  8.186552E-06 -7.223620E-08 -2.090134E-07 _shell_0000001013   
      1013  21  2.190356E-05  8.999878E+00 -5.178309E-07  1.160464E-06  1.485521E-07 -1.209257E-07 _shell_0000001013   
      1013  22  3.340612E-05  8.999962E+00 -6.820486E-07  1.813688E-05 -3.374851E-07  5.677529E-09 _shell_0000001013   
      1013  23  3.429736E-05  8.999930E+00  5.397149E-07  9.072896E-06 -5.119402E-08 -1.601439E-07 _shell_0000001013   
      1013  24  2.926998E-05  8.999880E+00 -1.030451E-06 -2.307259E-09  2.350971E-07 -1.281565E-08 _shell_0000001013   
      1013  25  4.234659E-05  8.999966E+00 -9.202941E-07  2.095081E-05 -3.831025E-07 -4.693506E-09 _shell_0000001013   
      1013  26  4.273338E-05  8.999933E+00 -3.520860E-07  9.837712E-06 -3.130854E-08 -1.112744E-07 _shell_0000001013   
      1013  27  3.751471E-05  8.999883E+00 -1.845125E-06 -1.286606E-06  3.204854E-07  9.529437E-08 _shell_0000001013   
      1014   1  2.629578E-05  8.999845E+00  6.975771E-07 -1.797323E-06  4.947725E-08 -5.498612E-08 _shell_0000001014   
      1014   2  2.505049E-05  8.999785E+00 -7.344775E-07  9.368069E-07 -9.747259E-08 -2.218522E-07 _shell_0000001014   
      1014   3  2.593644E-05  8.999730E+00  7.061249E-07  5.221680E-06 -2.444224E-07 -1.603230E-07 _shell_0000001014   
      1014   4  3.529627E-05  8.999847E+00  9.650432E-07 -3.827774E-06  2.457267E-08 -1.395381E-07 _shell_0000001014   
      1014   5  3.477061E-05  8.999783E+00 -7.138184E-07  1.229132E-06  4.572994E-07 -1.662065E-07 _shell_0000001014   
      1014   6  3.614781E-05  8.999723E+00 -5.294510E-08  7.836781E-06  8.900262E-07  3.552022E-08 _shell_0000001014   
      1014   7  4.711708E-05  8.999850E+00  1.820874E-06 -6.669022E-06 -5.391751E-08 -2.240901E-07 _shell_0000001014   
      1014   8  4.741824E-05  8.999782E+00  1.452711E-07  7.106598E-07  9.584858E-07 -1.105609E-07 _shell_0000001014   
      1014   9  4.939384E-05  8.999717E+00  2.764815E-07  9.641085E-06  1.970889E-06  2.313634E-07 _shell_0000001014   
      1014  10  2.600631E-05  8.999844E+00  3.097977E-07 -1.527177E-06 -2.043449E-15 -3.054014E-15 _shell_0000001014   
      1014  11  2.503931E-05  8.999785E+00 -8.439669E-07  1.556061E-06 -1.475602E-14 -4.273450E-16 _shell_0000001014   
      1014  12  2.620355E-05  8.999730E+00  8.749255E-07  6.190044E-06 -2.935544E-14  9.055550E-15 _shell_0000001014   
      1014  13  3.561774E-05  8.999846E+00  8.390958E-07 -3.464865E-06 -4.097725E-15 -7.320317E-15 _shell_0000001014   
      1014  14  3.537038E-05  8.999783E+00 -5.614759E-07  1.941150E-06 -1.487592E-14 -1.130115E-15 _shell_0000001014   
      1014  15  3.702586E-05  8.999724E+00  3.776873E-07  8.897908E-06 -1.398940E-14 -1.502388E-14 _shell_0000001014   
      1014  16  4.804949E-05  8.999849E+00  1.956758E-06 -6.213350E-06  3.525643E-15 -1.244081E-14 _shell_0000001014   
      1014  17  4.862894E-05  8.999782E+00  5.594456E-07  1.515441E-06  2.605132E-15  2.138071E-15 _shell_0000001014   
      1014  18  5.088284E-05  8.999718E+00  9.689459E-07  1.079498E-05 -8.089195E-15 -2.637452E-14 _shell_0000001014   
      1014  19  2.629578E-05  8.999845E+00  6.975771E-07 -1.797323E-06 -4.947725E-08  5.498612E-08 _shell_0000001014   
      1014  20  2.505049E-05  8.999785E+00 -7.344776E-07  9.368069E-07  9.747257E-08  2.218522E-07 _shell_0000001014   
      1014  21  2.593644E-05  8.999730E+00  7.061248E-07  5.221680E-06  2.444224E-07  1.603230E-07 _shell_0000001014   
      1014  22  3.529627E-05  8.999847E+00  9.650432E-07 -3.827774E-06 -2.457268E-08  1.395381E-07 _shell_0000001014   
      1014  23  3.477061E-05  8.999783E+00 -7.138184E-07  1.229132E-06 -4.572994E-07  1.662065E-07 _shell_0000001014   
      1014  24  3.614781E-05  8.999723E+00 -5.294522E-08  7.836781E-06 -8.900262E-07 -3.552023E-08 _shell_0000001014   
      1014  25  4.711708E-05  8.999850E+00  1.820874E-06 -6.669022E-06  5.391752E-08  2.240901E-07 _shell_0000001014   
      1014  26  4.741824E-05  8.999782E+00  1.452711E-07  7.106599E-07 -9.584858E-07  1.105609E-07 _shell_0000001014   
      1014  27  4.939384E-05  8.999717E+00  2.764814E-07  9.641085E-06 -1.970889E-06 -2.313635E-07 _shell_0000001014   
      1015   1  1.782809E-05  8.999698E+00 -6.359087E-07  1.034673E-05  9.794756E-08  3.411875E-09 _shell_0000001015   
      1015   2  1.170910E-05  8.999643E+00  1.099191E-06  8.907573E-06 -3.231227E-08  3.264968E-08 _shell_0000001015   
      1015   3 -1.156929E-06  8.999569E+00 -1.059321E-06  1.706144E-06 -1.625721E-07 -4.407916E-07 _shell_0000001015   
      1015   4  2.879223E-05  8.999693E+00 -9.444402E-07  1.701890E-05  1.383901E-06  2.198515E-07 _shell_0000001015   
      1015   5  1.724496E-05  8.999645E+00  7.929985E-07  1.467569E-05  3.387807E-08  1.796715E-07 _shell_0000001015   
      1015   6 -5.466626E-07  8.999578E+00 -1.902567E-07  6.570214E-06 -1.316145E-06 -3.631877E-07 _shell_0000001015   
      1015   7  4.318040E-05  8.999689E+00 -1.246257E-07  2.532589E-05  2.838025E-06  4.362912E-07 _shell_0000001015   
      1015   8  2.586852E-05  8.999648E+00  8.303563E-07  2.207863E-05  2.682389E-07  3.266933E-07 _shell_0000001015   
      1015   9  2.814958E-06  8.999588E+00  2.375626E-07  1.306910E-05 -2.301547E-06 -2.855838E-07 _shell_0000001015   
      1015  10  1.910477E-05  8.999699E+00 -6.406957E-08  1.110441E-05 -2.594737E-14 -6.109871E-16 _shell_0000001015   
      1015  11  1.252930E-05  8.999643E+00  1.214551E-06  8.938937E-06 -1.049223E-14 -1.050631E-14 _shell_0000001015   
      1015  12 -7.932153E-07  8.999568E+00 -1.400439E-06  1.011190E-06 -1.178772E-14  1.781097E-14 _shell_0000001015   
      1015  13  2.879784E-05  8.999693E+00 -9.173394E-07  1.762442E-05 -1.097100E-14 -1.873213E-14 _shell_0000001015   
      1015  14  1.679410E-05  8.999644E+00  3.636206E-07  1.455490E-05 -1.221687E-14 -1.002827E-14 _shell_0000001015   
      1015  15 -1.454005E-06  8.999576E+00 -1.076113E-06  5.723101E-06 -1.714109E-14  1.685117E-14 _shell_0000001015   
      1015  16  4.191496E-05  8.999689E+00 -6.422630E-07  2.577925E-05 -6.534485E-15 -3.504179E-14 _shell_0000001015   
      1015  17  2.414660E-05  8.999646E+00 -1.437598E-07  2.180567E-05 -3.257819E-15 -1.628910E-15 _shell_0000001015   
      1015  18  6.365598E-07  8.999586E+00 -1.193032E-06  1.206983E-05 -1.117252E-14  2.078762E-14 _shell_0000001015   
      1015  19  1.782809E-05  8.999698E+00 -6.359087E-07  1.034673E-05 -9.794759E-08 -3.411872E-09 _shell_0000001015   
      1015  20  1.170910E-05  8.999643E+00  1.099191E-06  8.907573E-06  3.231223E-08 -3.264970E-08 _shell_0000001015   
      1015  21 -1.156929E-06  8.999569E+00 -1.059321E-06  1.706144E-06  1.625721E-07  4.407917E-07 _shell_0000001015   
      1015  22  2.879223E-05  8.999693E+00 -9.444402E-07  1.701890E-05 -1.383901E-06 -2.198516E-07 _shell_0000001015   
      1015  23  1.724496E-05  8.999645E+00  7.929985E-07  1.467569E-05 -3.387809E-08 -1.796715E-07 _shell_0000001015   
      1015  24 -5.466627E-07  8.999578E+00 -1.902567E-07  6.570214E-06  1.316145E-06  3.631877E-07 _shell_0000001015   
      1015  25  4.318040E-05  8.999689E+00 -1.246257E-07  2.532589E-05 -2.838025E-06 -4.362913E-07 _shell_0000001015   
      1015  26  2.586852E-05  8.999648E+00  8.303563E-07  2.207863E-05 -2.682389E-07 -3.266933E-07 _shell_0000001015   
      1015  27  2.814958E-06  8.999588E+00  2.375626E-07  1.306910E-05  2.301547E-06  2.855838E-07 _shell_0000001015   
      1101   1  6.865037E-06  8.999603E+00  1.621769E-06 -1.731454E-05  1.275676E-06  2.156579E-06 _shell_0000001101   
      1101   2  2.938262E-05  8.999645E+00 -3.514502E-07 -3.040361E-05  1.385549E-07 -1.440346E-06 _shell_0000001101   
      1101   3  5.243369E-05  8.999687E+00  4.705057E-07 -3.546383E-05 -9.985664E-07  4.454507E-07 _shell_0000001101   
      1101   4  1.188288E-05  8.999629E+00 -9.437732E-07 -3.230877E-05 -3.658940E-06  1.366662E-06 _shell_0000001101   
      1101   5  4.025569E-05  8.999651E+00  2.744619E-06 -4.317968E-05  1.347043E-06 -2.251465E-06 _shell_0000001101   
      1101   6  6.367928E-05  8.999666E+00 -3.564832E-06 -4.602173E-05  6.353026E-06 -3.868690E-07 _shell_0000001101   
      1101   7  1.944521E-05  8.999656E+00 -6.258027E-06 -5.199356E-05 -9.418299E-06  5.767447E-07 _shell_0000001101   
      1101   8  5.532275E-05  8.999658E+00  6.940781E-06 -6.064630E-05  1.730788E-06 -3.062583E-06 _shell_0000001101   
      1101   9  8.076833E-05  8.999649E+00 -2.651276E-06 -6.127019E-05  1.287987E-05 -1.219189E-06 _shell_0000001101   
      1101  10  3.329550E-06  8.999595E+00 -1.696976E-06 -1.723830E-05 -2.616274E-14 -2.798682E-14 _shell_0000001101   
      1101  11  2.767895E-05  8.999642E+00 -1.838374E-06 -2.777607E-05 -8.901587E-15  1.159030E-14 _shell_0000001101   
      1101  12  5.256185E-05  8.999688E+00  8.154037E-07 -3.028498E-05  8.437470E-15 -2.009680E-14 _shell_0000001101   
      1101  13  1.281218E-05  8.999624E+00 -2.349038E-06 -3.162193E-05 -3.107668E-14 -1.158585E-14 _shell_0000001101   
      1101  14  4.301682E-05  8.999650E+00  3.171176E-06 -3.994153E-05 -1.064562E-14  2.402534E-15 _shell_0000001101   
      1101  15  6.827222E-05  8.999669E+00 -1.306454E-06 -4.023228E-05  1.184684E-14 -2.267271E-14 _shell_0000001101   
      1101  16  2.483930E-05  8.999652E+00 -5.749812E-06 -5.069611E-05 -2.194866E-14 -3.980534E-15 _shell_0000001101   
      1101  17  6.254866E-05  8.999659E+00  9.280818E-06 -5.679754E-05 -4.771280E-15 -1.361639E-14 _shell_0000001101   
      1101  18  8.982606E-05  8.999654E+00  1.520583E-06 -5.487013E-05  1.241450E-14 -3.595936E-14 _shell_0000001101   
      1101  19  6.865037E-06  8.999603E+00  1.621769E-06 -1.731454E-05 -1.275676E-06 -2.156580E-06 _shell_0000001101   
      1101  20  2.938262E-05  8.999645E+00 -3.514502E-07 -3.040361E-05 -1.385549E-07  1.440346E-06 _shell_0000001101   
      1101  21  5.243369E-05  8.999687E+00  4.705057E-07 -3.546383E-05  9.985664E-07 -4.454507E-07 _shell_0000001101   
      1101  22  1.188288E-05  8.999629E+00 -9.437731E-07 -3.230877E-05  3.658939E-06 -1.366662E-06 _shell_0000001101   
      1101  23  4.025569E-05  8.999651E+00  2.744619E-06 -4.317968E-05 -1.347043E-06  2.251465E-06 _shell_0000001101   
      1101  24  6.367928E-05  8.999666E+00 -3.564832E-06 -4.602173E-05 -6.353026E-06  3.868689E-07 _shell_0000001101   
      1101  25  1.944521E-05  8.999656E+00 -6.258027E-06 -5.199356E-05  9.418299E-06 -5.767447E-07 _shell_0000001101   
      1101  26  5.532275E-05  8.999658E+00  6.940781E-06 -6.064630E-05 -1.730788E-06  3.062583E-06 _shell_0000001101   
      1101  27  8.076833E-05  8.999649E+00 -2.651276E-06 -6.127019E-05 -1.287987E-05  1.219189E-06 _shell_0000001101   
      1102   1  6.216035E-05  8.999717E+00  2.027675E-06 -1.382665E-05 -6.372590E-07  1.398179E-06 _shell_0000001102   
      1102   2  5.471657E-05  8.999776E+00 -9.385087E-07  1.534053E-06 -2.306414E-07 -8.928672E-08 _shell_0000001102   
      1102   3  5.276768E-05  8.999849E+00  1.235219E-06  9.834812E-06  1.759763E-07 -5.490652E-07 _shell_0000001102   
      1102   4  8.319703E-05  8.999696E+00 -1.682607E-07 -1.491743E-05  5.321458E-06  7.201310E-07 _shell_0000001102   
      1102   5  7.143931E-05  8.999769E+00 -3.137171E-07  3.623871E-06  3.066622E-06 -2.159815E-07 _shell_0000001102   
      1102   6  6.414881E-05  8.999854E+00  2.282800E-06  1.510523E-05  8.117856E-07 -1.244065E-07 _shell_0000001102   
      1102   7  1.079054E-04  8.999678E+00  2.002473E-06 -1.334657E-05  1.179053E-05  4.208277E-08 _shell_0000001102   
      1102   8  9.081309E-05  8.999764E+00  2.296072E-06  8.375337E-06  6.874243E-06 -3.426763E-07 _shell_0000001102   
      1102   9  7.716026E-05  8.999860E+00  2.933707E-06  2.303729E-05  1.957953E-06  3.002521E-07 _shell_0000001102   
      1102  10  6.340616E-05  8.999719E+00  3.068366E-06 -9.489315E-06  8.538991E-15 -2.656151E-14 _shell_0000001102   
      1102  11  5.543435E-05  8.999777E+00 -4.258501E-07  3.489917E-06  3.634181E-15  3.954853E-15 _shell_0000001102   
      1102  12  5.295743E-05  8.999849E+00  1.219844E-06  9.409202E-06  2.867861E-15 -1.879872E-14 _shell_0000001102   
      1102  13  8.027526E-05  8.999697E+00 -9.136738E-07 -1.075611E-05  1.980282E-14 -2.461714E-14 _shell_0000001102   
      1102  14  6.798952E-05  8.999768E+00 -1.587163E-06  5.403724E-06  1.221677E-14 -9.061739E-16 _shell_0000001102   
      1102  15  6.017098E-05  8.999852E+00  4.813200E-07  1.450361E-05  7.056724E-15 -5.557574E-15 _shell_0000001102   
      1102  16  1.008161E-04  8.999677E+00 -5.290446E-07 -9.361253E-06  1.803260E-14 -3.330091E-14 _shell_0000001102   
      1102  17  8.319572E-05  8.999761E+00 -7.634788E-07  9.979179E-06  2.053443E-14 -7.100817E-15 _shell_0000001102   
      1102  18  6.901485E-05  8.999856E+00 -6.538775E-07  2.225966E-05  1.281863E-14 -7.020810E-15 _shell_0000001102   
      1102  19  6.216035E-05  8.999717E+00  2.027675E-06 -1.382665E-05  6.372591E-07 -1.398179E-06 _shell_0000001102   
      1102  20  5.471657E-05  8.999776E+00 -9.385087E-07  1.534053E-06  2.306414E-07  8.928669E-08 _shell_0000001102   
      1102  21  5.276768E-05  8.999849E+00  1.235219E-06  9.834812E-06 -1.759763E-07  5.490651E-07 _shell_0000001102   
      1102  22  8.319703E-05  8.999696E+00 -1.682607E-07 -1.491743E-05 -5.321458E-06 -7.201311E-07 _shell_0000001102   
      1102  23  7.143931E-05  8.999769E+00 -3.137171E-07  3.623871E-06 -3.066622E-06  2.159815E-07 _shell_0000001102   
      1102  24  6.414881E-05  8.999854E+00  2.282800E-06  1.510523E-05 -8.117856E-07  1.244065E-07 _shell_0000001102   
      1102  25  1.079054E-04  8.999678E+00  2.002473E-06 -1.334657E-05 -1.179053E-05 -4.208284E-08 _shell_0000001102   
      1102  26  9.081309E-05  8.999764E+00  2.296072E-06  8.375337E-06 -6.874243E-06  3.426763E-07 _shell_0000001102   
      1102  27  7.716026E-05  8.999860E+00  2.933707E-06  2.303730E-05 -1.957953E-06 -3.002522E-07 _shell_0000001102   
      1103   1  4.321900E-05  8.999886E+00 -1.524507E-06  1.522328E-06  1.327044E-07 -3.950110E-07 _shell_0000001103   
      1103   2  4.970720E-05  8.999938E+00  6.748730E-07 -1.127534E-05 -1.190553E-07 -1.145133E-07 _shell_0000001103   
      1103   3  4.877304E-05  8.999969E+00 -8.551521E-07 -2.281505E-05 -3.708150E-07  9.577959E-08 _shell_0000001103   
      1103   4  5.470921E-05  8.999895E+00 -3.492023E-07  2.286115E-06 -6.551421E-07  1.035084E-07 _shell_0000001103   
      1103   5  6.195105E-05  8.999945E+00  1.089257E-06 -1.246876E-05 -4.976322E-07  8.647466E-08 _shell_0000001103   
      1103   6  6.184073E-05  8.999974E+00 -1.037878E-06 -2.596569E-05 -3.401224E-07 -7.639510E-10 _shell_0000001103   
      1103   7  6.789978E-05  8.999904E+00 -6.879583E-09  2.631460E-06 -1.532683E-06  6.020278E-07 _shell_0000001103   
      1103   8  7.607464E-05  8.999952E+00  1.089231E-06 -1.408063E-05 -9.659034E-07  2.874626E-07 _shell_0000001103   
      1103   9  7.696755E-05  8.999979E+00 -1.216441E-06 -2.953477E-05 -3.991240E-07 -9.730749E-08 _shell_0000001103   
      1103  10  4.434464E-05  8.999886E+00 -1.248688E-06  8.454908E-07  6.227665E-16 -1.902776E-14 _shell_0000001103   
      1103  11  5.069993E-05  8.999938E+00  8.177808E-07 -1.161889E-05 -2.639688E-15  7.518256E-15 _shell_0000001103   
      1103  12  4.963286E-05  8.999968E+00 -8.451554E-07 -2.282533E-05  4.204552E-15 -6.887296E-15 _shell_0000001103   
      1103  13  5.641809E-05  8.999895E+00  1.765757E-07  1.564973E-06  2.904433E-15 -9.931439E-15 _shell_0000001103   
      1103  14  6.352701E-05  8.999945E+00  1.482124E-06 -1.285662E-05 -8.144946E-16 -9.061477E-16 _shell_0000001103   
      1103  15  6.328379E-05  8.999973E+00 -7.779223E-07 -2.602027E-05  5.356721E-15  1.990152E-15 _shell_0000001103   
      1103  16  7.019190E-05  8.999904E+00  7.688576E-07  1.866015E-06  8.387138E-15 -1.069984E-14 _shell_0000001103   
      1103  17  7.823385E-05  8.999952E+00  1.732057E-06 -1.451280E-05 -3.161959E-15 -1.382004E-14 _shell_0000001103   
      1103  18  7.899384E-05  8.999979E+00 -7.065255E-07 -2.963366E-05 -2.106241E-15  1.429109E-15 _shell_0000001103   
      1103  19  4.321900E-05  8.999886E+00 -1.524507E-06  1.522328E-06 -1.327044E-07  3.950110E-07 _shell_0000001103   
      1103  20  4.970720E-05  8.999938E+00  6.748730E-07 -1.127534E-05  1.190553E-07  1.145133E-07 _shell_0000001103   
      1103  21  4.877304E-05  8.999969E+00 -8.551521E-07 -2.281505E-05  3.708150E-07 -9.577960E-08 _shell_0000001103   
      1103  22  5.470921E-05  8.999895E+00 -3.492023E-07  2.286115E-06  6.551421E-07 -1.035084E-07 _shell_0000001103   
      1103  23  6.195105E-05  8.999945E+00  1.089257E-06 -1.246876E-05  4.976322E-07 -8.647463E-08 _shell_0000001103   
      1103  24  6.184073E-05  8.999974E+00 -1.037878E-06 -2.596569E-05  3.401224E-07  7.639406E-10 _shell_0000001103   
      1103  25  6.789978E-05  8.999904E+00 -6.879649E-09  2.631460E-06  1.532683E-06 -6.020279E-07 _shell_0000001103   
      1103  26  7.607464E-05  8.999952E+00  1.089231E-06 -1.408063E-05  9.659034E-07 -2.874626E-07 _shell_0000001103   
      1103  27  7.696755E-05  8.999979E+00 -1.216441E-06 -2.953477E-05  3.991240E-07  9.730750E-08 _shell_0000001103   
      1104   1  5.532875E-05  8.999983E+00  3.813990E-07 -2.808898E-05  2.961397E-07  1.117181E-07 _shell_0000001104   
      1104   2  6.287873E-05  9.000000E+00  1.890177E-07 -3.211195E-05  9.055913E-08  2.639009E-08 _shell_0000001104   
      1104   3  6.830410E-05  9.000010E+00 -1.486363E-07 -3.592804E-05 -1.150214E-07 -2.040092E-08 _shell_0000001104   
      1104   4  6.758253E-05  8.999986E+00 -2.792130E-07 -3.132716E-05  1.787743E-07 -3.966921E-08 _shell_0000001104   
      1104   5  7.499808E-05  9.000001E+00 -1.562775E-07 -3.500457E-05  6.835152E-08 -1.593571E-08 _shell_0000001104   
      1104   6  8.025047E-05  9.000009E+00 -2.685342E-07 -3.847509E-05 -4.207126E-08  4.633475E-08 _shell_0000001104   
      1104   7  8.215741E-05  8.999990E+00 -6.859488E-07 -3.489500E-05  2.711780E-08 -1.910565E-07 _shell_0000001104   
      1104   8  8.950710E-05  9.000003E+00 -8.767122E-08 -3.822685E-05  1.185279E-08 -5.826154E-08 _shell_0000001104   
      1104   9  9.465511E-05  9.000010E+00  1.854947E-07 -4.135180E-05 -3.412219E-09  1.130704E-07 _shell_0000001104   
      1104  10  5.542523E-05  8.999982E+00  7.538444E-08 -2.784527E-05  4.438262E-15 -1.414102E-14 _shell_0000001104   
      1104  11  6.317506E-05  8.999999E+00  8.285229E-08 -3.181133E-05 -9.837774E-16 -4.291339E-15 _shell_0000001104   
      1104  12  6.880028E-05  9.000010E+00 -5.495261E-08 -3.557049E-05  3.603592E-15 -3.349482E-15 _shell_0000001104   
      1104  13  6.777862E-05  8.999985E+00 -5.425399E-07 -3.101683E-05  7.463336E-15 -5.047118E-15 _shell_0000001104   
      1104  14  7.539402E-05  9.000001E+00 -2.197552E-07 -3.463733E-05  1.574951E-15 -7.444767E-15 _shell_0000001104   
      1104  15  8.084627E-05  9.000009E+00 -1.321627E-07 -3.805093E-05 -6.243973E-16  9.091191E-15 _shell_0000001104   
      1104  16  8.245311E-05  8.999989E+00 -9.065879E-07 -3.451806E-05 -2.814471E-16 -4.998651E-15 _shell_0000001104   
      1104  17  9.000265E-05  9.000003E+00 -1.084611E-07 -3.779299E-05 -1.363861E-15 -2.043757E-14 _shell_0000001104   
      1104  18  9.535050E-05  9.000010E+00  3.645539E-07 -4.086103E-05 -2.678740E-15  9.242821E-15 _shell_0000001104   
      1104  19  5.532875E-05  8.999983E+00  3.813990E-07 -2.808898E-05 -2.961397E-07 -1.117181E-07 _shell_0000001104   
      1104  20  6.287873E-05  9.000000E+00  1.890177E-07 -3.211195E-05 -9.055913E-08 -2.639013E-08 _shell_0000001104   
      1104  21  6.830410E-05  9.000010E+00 -1.486363E-07 -3.592804E-05  1.150214E-07  2.040092E-08 _shell_0000001104   
      1104  22  6.758253E-05  8.999986E+00 -2.792130E-07 -3.132716E-05 -1.787743E-07  3.966920E-08 _shell_0000001104   
      1104  23  7.499808E-05  9.000001E+00 -1.562775E-07 -3.500457E-05 -6.835152E-08  1.593572E-08 _shell_0000001104   
      1104  24  8.025047E-05  9.000009E+00 -2.685342E-07 -3.847509E-05  4.207127E-08 -4.633474E-08 _shell_0000001104   
      1104  25  8.215741E-05  8.999990E+00 -6.859488E-07 -3.489500E-05 -2.711782E-08  1.910565E-07 _shell_0000001104   
      1104  26  8.950710E-05  9.000003E+00 -8.767120E-08 -3.822685E-05 -1.185280E-08  5.826148E-08 _shell_0000001104   
      1104  27  9.465511E-05  9.000010E+00  1.854947E-07 -4.135180E-05  3.412208E-09 -1.130704E-07 _shell_0000001104   
      1105   1  7.252689E-05  9.000013E+00  2.697039E-07 -3.575790E-05  4.730394E-09 -5.805925E-08 _shell_0000001105   
      1105   2  7.719532E-05  9.000017E+00 -1.943829E-08 -3.295805E-05 -1.976572E-09 -9.412655E-08 _shell_0000001105   
      1105   3  8.146714E-05  9.000019E+00  2.166632E-08 -3.108791E-05 -8.683530E-09 -1.953523E-08 _shell_0000001105   
      1105   4  8.374172E-05  9.000012E+00  1.500384E-07 -3.787792E-05  7.180882E-08  3.049000E-08 _shell_0000001105   
      1105   5  8.708365E-05  9.000015E+00 -1.760533E-08 -3.459924E-05  4.046316E-08 -3.967656E-08 _shell_0000001105   
      1105   6  8.991830E-05  9.000017E+00 -1.132056E-07 -3.225027E-05  9.117516E-09  8.154339E-10 _shell_0000001105   
      1105   7  9.612837E-05  9.000012E+00  1.221113E-07 -4.002736E-05  1.108070E-07  1.190392E-07 _shell_0000001105   
      1105   8  9.819996E-05  9.000014E+00  2.070073E-07 -3.626985E-05  5.482262E-08  1.477338E-08 _shell_0000001105   
      1105   9  9.965361E-05  9.000015E+00  1.057435E-07 -3.344205E-05 -1.161712E-09  2.116612E-08 _shell_0000001105   
      1105  10  7.273302E-05  9.000013E+00  2.764382E-07 -3.541935E-05  9.274520E-16  2.148072E-15 _shell_0000001105   
      1105  11  7.742628E-05  9.000017E+00  1.211497E-08 -3.267948E-05 -1.155212E-14  5.278494E-15 _shell_0000001105   
      1105  12  8.172291E-05  9.000019E+00  7.803836E-08 -3.086932E-05 -7.935653E-15  1.628325E-16 _shell_0000001105   
      1105  13  8.384290E-05  9.000012E+00  1.117907E-07 -3.753111E-05 -2.443409E-15  1.449738E-14 _shell_0000001105   
      1105  14  8.720965E-05  9.000015E+00 -3.103408E-08 -3.431240E-05 -8.497866E-15  6.718686E-16 _shell_0000001105   
      1105  15  9.006912E-05  9.000017E+00 -1.018155E-07 -3.202341E-05 -3.337243E-15 -2.512339E-15 _shell_0000001105   
      1105  16  9.612459E-05  9.000011E+00  3.888167E-08 -3.967227E-05 -5.739339E-15  1.760246E-14 _shell_0000001105   
      1105  17  9.822100E-05  9.000014E+00  1.485966E-07 -3.597474E-05 -6.542555E-15 -7.100892E-15 _shell_0000001105   
      1105  18  9.969947E-05  9.000015E+00  7.215162E-08 -3.320691E-05  1.435072E-15 -2.096835E-14 _shell_0000001105   
      1105  19  7.252689E-05  9.000013E+00  2.697039E-07 -3.575790E-05 -4.730400E-09  5.805925E-08 _shell_0000001105   
      1105  20  7.719532E-05  9.000017E+00 -1.943830E-08 -3.295805E-05  1.976552E-09  9.412652E-08 _shell_0000001105   
      1105  21  8.146714E-05  9.000019E+00  2.166623E-08 -3.108791E-05  8.683513E-09  1.953524E-08 _shell_0000001105   
      1105  22  8.374172E-05  9.000012E+00  1.500384E-07 -3.787792E-05 -7.180883E-08 -3.048997E-08 _shell_0000001105   
      1105  23  8.708365E-05  9.000015E+00 -1.760534E-08 -3.459924E-05 -4.046318E-08  3.967658E-08 _shell_0000001105   
      1105  24  8.991830E-05  9.000017E+00 -1.132056E-07 -3.225027E-05 -9.117519E-09 -8.154441E-10 _shell_0000001105   
      1105  25  9.612837E-05  9.000012E+00  1.221113E-07 -4.002736E-05 -1.108070E-07 -1.190392E-07 _shell_0000001105   
      1105  26  9.819996E-05  9.000014E+00  2.070073E-07 -3.626985E-05 -5.482265E-08 -1.477340E-08 _shell_0000001105   
      1105  27  9.965361E-05  9.000015E+00  1.057435E-07 -3.344205E-05  1.161710E-09 -2.116613E-08 _shell_0000001105   
      1106   1  8.352835E-05  9.000019E+00  1.041136E-07 -2.861250E-05 -1.673968E-08  9.941086E-09 _shell_0000001106   
      1106   2  8.592997E-05  9.000019E+00 -2.919791E-08 -2.377521E-05  3.294062E-09 -1.447320E-08 _shell_0000001106   
      1106   3  8.831842E-05  9.000019E+00  2.245083E-08 -1.976829E-05  2.332779E-08 -7.420765E-09 _shell_0000001106   
      1106   4  9.148442E-05  9.000017E+00  1.896320E-08 -2.951550E-05 -3.653693E-08  1.994982E-08 _shell_0000001106   
      1106   5  9.279873E-05  9.000017E+00 -6.214420E-08 -2.446354E-05 -7.305761E-09 -5.905174E-09 _shell_0000001106   
      1106   6  9.406840E-05  9.000017E+00 -3.171372E-08 -2.024196E-05  2.192540E-08 -2.935076E-10 _shell_0000001106   
      1106   7  9.983130E-05  9.000015E+00 -4.955306E-08 -3.037383E-05 -6.944632E-08  2.995852E-08 _shell_0000001106   
      1106   8  1.000845E-04  9.000015E+00 -1.726649E-08 -2.510721E-05 -3.101772E-08  2.662798E-09 _shell_0000001106   
      1106   9  1.002617E-04  9.000014E+00  5.313581E-08 -2.067097E-05  7.410887E-09  6.833762E-09 _shell_0000001106   
      1106  10  8.357432E-05  9.000019E+00  7.933342E-08 -2.846163E-05 -1.727704E-15 -2.952925E-16 _shell_0000001106   
      1106  11  8.600382E-05  9.000019E+00 -2.609655E-08 -2.362924E-05  2.152771E-15 -7.956394E-15 _shell_0000001106   
      1106  12  8.842015E-05  9.000019E+00  5.343360E-08 -1.962723E-05  4.653874E-15 -3.172816E-14 _shell_0000001106   
      1106  13  9.152181E-05  9.000017E+00 -9.493430E-09 -2.935533E-05  1.985207E-15 -8.302455E-15 _shell_0000001106   
      1106  14  9.286400E-05  9.000017E+00 -6.271932E-08 -2.430828E-05  5.090332E-15 -1.065659E-14 _shell_0000001106   
      1106  15  9.416156E-05  9.000017E+00 -4.407366E-09 -2.009160E-05  5.570878E-15 -1.717253E-14 _shell_0000001106   
      1106  16  9.986011E-05  9.000015E+00 -8.168614E-08 -3.020437E-05  5.551509E-15 -1.965885E-14 _shell_0000001106   
      1106  17  1.001412E-04  9.000015E+00 -2.151801E-08 -2.494266E-05  7.668547E-15 -1.667074E-14 _shell_0000001106   
      1106  18  1.003462E-04  9.000014E+00  7.676567E-08 -2.051132E-05  7.804675E-15 -1.804140E-14 _shell_0000001106   
      1106  19  8.352835E-05  9.000019E+00  1.041135E-07 -2.861250E-05  1.673967E-08 -9.941102E-09 _shell_0000001106   
      1106  20  8.592997E-05  9.000019E+00 -2.919793E-08 -2.377521E-05 -3.294055E-09  1.447316E-08 _shell_0000001106   
      1106  21  8.831842E-05  9.000019E+00  2.245084E-08 -1.976829E-05 -2.332779E-08  7.420709E-09 _shell_0000001106   
      1106  22  9.148442E-05  9.000017E+00  1.896317E-08 -2.951550E-05  3.653693E-08 -1.994984E-08 _shell_0000001106   
      1106  23  9.279873E-05  9.000017E+00 -6.214420E-08 -2.446354E-05  7.305771E-09  5.905181E-09 _shell_0000001106   
      1106  24  9.406840E-05  9.000017E+00 -3.171369E-08 -2.024196E-05 -2.192540E-08  2.934496E-10 _shell_0000001106   
      1106  25  9.983130E-05  9.000015E+00 -4.955311E-08 -3.037383E-05  6.944632E-08 -2.995856E-08 _shell_0000001106   
      1106  26  1.000845E-04  9.000015E+00 -1.726644E-08 -2.510721E-05  3.101773E-08 -2.662833E-09 _shell_0000001106   
      1106  27  1.002617E-04  9.000014E+00  5.313579E-08 -2.067097E-05 -7.410875E-09 -6.833813E-09 _shell_0000001106   
      1107   1  8.924531E-05  9.000019E+00  2.885566E-08 -1.687228E-05 -3.062859E-08 -4.510471E-09 _shell_0000001107   
      1107   2  9.020333E-05  9.000018E+00 -2.330264E-08 -1.195381E-05 -2.190493E-09 -1.244588E-08 _shell_0000001107   
      1107   3  9.124919E-05  9.000018E+00  1.088920E-08 -7.493063E-06  2.624762E-08 -5.776250E-09 _shell_0000001107   
      1107   4  9.463226E-05  9.000016E+00  2.250670E-08 -1.722048E-05 -3.816697E-09  1.710216E-09 _shell_0000001107   
      1107   5  9.501092E-05  9.000016E+00 -1.646871E-08 -1.219941E-05  4.422263E-09 -7.899961E-09 _shell_0000001107   
      1107   6  9.546282E-05  9.000015E+00 -3.172473E-09 -7.636050E-06  1.266123E-08 -2.905142E-09 _shell_0000001107   
      1107   7  1.001300E-04  9.000014E+00  3.149764E-08 -1.752850E-05  1.913323E-08  7.930871E-09 _shell_0000001107   
      1107   8  9.993703E-05  9.000013E+00  2.372750E-08 -1.240482E-05  7.173067E-09 -3.354079E-09 _shell_0000001107   
      1107   9  9.980270E-05  9.000013E+00  3.415078E-08 -7.738857E-06 -4.787128E-09 -3.405524E-11 _shell_0000001107   
      1107  10  8.926992E-05  9.000019E+00  3.255086E-08 -1.677802E-05  2.033106E-15 -2.391448E-14 _shell_0000001107   
      1107  11  9.023474E-05  9.000018E+00 -1.280215E-08 -1.188018E-05 -2.943596E-15 -4.393158E-15 _shell_0000001107   
      1107  12  9.128740E-05  9.000018E+00  2.819486E-08 -7.440057E-06  2.115450E-15 -5.773981E-14 _shell_0000001107   
      1107  13  9.462077E-05  9.000016E+00  1.073219E-08 -1.712396E-05  3.964407E-15 -1.161118E-14 _shell_0000001107   
      1107  14  9.500623E-05  9.000016E+00 -2.143793E-08 -1.212351E-05  6.527727E-15 -3.298592E-15 _shell_0000001107   
      1107  15  9.546494E-05  9.000015E+00 -1.336414E-09 -7.580776E-06  4.942159E-15 -5.240014E-14 _shell_0000001107   
      1107  16  1.000824E-04  9.000014E+00  4.253399E-09 -1.742971E-05  9.738308E-15 -8.460094E-15 _shell_0000001107   
      1107  17  9.989625E-05  9.000013E+00  3.288644E-09 -1.232665E-05  1.112392E-14 -9.849678E-15 _shell_0000001107   
      1107  18  9.976872E-05  9.000013E+00  2.051710E-08 -7.681315E-06  7.056867E-15 -5.881504E-14 _shell_0000001107   
      1107  19  8.924531E-05  9.000019E+00  2.885569E-08 -1.687228E-05  3.062859E-08  4.510424E-09 _shell_0000001107   
      1107  20  9.020333E-05  9.000018E+00 -2.330264E-08 -1.195381E-05  2.190480E-09  1.244584E-08 _shell_0000001107   
      1107  21  9.124919E-05  9.000018E+00  1.088916E-08 -7.493063E-06 -2.624762E-08  5.776148E-09 _shell_0000001107   
      1107  22  9.463226E-05  9.000016E+00  2.250674E-08 -1.722048E-05  3.816708E-09 -1.710235E-09 _shell_0000001107   
      1107  23  9.501092E-05  9.000016E+00 -1.646870E-08 -1.219941E-05 -4.422260E-09  7.899966E-09 _shell_0000001107   
      1107  24  9.546282E-05  9.000015E+00 -3.172468E-09 -7.636050E-06 -1.266122E-08  2.905037E-09 _shell_0000001107   
      1107  25  1.001300E-04  9.000014E+00  3.149760E-08 -1.752850E-05 -1.913321E-08 -7.930890E-09 _shell_0000001107   
      1107  26  9.993703E-05  9.000013E+00  2.372755E-08 -1.240482E-05 -7.173031E-09  3.354072E-09 _shell_0000001107   
      1107  27  9.980270E-05  9.000013E+00  3.415076E-08 -7.738857E-06  4.787142E-09  3.393522E-11 _shell_0000001107   
      1108   1  9.151487E-05  9.000017E+00  9.250911E-09 -4.646431E-06 -2.650430E-08 -2.586122E-09 _shell_0000001108   
      1108   2  9.145799E-05  9.000017E+00 -2.137638E-08 -6.034601E-14  5.300319E-15 -4.827147E-09 _shell_0000001108   
      1108   3  9.151487E-05  9.000017E+00  9.250825E-09  4.646431E-06  2.650430E-08 -2.586075E-09 _shell_0000001108   
      1108   4  9.560463E-05  9.000015E+00  7.712153E-09 -4.705567E-06 -1.479227E-08 -2.023631E-10 _shell_0000001108   
      1108   5  9.554999E-05  9.000015E+00 -1.768595E-08 -7.167202E-14 -2.506994E-15 -2.443354E-09 _shell_0000001108   
      1108   6  9.560463E-05  9.000015E+00  7.712093E-09  4.705567E-06  1.479228E-08 -2.022876E-10 _shell_0000001108   
      1108   7  9.970937E-05  9.000013E+00  1.415926E-08 -4.764703E-06 -3.080246E-09  2.181395E-09 _shell_0000001108   
      1108   8  9.965698E-05  9.000013E+00 -6.009774E-09 -8.218358E-14 -6.852873E-15 -5.958470E-11 _shell_0000001108   
      1108   9  9.970937E-05  9.000013E+00  1.415922E-08  4.764703E-06  3.080245E-09  2.181498E-09 _shell_0000001108   
      1108  10  9.152742E-05  9.000017E+00  1.669094E-08 -4.635966E-06  3.442657E-15 -5.547460E-14 _shell_0000001108   
      1108  11  9.147055E-05  9.000017E+00 -1.393631E-08 -5.416124E-14  3.287807E-15  7.009213E-15 _shell_0000001108   
      1108  12  9.152742E-05  9.000017E+00  1.669089E-08  4.635966E-06  9.818457E-16 -1.095956E-14 _shell_0000001108   
      1108  13  9.559887E-05  9.000015E+00  7.303582E-09 -4.695102E-06  2.570620E-15 -5.233392E-14 _shell_0000001108   
      1108  14  9.554423E-05  9.000015E+00 -1.809451E-08 -5.487389E-14 -1.323489E-15  3.166139E-15 _shell_0000001108   
      1108  15  9.559887E-05  9.000015E+00  7.303570E-09  4.695102E-06 -1.208951E-15  7.052606E-15 _shell_0000001108   
      1108  16  9.968530E-05  9.000013E+00  5.901989E-09 -4.754238E-06  1.390142E-15 -5.325511E-14 _shell_0000001108   
      1108  17  9.963291E-05  9.000013E+00 -1.426691E-08 -5.853894E-14 -5.713034E-15 -2.214164E-15 _shell_0000001108   
      1108  18  9.968530E-05  9.000013E+00  5.902006E-09  4.754238E-06 -6.490128E-15 -2.134079E-15 _shell_0000001108   
      1108  19  9.151487E-05  9.000017E+00  9.250898E-09 -4.646431E-06  2.650430E-08  2.586000E-09 _shell_0000001108   
      1108  20  9.145799E-05  9.000017E+00 -2.137639E-08 -4.202078E-14 -4.581308E-16  4.827124E-09 _shell_0000001108   
      1108  21  9.151487E-05  9.000017E+00  9.250836E-09  4.646431E-06 -2.650430E-08  2.586056E-09 _shell_0000001108   
      1108  22  9.560463E-05  9.000015E+00  7.712146E-09 -4.705567E-06  1.479228E-08  2.022393E-10 _shell_0000001108   
      1108  23  9.554999E-05  9.000015E+00 -1.768595E-08 -4.487137E-14 -7.533707E-15  2.443385E-09 _shell_0000001108   
      1108  24  9.560463E-05  9.000015E+00  7.712123E-09  4.705567E-06 -1.479229E-08  2.022833E-10 _shell_0000001108   
      1108  25  9.970937E-05  9.000013E+00  1.415915E-08 -4.764703E-06  3.080247E-09 -2.181499E-09 _shell_0000001108   
      1108  26  9.965698E-05  9.000013E+00 -6.009779E-09 -6.314570E-14 -1.616184E-14  5.959121E-11 _shell_0000001108   
      1108  27  9.970937E-05  9.000013E+00  1.415914E-08  4.764703E-06 -3.080266E-09 -2.181507E-09 _shell_0000001108   
      1109   1  9.124919E-05  9.000018E+00  1.088906E-08  7.493063E-06 -2.624763E-08 -5.776224E-09 _shell_0000001109   
      1109   2  9.020333E-05  9.000018E+00 -2.330268E-08  1.195381E-05  2.190474E-09 -1.244588E-08 _shell_0000001109   
      1109   3  8.924531E-05  9.000019E+00  2.885573E-08  1.687228E-05  3.062857E-08 -4.510485E-09 _shell_0000001109   
      1109   4  9.546282E-05  9.000015E+00 -3.172504E-09  7.636050E-06 -1.266123E-08 -2.905079E-09 _shell_0000001109   
      1109   5  9.501092E-05  9.000016E+00 -1.646871E-08  1.219941E-05 -4.422271E-09 -7.899958E-09 _shell_0000001109   
      1109   6  9.463226E-05  9.000016E+00  2.250669E-08  1.722048E-05  3.816676E-09  1.710171E-09 _shell_0000001109   
      1109   7  9.980270E-05  9.000013E+00  3.415079E-08  7.738857E-06  4.787135E-09 -3.395111E-11 _shell_0000001109   
      1109   8  9.993703E-05  9.000013E+00  2.372755E-08  1.240482E-05 -7.173053E-09 -3.354068E-09 _shell_0000001109   
      1109   9  1.001300E-04  9.000014E+00  3.149764E-08  1.752851E-05 -1.913325E-08  7.930850E-09 _shell_0000001109   
      1109  10  9.128740E-05  9.000018E+00  2.819486E-08  7.440057E-06 -5.210921E-15 -1.536270E-14 _shell_0000001109   
      1109  11  9.023474E-05  9.000018E+00 -1.280217E-08  1.188018E-05 -8.443904E-15  5.953804E-16 _shell_0000001109   
      1109  12  8.926992E-05  9.000019E+00  3.255083E-08  1.677802E-05 -1.081439E-14 -2.287096E-14 _shell_0000001109   
      1109  13  9.546494E-05  9.000015E+00 -1.336427E-09  7.580776E-06 -3.015390E-15 -3.415723E-15 _shell_0000001109   
      1109  14  9.500623E-05  9.000016E+00 -2.143792E-08  1.212351E-05 -3.817752E-15 -8.185324E-15 _shell_0000001109   
      1109  15  9.462077E-05  9.000016E+00  1.073220E-08  1.712396E-05 -4.842485E-15 -2.715450E-14 _shell_0000001109   
      1109  16  9.976872E-05  9.000013E+00  2.051714E-08  7.681315E-06 -4.250438E-15 -9.070936E-15 _shell_0000001109   
      1109  17  9.989625E-05  9.000013E+00  3.288718E-09  1.232665E-05 -1.546521E-15 -1.310750E-14 _shell_0000001109   
      1109  18  1.000824E-04  9.000014E+00  4.253450E-09  1.742971E-05 -5.369561E-15 -2.384439E-14 _shell_0000001109   
      1109  19  9.124919E-05  9.000018E+00  1.088910E-08  7.493063E-06  2.624763E-08  5.776172E-09 _shell_0000001109   
      1109  20  9.020333E-05  9.000018E+00 -2.330271E-08  1.195381E-05 -2.190501E-09  1.244585E-08 _shell_0000001109   
      1109  21  8.924531E-05  9.000019E+00  2.885558E-08  1.687228E-05 -3.062861E-08  4.510454E-09 _shell_0000001109   
      1109  22  9.546282E-05  9.000015E+00 -3.172484E-09  7.636050E-06  1.266122E-08  2.905050E-09 _shell_0000001109   
      1109  23  9.501092E-05  9.000016E+00 -1.646872E-08  1.219941E-05  4.422255E-09  7.899974E-09 _shell_0000001109   
      1109  24  9.463226E-05  9.000016E+00  2.250671E-08  1.722048E-05 -3.816690E-09 -1.710226E-09 _shell_0000001109   
      1109  25  9.980270E-05  9.000013E+00  3.415075E-08  7.738857E-06 -4.787144E-09  3.392448E-11 _shell_0000001109   
      1109  26  9.993703E-05  9.000013E+00  2.372760E-08  1.240482E-05  7.173040E-09  3.354050E-09 _shell_0000001109   
      1109  27  1.001300E-04  9.000014E+00  3.149769E-08  1.752851E-05  1.913325E-08 -7.930891E-09 _shell_0000001109   
      1110   1  8.831842E-05  9.000019E+00  2.245080E-08  1.976829E-05 -2.332780E-08 -7.420765E-09 _shell_0000001110   
      1110   2  8.592997E-05  9.000019E+00 -2.919794E-08  2.377521E-05 -3.294056E-09 -1.447318E-08 _shell_0000001110   
      1110   3  8.352835E-05  9.000019E+00  1.041136E-07  2.861250E-05  1.673969E-08  9.941125E-09 _shell_0000001110   
      1110   4  9.406840E-05  9.000017E+00 -3.171373E-08  2.024196E-05 -2.192541E-08 -2.935129E-10 _shell_0000001110   
      1110   5  9.279873E-05  9.000017E+00 -6.214421E-08  2.446354E-05  7.305764E-09 -5.905176E-09 _shell_0000001110   
      1110   6  9.148442E-05  9.000017E+00  1.896315E-08  2.951550E-05  3.653693E-08  1.994985E-08 _shell_0000001110   
      1110   7  1.002617E-04  9.000014E+00  5.313584E-08  2.067097E-05 -7.410901E-09  6.833731E-09 _shell_0000001110   
      1110   8  1.000845E-04  9.000015E+00 -1.726644E-08  2.510721E-05  3.101771E-08  2.662785E-09 _shell_0000001110   
      1110   9  9.983130E-05  9.000015E+00 -4.955300E-08  3.037383E-05  6.944633E-08  2.995857E-08 _shell_0000001110   
      1110  10  8.842015E-05  9.000019E+00  5.343357E-08  1.962723E-05 -5.892063E-15 -2.330364E-14 _shell_0000001110   
      1110  11  8.600382E-05  9.000019E+00 -2.609659E-08  2.362924E-05  6.330211E-15 -9.992532E-15 _shell_0000001110   
      1110  12  8.357432E-05  9.000019E+00  7.933337E-08  2.846163E-05  9.083249E-15 -2.399084E-14 _shell_0000001110   
      1110  13  9.416156E-05  9.000017E+00 -4.407384E-09  2.009160E-05 -2.533061E-15 -2.950373E-14 _shell_0000001110   
      1110  14  9.286400E-05  9.000017E+00 -6.271933E-08  2.430828E-05  1.043319E-20 -1.800968E-14 _shell_0000001110   
      1110  15  9.152181E-05  9.000017E+00 -9.493439E-09  2.935533E-05  1.873133E-15 -1.085806E-14 _shell_0000001110   
      1110  16  1.003462E-04  9.000014E+00  7.676574E-08  2.051132E-05 -5.446674E-15 -3.146844E-14 _shell_0000001110   
      1110  17  1.001412E-04  9.000015E+00 -2.151796E-08  2.494266E-05 -3.602080E-15 -3.092370E-14 _shell_0000001110   
      1110  18  9.986011E-05  9.000015E+00 -8.168612E-08  3.020437E-05 -8.592867E-15 -2.033206E-14 _shell_0000001110   
      1110  19  8.831841E-05  9.000019E+00  2.245070E-08  1.976829E-05  2.332779E-08  7.420729E-09 _shell_0000001110   
      1110  20  8.592997E-05  9.000019E+00 -2.919798E-08  2.377521E-05  3.294065E-09  1.447315E-08 _shell_0000001110   
      1110  21  8.352835E-05  9.000019E+00  1.041136E-07  2.861250E-05 -1.673966E-08 -9.941154E-09 _shell_0000001110   
      1110  22  9.406840E-05  9.000017E+00 -3.171374E-08  2.024196E-05  2.192540E-08  2.934525E-10 _shell_0000001110   
      1110  23  9.279873E-05  9.000017E+00 -6.214424E-08  2.446354E-05 -7.305771E-09  5.905165E-09 _shell_0000001110   
      1110  24  9.148442E-05  9.000017E+00  1.896317E-08  2.951550E-05 -3.653693E-08 -1.994988E-08 _shell_0000001110   
      1110  25  1.002617E-04  9.000014E+00  5.313584E-08  2.067097E-05  7.410889E-09 -6.833793E-09 _shell_0000001110   
      1110  26  1.000845E-04  9.000015E+00 -1.726643E-08  2.510721E-05 -3.101772E-08 -2.662864E-09 _shell_0000001110   
      1110  27  9.983130E-05  9.000015E+00 -4.955310E-08  3.037383E-05 -6.944635E-08 -2.995861E-08 _shell_0000001110   
      1111   1  8.146714E-05  9.000019E+00  2.166618E-08  3.108791E-05  8.683527E-09 -1.953521E-08 _shell_0000001111   
      1111   2  7.719532E-05  9.000017E+00 -1.943831E-08  3.295805E-05  1.976550E-09 -9.412650E-08 _shell_0000001111   
      1111   3  7.252689E-05  9.000013E+00  2.697040E-07  3.575790E-05 -4.730401E-09 -5.805924E-08 _shell_0000001111   
      1111   4  8.991830E-05  9.000017E+00 -1.132056E-07  3.225027E-05 -9.117523E-09  8.154762E-10 _shell_0000001111   
      1111   5  8.708365E-05  9.000015E+00 -1.760531E-08  3.459924E-05 -4.046318E-08 -3.967653E-08 _shell_0000001111   
      1111   6  8.374172E-05  9.000012E+00  1.500384E-07  3.787792E-05 -7.180882E-08  3.048998E-08 _shell_0000001111   
      1111   7  9.965361E-05  9.000015E+00  1.057435E-07  3.344205E-05  1.161705E-09  2.116613E-08 _shell_0000001111   
      1111   8  9.819996E-05  9.000014E+00  2.070073E-07  3.626985E-05 -5.482264E-08  1.477339E-08 _shell_0000001111   
      1111   9  9.612837E-05  9.000012E+00  1.221114E-07  4.002736E-05 -1.108070E-07  1.190392E-07 _shell_0000001111   
      1111  10  8.172291E-05  9.000019E+00  7.803838E-08  3.086932E-05  8.748730E-15 -2.147111E-14 _shell_0000001111   
      1111  11  7.742628E-05  9.000017E+00  1.211494E-08  3.267948E-05  2.503412E-15  2.835142E-15 _shell_0000001111   
      1111  12  7.273302E-05  9.000013E+00  2.764382E-07  3.541935E-05  2.465812E-15 -3.680374E-15 _shell_0000001111   
      1111  13  9.006912E-05  9.000017E+00 -1.018155E-07  3.202341E-05  9.283895E-16 -6.724437E-15 _shell_0000001111   
      1111  14  8.720965E-05  9.000015E+00 -3.103408E-08  3.431240E-05  1.832542E-15  1.537230E-15 _shell_0000001111   
      1111  15  8.384290E-05  9.000012E+00  1.117907E-07  3.753111E-05  1.129016E-15 -5.744702E-15 _shell_0000001111   
      1111  16  9.969947E-05  9.000015E+00  7.215165E-08  3.320691E-05 -7.413143E-15 -1.273598E-14 _shell_0000001111   
      1111  17  9.822100E-05  9.000014E+00  1.485966E-07  3.597474E-05  1.329488E-15 -1.656892E-14 _shell_0000001111   
      1111  18  9.612459E-05  9.000011E+00  3.888163E-08  3.967227E-05  2.659805E-15 -2.313173E-14 _shell_0000001111   
      1111  19  8.146714E-05  9.000019E+00  2.166623E-08  3.108791E-05 -8.683502E-09  1.953516E-08 _shell_0000001111   
      1111  20  7.719532E-05  9.000017E+00 -1.943827E-08  3.295805E-05 -1.976546E-09  9.412648E-08 _shell_0000001111   
      1111  21  7.252689E-05  9.000013E+00  2.697039E-07  3.575790E-05  4.730396E-09  5.805923E-08 _shell_0000001111   
      1111  22  8.991830E-05  9.000017E+00 -1.132056E-07  3.225027E-05  9.117528E-09 -8.155023E-10 _shell_0000001111   
      1111  23  8.708365E-05  9.000015E+00 -1.760533E-08  3.459924E-05  4.046318E-08  3.967655E-08 _shell_0000001111   
      1111  24  8.374172E-05  9.000012E+00  1.500384E-07  3.787792E-05  7.180882E-08 -3.048999E-08 _shell_0000001111   
      1111  25  9.965361E-05  9.000015E+00  1.057434E-07  3.344205E-05 -1.161723E-09 -2.116618E-08 _shell_0000001111   
      1111  26  9.819996E-05  9.000014E+00  2.070073E-07  3.626985E-05  5.482264E-08 -1.477342E-08 _shell_0000001111   
      1111  27  9.612837E-05  9.000012E+00  1.221113E-07  4.002736E-05  1.108070E-07 -1.190392E-07 _shell_0000001111   
      1112   1  6.830410E-05  9.000010E+00 -1.486363E-07  3.592804E-05  1.150214E-07 -2.040089E-08 _shell_0000001112   
      1112   2  6.287873E-05  9.000000E+00  1.890177E-07  3.211195E-05 -9.055914E-08  2.639012E-08 _shell_0000001112   
      1112   3  5.532875E-05  8.999983E+00  3.813991E-07  2.808898E-05 -2.961397E-07  1.117181E-07 _shell_0000001112   
      1112   4  8.025047E-05  9.000009E+00 -2.685341E-07  3.847509E-05  4.207125E-08  4.633475E-08 _shell_0000001112   
      1112   5  7.499808E-05  9.000001E+00 -1.562774E-07  3.500457E-05 -6.835153E-08 -1.593570E-08 _shell_0000001112   
      1112   6  6.758253E-05  8.999986E+00 -2.792130E-07  3.132716E-05 -1.787743E-07 -3.966921E-08 _shell_0000001112   
      1112   7  9.465511E-05  9.000010E+00  1.854948E-07  4.135180E-05  3.412183E-09  1.130704E-07 _shell_0000001112   
      1112   8  8.950710E-05  9.000003E+00 -8.767118E-08  3.822685E-05 -1.185280E-08 -5.826156E-08 _shell_0000001112   
      1112   9  8.215741E-05  8.999990E+00 -6.859488E-07  3.489500E-05 -2.711777E-08 -1.910565E-07 _shell_0000001112   
      1112  10  6.880028E-05  9.000010E+00 -5.495262E-08  3.557049E-05  4.778276E-15 -2.535019E-15 _shell_0000001112   
      1112  11  6.317506E-05  8.999999E+00  8.285230E-08  3.181133E-05  1.263604E-15  3.649541E-15 _shell_0000001112   
      1112  12  5.542523E-05  8.999982E+00  7.538446E-08  2.784527E-05  5.888462E-15 -8.032580E-15 _shell_0000001112   
      1112  13  8.084627E-05  9.000009E+00 -1.321627E-07  3.805093E-05  4.351045E-15 -8.353251E-15 _shell_0000001112   
      1112  14  7.539402E-05  9.000001E+00 -2.197552E-07  3.463733E-05  3.257848E-15 -9.050685E-15 _shell_0000001112   
      1112  15  6.777862E-05  8.999985E+00 -5.425399E-07  3.101683E-05 -1.485176E-15 -2.726462E-16 _shell_0000001112   
      1112  16  9.535050E-05  9.000010E+00  3.645539E-07  4.086103E-05  1.590707E-15 -2.882146E-14 _shell_0000001112   
      1112  17  9.000265E-05  9.000003E+00 -1.084611E-07  3.779299E-05  5.443570E-15 -2.715685E-14 _shell_0000001112   
      1112  18  8.245311E-05  8.999989E+00 -9.065879E-07  3.451806E-05 -9.252375E-16 -3.228481E-15 _shell_0000001112   
      1112  19  6.830410E-05  9.000010E+00 -1.486363E-07  3.592804E-05 -1.150214E-07  2.040088E-08 _shell_0000001112   
      1112  20  6.287873E-05  9.000000E+00  1.890177E-07  3.211195E-05  9.055916E-08 -2.639014E-08 _shell_0000001112   
      1112  21  5.532875E-05  8.999983E+00  3.813990E-07  2.808898E-05  2.961397E-07 -1.117181E-07 _shell_0000001112   
      1112  22  8.025047E-05  9.000009E+00 -2.685342E-07  3.847509E-05 -4.207123E-08 -4.633476E-08 _shell_0000001112   
      1112  23  7.499808E-05  9.000001E+00 -1.562775E-07  3.500457E-05  6.835154E-08  1.593571E-08 _shell_0000001112   
      1112  24  6.758253E-05  8.999986E+00 -2.792130E-07  3.132716E-05  1.787743E-07  3.966921E-08 _shell_0000001112   
      1112  25  9.465511E-05  9.000010E+00  1.854946E-07  4.135180E-05 -3.412168E-09 -1.130704E-07 _shell_0000001112   
      1112  26  8.950710E-05  9.000003E+00 -8.767118E-08  3.822685E-05  1.185281E-08  5.826151E-08 _shell_0000001112   
      1112  27  8.215741E-05  8.999990E+00 -6.859488E-07  3.489500E-05  2.711777E-08  1.910565E-07 _shell_0000001112   
      1113   1  4.877304E-05  8.999969E+00 -8.551522E-07  2.281505E-05  3.708150E-07  9.577964E-08 _shell_0000001113   
      1113   2  4.970720E-05  8.999938E+00  6.748730E-07  1.127534E-05  1.190553E-07 -1.145133E-07 _shell_0000001113   
      1113   3  4.321900E-05  8.999886E+00 -1.524507E-06 -1.522329E-06 -1.327044E-07 -3.950110E-07 _shell_0000001113   
      1113   4  6.184073E-05  8.999974E+00 -1.037878E-06  2.596569E-05  3.401224E-07 -7.639337E-10 _shell_0000001113   
      1113   5  6.195105E-05  8.999945E+00  1.089257E-06  1.246876E-05  4.976322E-07  8.647470E-08 _shell_0000001113   
      1113   6  5.470921E-05  8.999895E+00 -3.492023E-07 -2.286115E-06  6.551421E-07  1.035085E-07 _shell_0000001113   
      1113   7  7.696755E-05  8.999979E+00 -1.216441E-06  2.953477E-05  3.991240E-07 -9.730751E-08 _shell_0000001113   
      1113   8  7.607464E-05  8.999952E+00  1.089231E-06  1.408063E-05  9.659034E-07  2.874626E-07 _shell_0000001113   
      1113   9  6.789978E-05  8.999904E+00 -6.879612E-09 -2.631460E-06  1.532683E-06  6.020279E-07 _shell_0000001113   
      1113  10  4.963286E-05  8.999968E+00 -8.451554E-07  2.282533E-05  6.559905E-15 -1.313306E-15 _shell_0000001113   
      1113  11  5.069993E-05  8.999938E+00  8.177808E-07  1.161889E-05  7.072688E-15  1.627356E-14 _shell_0000001113   
      1113  12  4.434464E-05  8.999886E+00 -1.248688E-06 -8.454909E-07  8.243371E-15 -5.971076E-15 _shell_0000001113   
      1113  13  6.328379E-05  8.999973E+00 -7.779223E-07  2.602027E-05  3.175918E-16  3.074584E-15 _shell_0000001113   
      1113  14  6.352701E-05  8.999945E+00  1.482124E-06  1.285662E-05  1.844663E-15  7.228753E-15 _shell_0000001113   
      1113  15  5.641809E-05  8.999895E+00  1.765756E-07 -1.564974E-06  9.733532E-15  1.354224E-15 _shell_0000001113   
      1113  16  7.899384E-05  8.999979E+00 -7.065255E-07  2.963366E-05 -4.314735E-15  4.164111E-15 _shell_0000001113   
      1113  17  7.823385E-05  8.999952E+00  1.732057E-06  1.451280E-05 -9.528108E-15 -5.675678E-15 _shell_0000001113   
      1113  18  7.019190E-05  8.999904E+00  7.688576E-07 -1.866015E-06  1.731434E-15 -5.620937E-15 _shell_0000001113   
      1113  19  4.877304E-05  8.999969E+00 -8.551521E-07  2.281505E-05 -3.708150E-07 -9.577964E-08 _shell_0000001113   
      1113  20  4.970720E-05  8.999938E+00  6.748730E-07  1.127534E-05 -1.190553E-07  1.145133E-07 _shell_0000001113   
      1113  21  4.321900E-05  8.999886E+00 -1.524507E-06 -1.522329E-06  1.327045E-07  3.950110E-07 _shell_0000001113   
      1113  22  6.184073E-05  8.999974E+00 -1.037878E-06  2.596569E-05 -3.401224E-07  7.639288E-10 _shell_0000001113   
      1113  23  6.195105E-05  8.999945E+00  1.089257E-06  1.246876E-05 -4.976323E-07 -8.647466E-08 _shell_0000001113   
      1113  24  5.470921E-05  8.999895E+00 -3.492023E-07 -2.286115E-06 -6.551421E-07 -1.035085E-07 _shell_0000001113   
      1113  25  7.696755E-05  8.999979E+00 -1.216441E-06  2.953477E-05 -3.991240E-07  9.730751E-08 _shell_0000001113   
      1113  26  7.607464E-05  8.999952E+00  1.089231E-06  1.408063E-05 -9.659034E-07 -2.874626E-07 _shell_0000001113   
      1113  27  6.789978E-05  8.999904E+00 -6.879659E-09 -2.631460E-06 -1.532683E-06 -6.020279E-07 _shell_0000001113   
      1114   1  5.276768E-05  8.999849E+00  1.235219E-06 -9.834812E-06 -1.759763E-07 -5.490651E-07 _shell_0000001114   
      1114   2  5.471657E-05  8.999776E+00 -9.385087E-07 -1.534053E-06  2.306414E-07 -8.928669E-08 _shell_0000001114   
      1114   3  6.216035E-05  8.999717E+00  2.027675E-06  1.382665E-05  6.372590E-07  1.398179E-06 _shell_0000001114   
      1114   4  6.414881E-05  8.999854E+00  2.282800E-06 -1.510523E-05 -8.117855E-07 -1.244064E-07 _shell_0000001114   
      1114   5  7.143931E-05  8.999769E+00 -3.137171E-07 -3.623871E-06 -3.066622E-06 -2.159814E-07 _shell_0000001114   
      1114   6  8.319703E-05  8.999696E+00 -1.682607E-07  1.491743E-05 -5.321458E-06  7.201310E-07 _shell_0000001114   
      1114   7  7.716026E-05  8.999860E+00  2.933707E-06 -2.303730E-05 -1.957953E-06  3.002522E-07 _shell_0000001114   
      1114   8  9.081309E-05  8.999764E+00  2.296072E-06 -8.375337E-06 -6.874243E-06 -3.426762E-07 _shell_0000001114   
      1114   9  1.079054E-04  8.999678E+00  2.002473E-06  1.334657E-05 -1.179053E-05  4.208280E-08 _shell_0000001114   
      1114  10  5.295743E-05  8.999849E+00  1.219844E-06 -9.409202E-06  1.171321E-14 -5.181772E-15 _shell_0000001114   
      1114  11  5.543435E-05  8.999777E+00 -4.258501E-07 -3.489917E-06  8.048959E-15  1.260854E-14 _shell_0000001114   
      1114  12  6.340616E-05  8.999719E+00  3.068366E-06  9.489314E-06  1.812374E-16 -2.498346E-14 _shell_0000001114   
      1114  13  6.017098E-05  8.999852E+00  4.813200E-07 -1.450361E-05  8.195544E-15  4.713095E-15 _shell_0000001114   
      1114  14  6.798952E-05  8.999768E+00 -1.587163E-06 -5.403724E-06  6.300017E-15  1.533181E-14 _shell_0000001114   
      1114  15  8.027526E-05  8.999697E+00 -9.136738E-07  1.075611E-05  7.161149E-15 -1.493767E-14 _shell_0000001114   
      1114  16  6.901485E-05  8.999856E+00 -6.538775E-07 -2.225966E-05  3.805661E-15  3.349285E-15 _shell_0000001114   
      1114  17  8.319572E-05  8.999761E+00 -7.634788E-07 -9.979179E-06  1.176760E-14  4.098137E-15 _shell_0000001114   
      1114  18  1.008161E-04  8.999677E+00 -5.290447E-07  9.361253E-06  1.167400E-14 -2.224105E-14 _shell_0000001114   
      1114  19  5.276768E-05  8.999849E+00  1.235219E-06 -9.834812E-06  1.759763E-07  5.490651E-07 _shell_0000001114   
      1114  20  5.471657E-05  8.999776E+00 -9.385087E-07 -1.534053E-06 -2.306414E-07  8.928668E-08 _shell_0000001114   
      1114  21  6.216035E-05  8.999717E+00  2.027675E-06  1.382665E-05 -6.372590E-07 -1.398179E-06 _shell_0000001114   
      1114  22  6.414881E-05  8.999854E+00  2.282800E-06 -1.510523E-05  8.117856E-07  1.244064E-07 _shell_0000001114   
      1114  23  7.143931E-05  8.999769E+00 -3.137171E-07 -3.623871E-06  3.066622E-06  2.159815E-07 _shell_0000001114   
      1114  24  8.319703E-05  8.999696E+00 -1.682607E-07  1.491743E-05  5.321458E-06 -7.201311E-07 _shell_0000001114   
      1114  25  7.716026E-05  8.999860E+00  2.933707E-06 -2.303729E-05  1.957953E-06 -3.002522E-07 _shell_0000001114   
      1114  26  9.081309E-05  8.999764E+00  2.296072E-06 -8.375337E-06  6.874243E-06  3.426762E-07 _shell_0000001114   
      1114  27  1.079054E-04  8.999678E+00  2.002473E-06  1.334657E-05  1.179053E-05 -4.208285E-08 _shell_0000001114   
      1115   1  5.243369E-05  8.999687E+00  4.705056E-07  3.546383E-05  9.985664E-07  4.454506E-07 _shell_0000001115   
      1115   2  2.938262E-05  8.999645E+00 -3.514502E-07  3.040361E-05 -1.385549E-07 -1.440346E-06 _shell_0000001115   
      1115   3  6.865037E-06  8.999603E+00  1.621769E-06  1.731454E-05 -1.275676E-06  2.156580E-06 _shell_0000001115   
      1115   4  6.367928E-05  8.999666E+00 -3.564833E-06  4.602173E-05 -6.353026E-06 -3.868690E-07 _shell_0000001115   
      1115   5  4.025569E-05  8.999651E+00  2.744619E-06  4.317968E-05 -1.347043E-06 -2.251465E-06 _shell_0000001115   
      1115   6  1.188288E-05  8.999629E+00 -9.437731E-07  3.230877E-05  3.658939E-06  1.366662E-06 _shell_0000001115   
      1115   7  8.076833E-05  8.999649E+00 -2.651276E-06  6.127019E-05 -1.287987E-05 -1.219189E-06 _shell_0000001115   
      1115   8  5.532275E-05  8.999658E+00  6.940781E-06  6.064630E-05 -1.730788E-06 -3.062583E-06 _shell_0000001115   
      1115   9  1.944521E-05  8.999656E+00 -6.258027E-06  5.199356E-05  9.418299E-06  5.767448E-07 _shell_0000001115   
      1115  10  5.256185E-05  8.999688E+00  8.154037E-07  3.028498E-05 -3.346175E-15 -2.920868E-14 _shell_0000001115   
      1115  11  2.767895E-05  8.999642E+00 -1.838374E-06  2.777607E-05  3.150209E-15  2.733020E-15 _shell_0000001115   
      1115  12  3.329550E-06  8.999595E+00 -1.696976E-06  1.723830E-05 -4.483111E-15  2.289129E-14 _shell_0000001115   
      1115  13  6.827222E-05  8.999669E+00 -1.306454E-06  4.023228E-05  1.033217E-14 -2.461673E-14 _shell_0000001115   
      1115  14  4.301682E-05  8.999650E+00  3.171176E-06  3.994152E-05  4.072339E-15 -8.197224E-17 _shell_0000001115   
      1115  15  1.281218E-05  8.999624E+00 -2.349038E-06  3.162193E-05 -6.374771E-15  3.210648E-14 _shell_0000001115   
      1115  16  8.982606E-05  8.999654E+00  1.520583E-06  5.487013E-05  1.499770E-14 -3.289378E-14 _shell_0000001115   
      1115  17  6.254866E-05  8.999659E+00  9.280818E-06  5.679754E-05  3.664884E-15 -7.915197E-15 _shell_0000001115   
      1115  18  2.483930E-05  8.999652E+00 -5.749812E-06  5.069611E-05 -1.147803E-14  3.456736E-14 _shell_0000001115   
      1115  19  5.243369E-05  8.999687E+00  4.705057E-07  3.546383E-05 -9.985664E-07 -4.454507E-07 _shell_0000001115   
      1115  20  2.938262E-05  8.999645E+00 -3.514502E-07  3.040361E-05  1.385549E-07  1.440346E-06 _shell_0000001115   
      1115  21  6.865037E-06  8.999603E+00  1.621769E-06  1.731454E-05  1.275676E-06 -2.156580E-06 _shell_0000001115   
      1115  22  6.367928E-05  8.999666E+00 -3.564833E-06  4.602173E-05  6.353026E-06  3.868689E-07 _shell_0000001115   
      1115  23  4.025569E-05  8.999651E+00  2.744619E-06  4.317968E-05  1.347043E-06  2.251465E-06 _shell_0000001115   
      1115  24  1.188288E-05  8.999629E+00 -9.437731E-07  3.230877E-05 -3.658940E-06 -1.366662E-06 _shell_0000001115   
      1115  25  8.076833E-05  8.999649E+00 -2.651276E-06  6.127019E-05  1.287987E-05  1.219189E-06 _shell_0000001115   
      1115  26  5.532275E-05  8.999658E+00  6.940781E-06  6.064630E-05  1.730788E-06  3.062583E-06 _shell_0000001115   
      1115  27  1.944521E-05  8.999656E+00 -6.258027E-06  5.199356E-05 -9.418299E-06 -5.767447E-07 _shell_0000001115   
      1201   1  1.557636E-05  8.999685E+00 -7.397295E-06 -6.148856E-05 -6.359950E-06 -3.296374E-07 _shell_0000001201   
      1201   2  5.802071E-05  8.999640E+00  9.316697E-07 -8.695180E-05 -2.596326E-06 -3.323787E-06 _shell_0000001201   
      1201   3  1.101177E-04  8.999628E+00  9.287581E-06 -6.159687E-05  1.167299E-06 -1.884521E-05 _shell_0000001201   
      1201   4 -1.595083E-05  8.999764E+00  2.902552E-06 -7.089984E-05  1.523551E-05  4.838211E-06 _shell_0000001201   
      1201   5  7.489627E-05  8.999668E+00  4.123650E-06 -1.055104E-04 -1.252405E-05  2.015547E-06 _shell_0000001201   
      1201   6  1.879233E-04  8.999616E+00  3.460200E-05 -8.930281E-05 -4.028361E-05 -1.333439E-05 _shell_0000001201   
      1201   7 -6.563753E-05  8.999840E+00  2.006782E-05 -9.264771E-05  4.425739E-05  1.000606E-05 _shell_0000001201   
      1201   8  5.875946E-05  8.999677E+00 -2.047561E-05 -1.364056E-04 -1.502535E-05  7.354880E-06 _shell_0000001201   
      1201   9  2.178636E-04  8.999571E+00 -2.531493E-06 -1.293453E-04 -7.430809E-05 -7.823571E-06 _shell_0000001201   
      1201  10  3.024383E-05  8.999719E+00  7.154672E-06 -4.861822E-05 -1.313140E-14  3.257818E-15 _shell_0000001201   
      1201  11  5.617163E-05  8.999636E+00 -1.032905E-06 -9.302613E-05 -3.200031E-15 -1.193155E-14 _shell_0000001201   
      1201  12  9.175206E-05  8.999584E+00 -9.193534E-06 -8.661586E-05  8.373910E-15 -3.638449E-14 _shell_0000001201   
      1201  13 -3.443652E-05  8.999784E+00  3.246023E-06 -6.353502E-05 -1.679558E-15 -7.803154E-15 _shell_0000001201   
      1201  14  3.989404E-05  8.999649E+00 -1.204942E-05 -1.170903E-04 -5.793425E-17  7.726709E-15 _shell_0000001201   
      1201  15  1.364045E-04  8.999558E+00  1.912385E-06 -1.198273E-04 -2.914586E-15 -4.519906E-14 _shell_0000001201   
      1201  16 -1.172764E-04  8.999845E+00  6.202793E-06 -9.078840E-05 -7.301271E-15 -3.033844E-14 _shell_0000001201   
      1201  17 -9.395925E-06  8.999644E+00 -5.085718E-05 -1.534910E-04 -8.844005E-15 -9.777864E-16 _shell_0000001201   
      1201  18  1.331917E-04  8.999499E+00 -4.942960E-05 -1.653753E-04 -1.602781E-14 -3.908487E-14 _shell_0000001201   
      1201  19  1.557636E-05  8.999685E+00 -7.397294E-06 -6.148856E-05  6.359950E-06  3.296375E-07 _shell_0000001201   
      1201  20  5.802071E-05  8.999640E+00  9.316698E-07 -8.695180E-05  2.596326E-06  3.323787E-06 _shell_0000001201   
      1201  21  1.101177E-04  8.999628E+00  9.287581E-06 -6.159687E-05 -1.167299E-06  1.884521E-05 _shell_0000001201   
      1201  22 -1.595083E-05  8.999764E+00  2.902552E-06 -7.089984E-05 -1.523551E-05 -4.838211E-06 _shell_0000001201   
      1201  23  7.489627E-05  8.999668E+00  4.123650E-06 -1.055104E-04  1.252405E-05 -2.015547E-06 _shell_0000001201   
      1201  24  1.879233E-04  8.999616E+00  3.460200E-05 -8.930281E-05  4.028361E-05  1.333439E-05 _shell_0000001201   
      1201  25 -6.563753E-05  8.999840E+00  2.006782E-05 -9.264771E-05 -4.425739E-05 -1.000606E-05 _shell_0000001201   
      1201  26  5.875946E-05  8.999677E+00 -2.047561E-05 -1.364056E-04  1.502535E-05 -7.354880E-06 _shell_0000001201   
      1201  27  2.178636E-04  8.999571E+00 -2.531493E-06 -1.293453E-04  7.430809E-05  7.823571E-06 _shell_0000001201   
      1202   1  1.275399E-04  8.999677E+00  1.672661E-05  1.464100E-05  7.007962E-06 -1.805867E-05 _shell_0000001202   
      1202   2  1.159307E-04  8.999802E+00  2.003764E-05  2.683113E-05  4.478300E-06 -5.086944E-07 _shell_0000001202   
      1202   3  7.887379E-05  8.999865E+00 -3.274348E-07  2.731542E-05  1.948638E-06  3.469296E-06 _shell_0000001202   
      1202   4  1.344541E-04  8.999624E+00  7.195757E-06  2.486894E-05 -2.014980E-05 -1.352646E-05 _shell_0000001202   
      1202   5  1.103180E-04  8.999773E+00 -4.924836E-06  3.128961E-05 -1.181638E-05  4.890602E-07 _shell_0000001202   
      1202   6  7.430624E-05  8.999874E+00 -9.053565E-06  2.600444E-05 -3.482960E-06  9.325935E-07 _shell_0000001202   
      1202   7  1.240916E-04  8.999551E+00 -5.316728E-05  4.140231E-05 -5.338657E-05 -8.994249E-06 _shell_0000001202   
      1202   8  9.958673E-05  8.999737E+00 -5.235078E-05  4.205352E-05 -3.419007E-05  1.486815E-06 _shell_0000001202   
      1202   9  7.677810E-05  8.999888E+00 -1.187444E-05  3.099889E-05 -1.499357E-05 -1.604109E-06 _shell_0000001202   
      1202  10  1.045408E-04  8.999628E+00 -4.873502E-06 -1.218891E-05  1.300582E-14 -3.237458E-14 _shell_0000001202   
      1202  11  1.026331E-04  8.999775E+00  8.139042E-06  1.323802E-05  1.666578E-14 -8.877371E-15 _shell_0000001202   
      1202  12  7.527772E-05  8.999861E+00 -2.524524E-06  2.695912E-05  1.407939E-14 -2.050139E-15 _shell_0000001202   
      1202  13  1.346194E-04  8.999585E+00 -4.476750E-06  1.272869E-06 -1.499823E-15 -4.198466E-14 _shell_0000001202   
      1202  14  1.201848E-04  8.999757E+00 -6.895831E-06  2.093034E-05  1.628624E-15  5.385160E-15 _shell_0000001202   
      1202  15  9.387458E-05  8.999881E+00 -1.323050E-06  2.888198E-05  5.937278E-15 -1.747091E-14 _shell_0000001202   
      1202  16  1.474213E-04  8.999522E+00 -5.491218E-05  2.104007E-05 -1.709082E-14 -3.827937E-14 _shell_0000001202   
      1202  17  1.326180E-04  8.999730E+00 -4.439417E-05  3.492808E-05 -1.245141E-14  2.687245E-15 _shell_0000001202   
      1202  18  1.195109E-04  8.999904E+00  5.783678E-06  3.711027E-05 -3.088708E-15 -2.842066E-14 _shell_0000001202   
      1202  19  1.275399E-04  8.999677E+00  1.672661E-05  1.464100E-05 -7.007962E-06  1.805867E-05 _shell_0000001202   
      1202  20  1.159307E-04  8.999802E+00  2.003764E-05  2.683113E-05 -4.478300E-06  5.086944E-07 _shell_0000001202   
      1202  21  7.887379E-05  8.999865E+00 -3.274348E-07  2.731542E-05 -1.948638E-06 -3.469296E-06 _shell_0000001202   
      1202  22  1.344541E-04  8.999624E+00  7.195757E-06  2.486894E-05  2.014980E-05  1.352646E-05 _shell_0000001202   
      1202  23  1.103180E-04  8.999773E+00 -4.924836E-06  3.128961E-05  1.181638E-05 -4.890602E-07 _shell_0000001202   
      1202  24  7.430624E-05  8.999874E+00 -9.053565E-06  2.600444E-05  3.482960E-06 -9.325935E-07 _shell_0000001202   
      1202  25  1.240916E-04  8.999551E+00 -5.316728E-05  4.140231E-05  5.338657E-05  8.994249E-06 _shell_0000001202   
      1202  26  9.958673E-05  8.999737E+00 -5.235078E-05  4.205352E-05  3.419007E-05 -1.486815E-06 _shell_0000001202   
      1202  27  7.677810E-05  8.999888E+00 -1.187444E-05  3.099889E-05  1.499357E-05  1.604109E-06 _shell_0000001202   
      1203   1  6.800234E-05  8.999891E+00 -8.966345E-06  9.869968E-08 -7.092833E-07  1.968591E-06 _shell_0000001203   
      1203   2  8.101449E-05  8.999947E+00 -3.575803E-06 -1.737305E-05 -5.942739E-07  1.102852E-06 _shell_0000001203   
      1203   3  8.874227E-05  8.999986E+00  7.330642E-07 -3.311545E-05 -4.792646E-07 -5.239551E-07 _shell_0000001203   
      1203   4  9.625998E-05  8.999923E+00  3.781144E-06 -3.400137E-06  3.971264E-06 -1.038734E-06 _shell_0000001203   
      1203   5  1.041897E-04  8.999963E+00  9.033700E-07 -1.982383E-05  2.124500E-06  1.269508E-08 _shell_0000001203   
      1203   6  1.075961E-04  8.999987E+00 -1.280254E-06 -3.451819E-05  2.777357E-07  3.030558E-07 _shell_0000001203   
      1203   7  1.355018E-04  8.999962E+00  2.929115E-05 -9.237761E-06  1.007010E-05 -4.046059E-06 _shell_0000001203   
      1203   8  1.355125E-04  8.999983E+00  1.152636E-05 -2.461341E-05  6.261566E-06 -1.077462E-06 _shell_0000001203   
      1203   9  1.317610E-04  8.999989E+00 -3.768455E-06 -3.825971E-05  2.453028E-06  1.130067E-06 _shell_0000001203   
      1203  10  7.159605E-05  8.999895E+00 -6.640903E-06  2.854307E-06  8.080163E-15 -8.958992E-15 _shell_0000001203   
      1203  11  8.357385E-05  8.999949E+00 -2.284704E-06 -1.580337E-05 -2.843053E-15 -1.366228E-14 _shell_0000001203   
      1203  12  9.026728E-05  8.999986E+00  9.898191E-07 -3.273171E-05 -3.978132E-15  1.132640E-16 _shell_0000001203   
      1203  13  9.777831E-05  8.999926E+00  5.217140E-06 -9.893118E-07  5.399007E-15 -2.243799E-14 _shell_0000001203   
      1203  14  1.046737E-04  8.999964E+00  1.305022E-06 -1.859894E-05  2.443163E-15 -1.232124E-15 _shell_0000001203   
      1203  15  1.070458E-04  8.999985E+00 -1.912946E-06 -3.447922E-05  8.266357E-16 -1.239214E-14 _shell_0000001203   
      1203  16  1.349448E-04  8.999964E+00  2.983770E-05 -7.171716E-06  6.115949E-16 -3.441072E-14 _shell_0000001203   
      1203  17  1.339211E-04  8.999983E+00  1.103856E-05 -2.373329E-05  1.317257E-15 -1.181132E-15 _shell_0000001203   
      1203  18  1.291353E-04  8.999986E+00 -5.290594E-06 -3.856552E-05  7.825016E-16 -1.928353E-14 _shell_0000001203   
      1203  19  6.800234E-05  8.999891E+00 -8.966345E-06  9.869965E-08  7.092833E-07 -1.968591E-06 _shell_0000001203   
      1203  20  8.101449E-05  8.999947E+00 -3.575803E-06 -1.737305E-05  5.942739E-07 -1.102852E-06 _shell_0000001203   
      1203  21  8.874227E-05  8.999986E+00  7.330642E-07 -3.311545E-05  4.792645E-07  5.239551E-07 _shell_0000001203   
      1203  22  9.625998E-05  8.999923E+00  3.781144E-06 -3.400137E-06 -3.971264E-06  1.038734E-06 _shell_0000001203   
      1203  23  1.041897E-04  8.999963E+00  9.033700E-07 -1.982383E-05 -2.124500E-06 -1.269506E-08 _shell_0000001203   
      1203  24  1.075961E-04  8.999987E+00 -1.280254E-06 -3.451819E-05 -2.777357E-07 -3.030558E-07 _shell_0000001203   
      1203  25  1.355018E-04  8.999962E+00  2.929115E-05 -9.237761E-06 -1.007010E-05  4.046059E-06 _shell_0000001203   
      1203  26  1.355125E-04  8.999983E+00  1.152636E-05 -2.461341E-05 -6.261566E-06  1.077462E-06 _shell_0000001203   
      1203  27  1.317610E-04  8.999989E+00 -3.768455E-06 -3.825971E-05 -2.453028E-06 -1.130067E-06 _shell_0000001203   
      1204   1  9.610587E-05  8.999999E+00  2.982133E-06 -3.813046E-05  1.640007E-08 -1.026926E-06 _shell_0000001204   
      1204   2  9.956265E-05  9.000005E+00  6.503691E-07 -3.902316E-05  2.352423E-08 -5.459203E-07 _shell_0000001204   
      1204   3  1.027408E-04  9.000009E+00 -1.532873E-07 -4.229598E-05  3.064840E-08  7.666420E-08 _shell_0000001204   
      1204   4  1.160158E-04  8.999997E+00  1.009507E-06 -4.065659E-05 -1.659128E-07  1.616118E-07 _shell_0000001204   
      1204   5  1.169439E-04  9.000004E+00 -2.908758E-07 -4.028987E-05 -1.770062E-07 -3.216424E-08 _shell_0000001204   
      1204   6  1.174519E-04  9.000008E+00 -3.935001E-07 -4.230328E-05 -1.880996E-07 -8.436205E-08 _shell_0000001204   
      1204   7  1.371008E-04  8.999994E+00 -4.234509E-06 -4.293219E-05 -8.428410E-07  1.350150E-06 _shell_0000001204   
      1204   8  1.364895E-04  9.000003E+00 -2.195305E-06 -4.130606E-05 -8.721520E-07  4.815917E-07 _shell_0000001204   
      1204   9  1.353164E-04  9.000009E+00  7.113072E-07 -4.206005E-05 -9.014629E-07 -2.453882E-07 _shell_0000001204   
      1204  10  9.611196E-05  8.999997E+00  2.474748E-06 -3.758203E-05 -4.877025E-15 -5.090327E-15 _shell_0000001204   
      1204  11  9.992249E-05  9.000005E+00  4.967379E-07 -3.854149E-05 -4.037806E-15 -2.078882E-14 _shell_0000001204   
      1204  12  1.034544E-04  9.000009E+00  4.683587E-08 -4.188106E-05 -5.279019E-15  7.748801E-15 _shell_0000001204   
      1204  13  1.159051E-04  8.999995E+00  4.520551E-07 -3.999024E-05  1.049719E-15 -1.266702E-14 _shell_0000001204   
      1204  14  1.171869E-04  9.000003E+00 -4.945733E-07 -3.969028E-05 -2.904649E-15 -5.276452E-15 _shell_0000001204   
      1204  15  1.180486E-04  9.000008E+00 -2.434432E-07 -4.177044E-05 -8.488771E-15 -8.727121E-15 _shell_0000001204   
      1204  16  1.368733E-04  8.999992E+00 -4.842027E-06 -4.214793E-05 -2.852099E-15 -2.097220E-14 _shell_0000001204   
      1204  17  1.366157E-04  9.000002E+00 -2.449069E-06 -4.058855E-05 -1.423813E-16 -6.576940E-15 _shell_0000001204   
      1204  18  1.357963E-04  9.000009E+00  8.112979E-07 -4.140930E-05 -4.167685E-15 -1.892716E-14 _shell_0000001204   
      1204  19  9.610587E-05  8.999999E+00  2.982133E-06 -3.813046E-05 -1.640007E-08  1.026926E-06 _shell_0000001204   
      1204  20  9.956265E-05  9.000005E+00  6.503691E-07 -3.902316E-05 -2.352424E-08  5.459202E-07 _shell_0000001204   
      1204  21  1.027408E-04  9.000009E+00 -1.532874E-07 -4.229598E-05 -3.064841E-08 -7.666415E-08 _shell_0000001204   
      1204  22  1.160158E-04  8.999997E+00  1.009507E-06 -4.065659E-05  1.659128E-07 -1.616118E-07 _shell_0000001204   
      1204  23  1.169439E-04  9.000004E+00 -2.908758E-07 -4.028987E-05  1.770062E-07  3.216426E-08 _shell_0000001204   
      1204  24  1.174519E-04  9.000008E+00 -3.935002E-07 -4.230328E-05  1.880996E-07  8.436203E-08 _shell_0000001204   
      1204  25  1.371008E-04  8.999994E+00 -4.234509E-06 -4.293219E-05  8.428410E-07 -1.350150E-06 _shell_0000001204   
      1204  26  1.364895E-04  9.000003E+00 -2.195305E-06 -4.130606E-05  8.721519E-07 -4.815918E-07 _shell_0000001204   
      1204  27  1.353164E-04  9.000009E+00  7.113072E-07 -4.206005E-05  9.014629E-07  2.453883E-07 _shell_0000001204   
      1205   1  1.037005E-04  9.000010E+00 -2.437586E-07 -4.095119E-05  6.992901E-08  2.416460E-07 _shell_0000001205   
      1205   2  1.045824E-04  9.000012E+00 -2.476660E-07 -3.661167E-05  3.068854E-08  1.053168E-07 _shell_0000001205   
      1205   3  1.054459E-04  9.000014E+00  1.123370E-07 -3.376286E-05 -8.551914E-09 -1.445929E-08 _shell_0000001205   
      1205   4  1.183468E-04  9.000010E+00  1.921591E-07 -4.044916E-05 -3.989736E-08 -6.322873E-08 _shell_0000001205   
      1205   5  1.168711E-04  9.000011E+00 -9.514896E-08 -3.582673E-05  3.041091E-09 -1.910992E-08 _shell_0000001205   
      1205   6  1.153604E-04  9.000011E+00 -5.717039E-08 -3.269500E-05  4.597956E-08  4.156194E-08 _shell_0000001205   
      1205   7  1.339044E-04  9.000010E+00  1.471938E-06 -4.000935E-05 -6.990478E-08 -3.681035E-07 _shell_0000001205   
      1205   8  1.299114E-04  9.000010E+00  5.287410E-07 -3.510400E-05  5.521259E-08 -1.435367E-07 _shell_0000001205   
      1205   9  1.258668E-04  9.000009E+00 -1.277933E-07 -3.168935E-05  1.803300E-07  9.758321E-08 _shell_0000001205   
      1205  10  1.037620E-04  9.000010E+00 -2.603940E-07 -4.072338E-05 -8.527834E-15  1.527103E-14 _shell_0000001205   
      1205  11  1.046673E-04  9.000012E+00 -2.408900E-07 -3.632844E-05 -4.832764E-15 -5.721436E-15 _shell_0000001205   
      1205  12  1.055542E-04  9.000014E+00  1.425244E-07 -3.342420E-05  2.741348E-15 -1.872100E-14 _shell_0000001205   
      1205  13  1.185053E-04  9.000010E+00  2.170937E-07 -4.021355E-05 -8.068096E-15 -1.292527E-15 _shell_0000001205   
      1205  14  1.170530E-04  9.000011E+00 -4.680290E-08 -3.553570E-05 -1.575065E-15  1.185009E-14 _shell_0000001205   
      1205  15  1.155657E-04  9.000011E+00  1.458702E-08 -3.234854E-05  2.771289E-15 -2.987505E-14 _shell_0000001205   
      1205  16  1.341599E-04  9.000010E+00  1.538443E-06 -3.976594E-05 -4.352243E-15 -1.303128E-14 _shell_0000001205   
      1205  17  1.301903E-04  9.000010E+00  6.186572E-07 -3.480516E-05  3.027167E-15  5.029037E-15 _shell_0000001205   
      1205  18  1.261691E-04  9.000009E+00 -1.446584E-08 -3.133509E-05  4.781959E-15 -4.315718E-14 _shell_0000001205   
      1205  19  1.037005E-04  9.000010E+00 -2.437586E-07 -4.095119E-05 -6.992902E-08 -2.416460E-07 _shell_0000001205   
      1205  20  1.045824E-04  9.000012E+00 -2.476660E-07 -3.661167E-05 -3.068855E-08 -1.053168E-07 _shell_0000001205   
      1205  21  1.054459E-04  9.000014E+00  1.123371E-07 -3.376286E-05  8.551923E-09  1.445926E-08 _shell_0000001205   
      1205  22  1.183468E-04  9.000010E+00  1.921590E-07 -4.044916E-05  3.989735E-08  6.322874E-08 _shell_0000001205   
      1205  23  1.168711E-04  9.000011E+00 -9.514895E-08 -3.582673E-05 -3.041090E-09  1.910995E-08 _shell_0000001205   
      1205  24  1.153604E-04  9.000011E+00 -5.717042E-08 -3.269500E-05 -4.597954E-08 -4.156200E-08 _shell_0000001205   
      1205  25  1.339044E-04  9.000010E+00  1.471938E-06 -4.000935E-05  6.990478E-08  3.681035E-07 _shell_0000001205   
      1205  26  1.299114E-04  9.000010E+00  5.287410E-07 -3.510400E-05 -5.521259E-08  1.435367E-07 _shell_0000001205   
      1205  27  1.258668E-04  9.000009E+00 -1.277934E-07 -3.168935E-05 -1.803300E-07 -9.758327E-08 _shell_0000001205   
      1206   1  1.051505E-04  9.000014E+00  1.049408E-07 -3.061209E-05 -4.551960E-08 -5.409604E-08 _shell_0000001206   
      1206   2  1.045000E-04  9.000013E+00  2.868736E-08 -2.498653E-05 -2.369860E-08 -4.940010E-08 _shell_0000001206   
      1206   3  1.037662E-04  9.000013E+00 -4.803692E-08 -2.057620E-05 -1.877595E-09  4.585301E-09 _shell_0000001206   
      1206   4  1.141898E-04  9.000011E+00 -4.685804E-09 -2.953253E-05  5.551025E-08  3.802736E-08 _shell_0000001206   
      1206   5  1.120750E-04  9.000011E+00  5.044102E-08 -2.400954E-05  1.106194E-08 -1.365992E-08 _shell_0000001206   
      1206   6  1.098277E-04  9.000010E+00 -9.911725E-09 -1.970179E-05 -3.338637E-08 -1.605777E-08 _shell_0000001206   
      1206   7  1.230271E-04  9.000008E+00 -4.054115E-07 -2.832727E-05  1.215789E-07  1.301508E-07 _shell_0000001206   
      1206   8  1.195180E-04  9.000008E+00 -5.575218E-08 -2.290686E-05  1.086130E-08  2.208024E-08 _shell_0000001206   
      1206   9  1.158270E-04  9.000008E+00  6.341877E-08 -1.870169E-05 -9.985631E-08 -3.670080E-08 _shell_0000001206   
      1206  10  1.052027E-04  9.000014E+00  1.175381E-07 -3.032444E-05  6.353224E-15 -1.954691E-14 _shell_0000001206   
      1206  11  1.045675E-04  9.000013E+00  5.651613E-08 -2.476707E-05  5.410659E-15 -1.763284E-14 _shell_0000001206   
      1206  12  1.038489E-04  9.000013E+00 -4.976577E-09 -2.042493E-05  8.866145E-15 -1.559044E-14 _shell_0000001206   
      1206  13  1.141227E-04  9.000011E+00 -4.322771E-08 -2.923980E-05  5.726687E-15 -3.058255E-14 _shell_0000001206   
      1206  14  1.120232E-04  9.000011E+00  2.713068E-08 -2.378500E-05  5.904756E-15  1.234284E-15 _shell_0000001206   
      1206  15  1.097911E-04  9.000010E+00 -1.799056E-08 -1.954544E-05  8.650597E-15 -1.238973E-14 _shell_0000001206   
      1206  16  1.228407E-04  9.000008E+00 -4.950925E-07 -2.802947E-05  3.795324E-15 -4.214803E-14 _shell_0000001206   
      1206  17  1.193469E-04  9.000008E+00 -1.302016E-07 -2.267725E-05  3.698004E-15  4.418197E-15 _shell_0000001206   
      1206  18  1.156711E-04  9.000008E+00  4.200797E-09 -1.854026E-05  3.617867E-15  2.452293E-15 _shell_0000001206   
      1206  19  1.051505E-04  9.000014E+00  1.049408E-07 -3.061209E-05  4.551961E-08  5.409601E-08 _shell_0000001206   
      1206  20  1.045000E-04  9.000013E+00  2.868739E-08 -2.498653E-05  2.369861E-08  4.940008E-08 _shell_0000001206   
      1206  21  1.037662E-04  9.000013E+00 -4.803687E-08 -2.057620E-05  1.877609E-09 -4.585298E-09 _shell_0000001206   
      1206  22  1.141898E-04  9.000011E+00 -4.685860E-09 -2.953253E-05 -5.551024E-08 -3.802742E-08 _shell_0000001206   
      1206  23  1.120750E-04  9.000011E+00  5.044105E-08 -2.400954E-05 -1.106192E-08  1.365993E-08 _shell_0000001206   
      1206  24  1.098277E-04  9.000010E+00 -9.911684E-09 -1.970179E-05  3.338637E-08  1.605773E-08 _shell_0000001206   
      1206  25  1.230271E-04  9.000008E+00 -4.054115E-07 -2.832727E-05 -1.215789E-07 -1.301508E-07 _shell_0000001206   
      1206  26  1.195180E-04  9.000008E+00 -5.575216E-08 -2.290686E-05 -1.086130E-08 -2.208023E-08 _shell_0000001206   
      1206  27  1.158270E-04  9.000008E+00  6.341884E-08 -1.870169E-05  9.985631E-08  3.670081E-08 _shell_0000001206   
      1207   1  1.032816E-04  9.000012E+00 -8.374165E-08 -1.744717E-05  2.198828E-08  2.657367E-08 _shell_0000001207   
      1207   2  1.027807E-04  9.000012E+00 -1.648874E-08 -1.228975E-05  3.862772E-09  1.764706E-08 _shell_0000001207   
      1207   3  1.022301E-04  9.000011E+00 -4.579070E-08 -7.686119E-06 -1.426273E-08  1.075340E-08 _shell_0000001207   
      1207   4  1.088584E-04  9.000010E+00  6.805091E-09 -1.661554E-05  1.325362E-08 -7.159052E-09 _shell_0000001207   
      1207   5  1.076323E-04  9.000010E+00  5.034468E-08 -1.168893E-05 -5.859810E-09 -4.684824E-09 _shell_0000001207   
      1207   6  1.063546E-04  9.000009E+00 -7.414189E-09 -7.316095E-06 -2.497324E-08 -1.776996E-10 _shell_0000001207   
      1207   7  1.140908E-04  9.000008E+00  4.708498E-08 -1.573950E-05  7.479510E-09 -4.089173E-08 _shell_0000001207   
      1207   8  1.121337E-04  9.000007E+00  5.309530E-08 -1.104369E-05 -1.262182E-08 -2.701680E-08 _shell_0000001207   
      1207   9  1.101229E-04  9.000007E+00 -4.693639E-08 -6.901656E-06 -3.272319E-08 -1.110879E-08 _shell_0000001207   
      1207  10  1.032542E-04  9.000012E+00 -8.430160E-08 -1.737252E-05  1.081396E-14 -7.940935E-15 _shell_0000001207   
      1207  11  1.027595E-04  9.000012E+00 -1.088405E-08 -1.221661E-05  1.024043E-14 -2.870848E-15 _shell_0000001207   
      1207  12  1.022151E-04  9.000011E+00 -3.402129E-08 -7.614482E-06  6.124100E-15 -3.485739E-14 _shell_0000001207   
      1207  13  1.088284E-04  9.000010E+00  5.117672E-09 -1.653884E-05  1.124364E-14 -6.148914E-15 _shell_0000001207   
      1207  14  1.076085E-04  9.000010E+00  5.482188E-08 -1.161373E-05  1.528309E-14  1.836574E-14 _shell_0000001207   
      1207  15  1.063370E-04  9.000009E+00  3.227691E-09 -7.242403E-06  4.305882E-15  1.018349E-14 _shell_0000001207   
      1207  16  1.140582E-04  9.000008E+00  4.427014E-08 -1.566075E-05  1.004372E-14  8.144558E-16 _shell_0000001207   
      1207  17  1.121072E-04  9.000007E+00  5.644504E-08 -1.096644E-05  1.387268E-14  1.592237E-14 _shell_0000001207   
      1207  18  1.101026E-04  9.000007E+00 -3.742205E-08 -6.825909E-06  3.544529E-15  3.324886E-14 _shell_0000001207   
      1207  19  1.032816E-04  9.000012E+00 -8.374166E-08 -1.744717E-05 -2.198826E-08 -2.657365E-08 _shell_0000001207   
      1207  20  1.027807E-04  9.000012E+00 -1.648866E-08 -1.228975E-05 -3.862757E-09 -1.764708E-08 _shell_0000001207   
      1207  21  1.022301E-04  9.000011E+00 -4.579044E-08 -7.686119E-06  1.426274E-08 -1.075345E-08 _shell_0000001207   
      1207  22  1.088584E-04  9.000010E+00  6.805128E-09 -1.661554E-05 -1.325359E-08  7.159039E-09 _shell_0000001207   
      1207  23  1.076323E-04  9.000010E+00  5.034470E-08 -1.168893E-05  5.859830E-09  4.684888E-09 _shell_0000001207   
      1207  24  1.063546E-04  9.000009E+00 -7.414068E-09 -7.316095E-06  2.497325E-08  1.777233E-10 _shell_0000001207   
      1207  25  1.140908E-04  9.000008E+00  4.708508E-08 -1.573950E-05 -7.479493E-09  4.089175E-08 _shell_0000001207   
      1207  26  1.121337E-04  9.000007E+00  5.309526E-08 -1.104369E-05  1.262186E-08  2.701682E-08 _shell_0000001207   
      1207  27  1.101229E-04  9.000007E+00 -4.693640E-08 -6.901656E-06  3.272320E-08  1.110890E-08 _shell_0000001207   
      1208   1  1.020307E-04  9.000011E+00 -5.298808E-08 -4.744357E-06  8.970107E-09  6.956484E-09 _shell_0000001208   
      1208   2  1.020553E-04  9.000011E+00  5.954266E-09 -7.622787E-14 -1.444385E-15  3.697353E-09 _shell_0000001208   
      1208   3  1.020307E-04  9.000011E+00 -5.298805E-08  4.744357E-06 -8.970105E-09  6.956561E-09 _shell_0000001208   
      1208   4  1.059867E-04  9.000009E+00 -9.927450E-10 -4.483395E-06  3.866901E-08 -6.570536E-10 _shell_0000001208   
      1208   5  1.060146E-04  9.000009E+00  6.555437E-08 -5.790264E-14 -1.220410E-14 -3.916217E-09 _shell_0000001208   
      1208   6  1.059867E-04  9.000009E+00 -9.927592E-10  4.483395E-06 -3.866902E-08 -6.570222E-10 _shell_0000001208   
      1208   7  1.095222E-04  9.000007E+00 -5.775117E-08 -4.222434E-06  6.836792E-08 -8.270596E-09 _shell_0000001208   
      1208   8  1.095533E-04  9.000007E+00  1.640068E-08 -6.754884E-14 -1.833159E-14 -1.152982E-08 _shell_0000001208   
      1208   9  1.095222E-04  9.000007E+00 -5.775127E-08  4.222434E-06 -6.836793E-08 -8.270555E-09 _shell_0000001208   
      1208  10  1.020188E-04  9.000011E+00 -3.887765E-08 -4.719638E-06 -2.513037E-15 -3.217096E-14 _shell_0000001208   
      1208  11  1.020434E-04  9.000011E+00  2.006463E-08 -6.607264E-14 -1.030341E-14  2.830341E-15 _shell_0000001208   
      1208  12  1.020188E-04  9.000011E+00 -3.887762E-08  4.719638E-06 -7.639929E-15 -7.775429E-16 _shell_0000001208   
      1208  13  1.059315E-04  9.000009E+00 -5.421256E-09 -4.458677E-06 -6.184760E-15  1.176909E-14 _shell_0000001208   
      1208  14  1.059594E-04  9.000009E+00  6.112581E-08 -5.538292E-14 -1.333670E-14  2.325246E-14 _shell_0000001208   
      1208  15  1.059315E-04  9.000009E+00 -5.421302E-09  4.458677E-06 -5.752094E-15 -7.482442E-15 _shell_0000001208   
      1208  16  1.094237E-04  9.000007E+00 -8.071869E-08 -4.197715E-06 -7.403428E-15  3.420710E-14 _shell_0000001208   
      1208  17  1.094548E-04  9.000007E+00 -6.566806E-09 -6.179675E-14 -1.273772E-14  9.304924E-15 _shell_0000001208   
      1208  18  1.094237E-04  9.000007E+00 -8.071874E-08  4.197715E-06 -2.513302E-15 -1.006995E-14 _shell_0000001208   
      1208  19  1.020307E-04  9.000011E+00 -5.298789E-08 -4.744357E-06 -8.970118E-09 -6.956534E-09 _shell_0000001208   
      1208  20  1.020553E-04  9.000011E+00  5.954330E-09 -6.905049E-14 -2.069224E-14 -3.697341E-09 _shell_0000001208   
      1208  21  1.020307E-04  9.000011E+00 -5.298802E-08  4.744357E-06  8.970088E-09 -6.956547E-09 _shell_0000001208   
      1208  22  1.059867E-04  9.000009E+00 -9.926246E-10 -4.483395E-06 -3.866902E-08  6.570796E-10 _shell_0000001208   
      1208  23  1.060146E-04  9.000009E+00  6.555437E-08 -7.742411E-14 -2.168486E-14  3.916270E-09 _shell_0000001208   
      1208  24  1.059867E-04  9.000009E+00 -9.927401E-10  4.483395E-06  3.866900E-08  6.570063E-10 _shell_0000001208   
      1208  25  1.095222E-04  9.000007E+00 -5.775114E-08 -4.222434E-06 -6.836793E-08  8.270701E-09 _shell_0000001208   
      1208  26  1.095533E-04  9.000007E+00  1.640063E-08 -1.010433E-13 -1.870701E-14  1.152984E-08 _shell_0000001208   
      1208  27  1.095222E-04  9.000007E+00 -5.775126E-08  4.222434E-06  6.836792E-08  8.270577E-09 _shell_0000001208   
      1209   1  1.022301E-04  9.000011E+00 -4.579058E-08  7.686119E-06  1.426273E-08  1.075350E-08 _shell_0000001209   
      1209   2  1.027807E-04  9.000012E+00 -1.648867E-08  1.228975E-05 -3.862783E-09  1.764708E-08 _shell_0000001209   
      1209   3  1.032816E-04  9.000012E+00 -8.374161E-08  1.744717E-05 -2.198831E-08  2.657363E-08 _shell_0000001209   
      1209   4  1.063546E-04  9.000009E+00 -7.414174E-09  7.316095E-06  2.497324E-08 -1.776430E-10 _shell_0000001209   
      1209   5  1.076323E-04  9.000010E+00  5.034471E-08  1.168893E-05  5.859813E-09 -4.684834E-09 _shell_0000001209   
      1209   6  1.088584E-04  9.000010E+00  6.805181E-09  1.661554E-05 -1.325362E-08 -7.159097E-09 _shell_0000001209   
      1209   7  1.101229E-04  9.000007E+00 -4.693650E-08  6.901656E-06  3.272319E-08 -1.110873E-08 _shell_0000001209   
      1209   8  1.121337E-04  9.000007E+00  5.309532E-08  1.104369E-05  1.262186E-08 -2.701679E-08 _shell_0000001209   
      1209   9  1.140908E-04  9.000008E+00  4.708514E-08  1.573950E-05 -7.479492E-09 -4.089180E-08 _shell_0000001209   
      1209  10  1.022151E-04  9.000011E+00 -3.402131E-08  7.614482E-06 -4.994579E-15 -9.977069E-15 _shell_0000001209   
      1209  11  1.027595E-04  9.000012E+00 -1.088403E-08  1.221661E-05  3.148678E-17 -1.254249E-14 _shell_0000001209   
      1209  12  1.032542E-04  9.000012E+00 -8.430153E-08  1.737252E-05 -4.018785E-15 -1.258714E-14 _shell_0000001209   
      1209  13  1.063370E-04  9.000009E+00  3.227652E-09  7.242403E-06 -3.175141E-16 -1.594782E-14 _shell_0000001209   
      1209  14  1.076085E-04  9.000010E+00  5.482189E-08  1.161373E-05  5.599394E-15 -2.759187E-15 _shell_0000001209   
      1209  15  1.088284E-04  9.000010E+00  5.117729E-09  1.653884E-05  2.411199E-15 -2.438238E-14 _shell_0000001209   
      1209  16  1.101026E-04  9.000007E+00 -3.742211E-08  6.825909E-06  5.853894E-15 -1.201321E-14 _shell_0000001209   
      1209  17  1.121072E-04  9.000007E+00  5.644505E-08  1.096644E-05  9.881321E-15 -1.879377E-14 _shell_0000001209   
      1209  18  1.140582E-04  9.000008E+00  4.427019E-08  1.566075E-05  3.443097E-15 -3.834680E-14 _shell_0000001209   
      1209  19  1.022301E-04  9.000011E+00 -4.579059E-08  7.686119E-06 -1.426273E-08 -1.075350E-08 _shell_0000001209   
      1209  20  1.027807E-04  9.000012E+00 -1.648867E-08  1.228975E-05  3.862773E-09 -1.764710E-08 _shell_0000001209   
      1209  21  1.032816E-04  9.000012E+00 -8.374161E-08  1.744717E-05  2.198828E-08 -2.657364E-08 _shell_0000001209   
      1209  22  1.063546E-04  9.000009E+00 -7.414166E-09  7.316095E-06 -2.497323E-08  1.776300E-10 _shell_0000001209   
      1209  23  1.076323E-04  9.000010E+00  5.034468E-08  1.168893E-05 -5.859811E-09  4.684839E-09 _shell_0000001209   
      1209  24  1.088584E-04  9.000010E+00  6.805125E-09  1.661554E-05  1.325363E-08  7.159042E-09 _shell_0000001209   
      1209  25  1.101229E-04  9.000007E+00 -4.693644E-08  6.901656E-06 -3.272318E-08  1.110874E-08 _shell_0000001209   
      1209  26  1.121337E-04  9.000007E+00  5.309523E-08  1.104369E-05 -1.262185E-08  2.701675E-08 _shell_0000001209   
      1209  27  1.140908E-04  9.000008E+00  4.708500E-08  1.573950E-05  7.479505E-09  4.089174E-08 _shell_0000001209   
      1210   1  1.037662E-04  9.000013E+00 -4.803685E-08  2.057620E-05  1.877584E-09  4.585286E-09 _shell_0000001210   
      1210   2  1.045000E-04  9.000013E+00  2.868737E-08  2.498653E-05  2.369860E-08 -4.940009E-08 _shell_0000001210   
      1210   3  1.051505E-04  9.000014E+00  1.049408E-07  3.061209E-05  4.551961E-08 -5.409601E-08 _shell_0000001210   
      1210   4  1.098277E-04  9.000010E+00 -9.911639E-09  1.970179E-05  3.338637E-08 -1.605778E-08 _shell_0000001210   
      1210   5  1.120750E-04  9.000011E+00  5.044105E-08  2.400954E-05 -1.106194E-08 -1.365993E-08 _shell_0000001210   
      1210   6  1.141898E-04  9.000011E+00 -4.685772E-09  2.953253E-05 -5.551025E-08  3.802736E-08 _shell_0000001210   
      1210   7  1.158270E-04  9.000008E+00  6.341885E-08  1.870169E-05  9.985631E-08 -3.670083E-08 _shell_0000001210   
      1210   8  1.195180E-04  9.000008E+00 -5.575212E-08  2.290686E-05 -1.086131E-08  2.208019E-08 _shell_0000001210   
      1210   9  1.230271E-04  9.000008E+00 -4.054114E-07  2.832727E-05 -1.215789E-07  1.301507E-07 _shell_0000001210   
      1210  10  1.038489E-04  9.000013E+00 -4.976553E-09  2.042493E-05 -5.166697E-15 -1.893607E-14 _shell_0000001210   
      1210  11  1.045675E-04  9.000013E+00  5.651615E-08  2.476707E-05 -2.068931E-15 -3.086773E-14 _shell_0000001210   
      1210  12  1.052027E-04  9.000014E+00  1.175381E-07  3.032444E-05 -1.187625E-14 -2.477851E-14 _shell_0000001210   
      1210  13  1.097911E-04  9.000010E+00 -1.799053E-08  1.954544E-05  1.055571E-15 -2.243801E-14 _shell_0000001210   
      1210  14  1.120232E-04  9.000011E+00  2.713068E-08  2.378500E-05 -1.628868E-15 -8.511274E-15 _shell_0000001210   
      1210  15  1.141227E-04  9.000011E+00 -4.322770E-08  2.923980E-05 -5.533434E-15 -3.539563E-14 _shell_0000001210   
      1210  16  1.156711E-04  9.000008E+00  4.200805E-09  1.854026E-05 -2.290654E-16 -3.176374E-14 _shell_0000001210   
      1210  17  1.193469E-04  9.000008E+00 -1.302016E-07  2.267725E-05  1.641026E-15 -1.217632E-14 _shell_0000001210   
      1210  18  1.228407E-04  9.000008E+00 -4.950925E-07  2.802947E-05 -1.873620E-15 -4.089197E-14 _shell_0000001210   
      1210  19  1.037662E-04  9.000013E+00 -4.803683E-08  2.057620E-05 -1.877594E-09 -4.585300E-09 _shell_0000001210   
      1210  20  1.045000E-04  9.000013E+00  2.868743E-08  2.498653E-05 -2.369861E-08  4.940005E-08 _shell_0000001210   
      1210  21  1.051505E-04  9.000014E+00  1.049408E-07  3.061209E-05 -4.551963E-08  5.409598E-08 _shell_0000001210   
      1210  22  1.098277E-04  9.000010E+00 -9.911677E-09  1.970179E-05 -3.338637E-08  1.605776E-08 _shell_0000001210   
      1210  23  1.120750E-04  9.000011E+00  5.044107E-08  2.400954E-05  1.106193E-08  1.365992E-08 _shell_0000001210   
      1210  24  1.141898E-04  9.000011E+00 -4.685816E-09  2.953253E-05  5.551024E-08 -3.802742E-08 _shell_0000001210   
      1210  25  1.158270E-04  9.000008E+00  6.341881E-08  1.870169E-05 -9.985631E-08  3.670081E-08 _shell_0000001210   
      1210  26  1.195180E-04  9.000008E+00 -5.575215E-08  2.290686E-05  1.086130E-08 -2.208021E-08 _shell_0000001210   
      1210  27  1.230271E-04  9.000008E+00 -4.054114E-07  2.832727E-05  1.215789E-07 -1.301508E-07 _shell_0000001210   
      1211   1  1.054459E-04  9.000014E+00  1.123371E-07  3.376286E-05  8.551920E-09 -1.445923E-08 _shell_0000001211   
      1211   2  1.045824E-04  9.000012E+00 -2.476660E-07  3.661167E-05 -3.068855E-08  1.053168E-07 _shell_0000001211   
      1211   3  1.037005E-04  9.000010E+00 -2.437586E-07  4.095119E-05 -6.992901E-08  2.416460E-07 _shell_0000001211   
      1211   4  1.153604E-04  9.000011E+00 -5.717032E-08  3.269500E-05 -4.597956E-08  4.156196E-08 _shell_0000001211   
      1211   5  1.168711E-04  9.000011E+00 -9.514894E-08  3.582673E-05 -3.041107E-09 -1.910996E-08 _shell_0000001211   
      1211   6  1.183468E-04  9.000010E+00  1.921590E-07  4.044916E-05  3.989738E-08 -6.322882E-08 _shell_0000001211   
      1211   7  1.258668E-04  9.000009E+00 -1.277933E-07  3.168935E-05 -1.803300E-07  9.758319E-08 _shell_0000001211   
      1211   8  1.299114E-04  9.000010E+00  5.287411E-07  3.510400E-05 -5.521262E-08 -1.435368E-07 _shell_0000001211   
      1211   9  1.339044E-04  9.000010E+00  1.471938E-06  4.000935E-05  6.990478E-08 -3.681035E-07 _shell_0000001211   
      1211  10  1.055542E-04  9.000014E+00  1.425244E-07  3.342420E-05 -9.131121E-15 -1.954691E-14 _shell_0000001211   
      1211  11  1.046673E-04  9.000012E+00 -2.408901E-07  3.632844E-05  1.790645E-15 -2.537014E-14 _shell_0000001211   
      1211  12  1.037620E-04  9.000010E+00 -2.603940E-07  4.072338E-05  3.432957E-15 -2.834175E-14 _shell_0000001211   
      1211  13  1.155657E-04  9.000011E+00  1.458703E-08  3.234854E-05 -5.867329E-15 -4.033055E-14 _shell_0000001211   
      1211  14  1.170530E-04  9.000011E+00 -4.680291E-08  3.553570E-05 -2.443286E-15 -1.996455E-14 _shell_0000001211   
      1211  15  1.185053E-04  9.000010E+00  2.170937E-07  4.021355E-05  1.057140E-14 -3.214024E-14 _shell_0000001211   
      1211  16  1.261691E-04  9.000009E+00 -1.446579E-08  3.133509E-05 -5.809682E-15 -4.886728E-14 _shell_0000001211   
      1211  17  1.301903E-04  9.000010E+00  6.186572E-07  3.480516E-05 -5.084230E-15 -2.836360E-14 _shell_0000001211   
      1211  18  1.341599E-04  9.000010E+00  1.538443E-06  3.976594E-05  9.697189E-15 -2.327937E-14 _shell_0000001211   
      1211  19  1.054459E-04  9.000014E+00  1.123371E-07  3.376286E-05 -8.551920E-09  1.445922E-08 _shell_0000001211   
      1211  20  1.045824E-04  9.000012E+00 -2.476660E-07  3.661167E-05  3.068855E-08 -1.053168E-07 _shell_0000001211   
      1211  21  1.037005E-04  9.000010E+00 -2.437586E-07  4.095119E-05  6.992901E-08 -2.416460E-07 _shell_0000001211   
      1211  22  1.153604E-04  9.000011E+00 -5.717039E-08  3.269500E-05  4.597956E-08 -4.156202E-08 _shell_0000001211   
      1211  23  1.168711E-04  9.000011E+00 -9.514895E-08  3.582673E-05  3.041106E-09  1.910995E-08 _shell_0000001211   
      1211  24  1.183468E-04  9.000010E+00  1.921590E-07  4.044916E-05 -3.989734E-08  6.322875E-08 _shell_0000001211   
      1211  25  1.258668E-04  9.000009E+00 -1.277933E-07  3.168935E-05  1.803300E-07 -9.758325E-08 _shell_0000001211   
      1211  26  1.299114E-04  9.000010E+00  5.287410E-07  3.510400E-05  5.521260E-08  1.435367E-07 _shell_0000001211   
      1211  27  1.339044E-04  9.000010E+00  1.471938E-06  4.000935E-05 -6.990476E-08  3.681035E-07 _shell_0000001211   
      1212   1  1.027408E-04  9.000009E+00 -1.532874E-07  4.229598E-05 -3.064843E-08  7.666413E-08 _shell_0000001212   
      1212   2  9.956265E-05  9.000005E+00  6.503691E-07  3.902316E-05 -2.352422E-08 -5.459203E-07 _shell_0000001212   
      1212   3  9.610587E-05  8.999999E+00  2.982133E-06  3.813046E-05 -1.640004E-08 -1.026926E-06 _shell_0000001212   
      1212   4  1.174519E-04  9.000008E+00 -3.935002E-07  4.230328E-05  1.880996E-07 -8.436210E-08 _shell_0000001212   
      1212   5  1.169439E-04  9.000004E+00 -2.908758E-07  4.028987E-05  1.770062E-07 -3.216430E-08 _shell_0000001212   
      1212   6  1.160158E-04  8.999997E+00  1.009507E-06  4.065659E-05  1.659128E-07  1.616117E-07 _shell_0000001212   
      1212   7  1.353164E-04  9.000009E+00  7.113072E-07  4.206005E-05  9.014629E-07 -2.453883E-07 _shell_0000001212   
      1212   8  1.364895E-04  9.000003E+00 -2.195305E-06  4.130606E-05  8.721519E-07  4.815917E-07 _shell_0000001212   
      1212   9  1.371008E-04  8.999994E+00 -4.234509E-06  4.293219E-05  8.428410E-07  1.350150E-06 _shell_0000001212   
      1212  10  1.034544E-04  9.000009E+00  4.683583E-08  4.188106E-05  5.974470E-15 -3.176371E-14 _shell_0000001212   
      1212  11  9.992249E-05  9.000005E+00  4.967380E-07  3.854149E-05  8.186318E-15 -3.137680E-14 _shell_0000001212   
      1212  12  9.611196E-05  8.999997E+00  2.474748E-06  3.758203E-05 -5.254255E-16  5.610882E-15 _shell_0000001212   
      1212  13  1.180486E-04  9.000008E+00 -2.434432E-07  4.177044E-05  1.348799E-14 -3.546916E-14 _shell_0000001212   
      1212  14  1.171869E-04  9.000003E+00 -4.945732E-07  3.969028E-05  4.072409E-15 -2.485128E-14 _shell_0000001212   
      1212  15  1.159051E-04  8.999995E+00  4.520552E-07  3.999024E-05 -7.644761E-15  1.125488E-14 _shell_0000001212   
      1212  16  1.357963E-04  9.000009E+00  8.112979E-07  4.140930E-05  9.506214E-15 -3.339265E-14 _shell_0000001212   
      1212  17  1.366157E-04  9.000002E+00 -2.449069E-06  4.058855E-05  5.570579E-16 -3.386120E-14 _shell_0000001212   
      1212  18  1.368733E-04  8.999992E+00 -4.842027E-06  4.214793E-05 -6.295545E-15  7.975336E-15 _shell_0000001212   
      1212  19  1.027408E-04  9.000009E+00 -1.532874E-07  4.229598E-05  3.064845E-08 -7.666417E-08 _shell_0000001212   
      1212  20  9.956265E-05  9.000005E+00  6.503692E-07  3.902316E-05  2.352425E-08  5.459203E-07 _shell_0000001212   
      1212  21  9.610587E-05  8.999999E+00  2.982133E-06  3.813046E-05  1.640005E-08  1.026927E-06 _shell_0000001212   
      1212  22  1.174519E-04  9.000008E+00 -3.935001E-07  4.230328E-05 -1.880996E-07  8.436205E-08 _shell_0000001212   
      1212  23  1.169439E-04  9.000004E+00 -2.908758E-07  4.028987E-05 -1.770062E-07  3.216428E-08 _shell_0000001212   
      1212  24  1.160158E-04  8.999997E+00  1.009507E-06  4.065659E-05 -1.659128E-07 -1.616117E-07 _shell_0000001212   
      1212  25  1.353164E-04  9.000009E+00  7.113073E-07  4.206005E-05 -9.014629E-07  2.453883E-07 _shell_0000001212   
      1212  26  1.364895E-04  9.000003E+00 -2.195305E-06  4.130606E-05 -8.721520E-07 -4.815917E-07 _shell_0000001212   
      1212  27  1.371008E-04  8.999994E+00 -4.234509E-06  4.293219E-05 -8.428410E-07 -1.350150E-06 _shell_0000001212   
      1213   1  8.874226E-05  8.999986E+00  7.330641E-07  3.311545E-05  4.792646E-07 -5.239551E-07 _shell_0000001213   
      1213   2  8.101449E-05  8.999947E+00 -3.575803E-06  1.737305E-05  5.942739E-07  1.102852E-06 _shell_0000001213   
      1213   3  6.800234E-05  8.999891E+00 -8.966345E-06 -9.869975E-08  7.092833E-07  1.968591E-06 _shell_0000001213   
      1213   4  1.075961E-04  8.999987E+00 -1.280254E-06  3.451819E-05 -2.777357E-07  3.030558E-07 _shell_0000001213   
      1213   5  1.041897E-04  8.999963E+00  9.033700E-07  1.982383E-05 -2.124500E-06  1.269508E-08 _shell_0000001213   
      1213   6  9.625998E-05  8.999923E+00  3.781144E-06  3.400137E-06 -3.971264E-06 -1.038734E-06 _shell_0000001213   
      1213   7  1.317610E-04  8.999989E+00 -3.768455E-06  3.825971E-05 -2.453028E-06  1.130067E-06 _shell_0000001213   
      1213   8  1.355125E-04  8.999983E+00  1.152636E-05  2.461341E-05 -6.261566E-06 -1.077462E-06 _shell_0000001213   
      1213   9  1.355018E-04  8.999962E+00  2.929115E-05  9.237761E-06 -1.007010E-05 -4.046059E-06 _shell_0000001213   
      1213  10  9.026728E-05  8.999986E+00  9.898190E-07  3.273170E-05 -8.443925E-15  1.364220E-14 _shell_0000001213   
      1213  11  8.357385E-05  8.999949E+00 -2.284704E-06  1.580337E-05 -8.809414E-15 -6.943136E-15 _shell_0000001213   
      1213  12  7.159605E-05  8.999895E+00 -6.640902E-06 -2.854307E-06 -4.024399E-15 -7.827704E-15 _shell_0000001213   
      1213  13  1.070458E-04  8.999985E+00 -1.912946E-06  3.447922E-05 -7.140034E-15  1.831037E-14 _shell_0000001213   
      1213  14  1.046737E-04  8.999964E+00  1.305022E-06  1.859894E-05 -5.078067E-15  9.397071E-15 _shell_0000001213   
      1213  15  9.777831E-05  8.999926E+00  5.217140E-06  9.893117E-07 -2.101992E-15 -1.259522E-14 _shell_0000001213   
      1213  16  1.291353E-04  8.999986E+00 -5.290594E-06  3.856552E-05 -3.449372E-15  2.443382E-14 _shell_0000001213   
      1213  17  1.339211E-04  8.999983E+00  1.103856E-05  2.373329E-05 -1.586851E-15  9.508366E-15 _shell_0000001213   
      1213  18  1.349448E-04  8.999964E+00  2.983770E-05  7.171716E-06 -2.277196E-15  2.859537E-15 _shell_0000001213   
      1213  19  8.874226E-05  8.999986E+00  7.330642E-07  3.311545E-05 -4.792646E-07  5.239551E-07 _shell_0000001213   
      1213  20  8.101449E-05  8.999947E+00 -3.575803E-06  1.737305E-05 -5.942740E-07 -1.102852E-06 _shell_0000001213   
      1213  21  6.800234E-05  8.999891E+00 -8.966345E-06 -9.869979E-08 -7.092833E-07 -1.968591E-06 _shell_0000001213   
      1213  22  1.075961E-04  8.999987E+00 -1.280254E-06  3.451819E-05  2.777357E-07 -3.030557E-07 _shell_0000001213   
      1213  23  1.041897E-04  8.999963E+00  9.033701E-07  1.982383E-05  2.124500E-06 -1.269503E-08 _shell_0000001213   
      1213  24  9.625998E-05  8.999923E+00  3.781144E-06  3.400137E-06  3.971264E-06  1.038734E-06 _shell_0000001213   
      1213  25  1.317610E-04  8.999989E+00 -3.768455E-06  3.825971E-05  2.453028E-06 -1.130067E-06 _shell_0000001213   
      1213  26  1.355125E-04  8.999983E+00  1.152636E-05  2.461341E-05  6.261566E-06  1.077462E-06 _shell_0000001213   
      1213  27  1.355018E-04  8.999962E+00  2.929115E-05  9.237761E-06  1.007010E-05  4.046059E-06 _shell_0000001213   
      1214   1  7.887379E-05  8.999865E+00 -3.274347E-07 -2.731542E-05 -1.948638E-06  3.469296E-06 _shell_0000001214   
      1214   2  1.159307E-04  8.999802E+00  2.003764E-05 -2.683113E-05 -4.478300E-06 -5.086943E-07 _shell_0000001214   
      1214   3  1.275399E-04  8.999677E+00  1.672661E-05 -1.464100E-05 -7.007962E-06 -1.805867E-05 _shell_0000001214   
      1214   4  7.430624E-05  8.999874E+00 -9.053565E-06 -2.600444E-05  3.482960E-06  9.325935E-07 _shell_0000001214   
      1214   5  1.103180E-04  8.999773E+00 -4.924836E-06 -3.128961E-05  1.181638E-05  4.890602E-07 _shell_0000001214   
      1214   6  1.344541E-04  8.999624E+00  7.195757E-06 -2.486894E-05  2.014980E-05 -1.352646E-05 _shell_0000001214   
      1214   7  7.677810E-05  8.999888E+00 -1.187444E-05 -3.099889E-05  1.499357E-05 -1.604109E-06 _shell_0000001214   
      1214   8  9.958673E-05  8.999737E+00 -5.235078E-05 -4.205352E-05  3.419007E-05  1.486815E-06 _shell_0000001214   
      1214   9  1.240916E-04  8.999551E+00 -5.316728E-05 -4.140231E-05  5.338657E-05 -8.994249E-06 _shell_0000001214   
      1214  10  7.527772E-05  8.999861E+00 -2.524524E-06 -2.695912E-05  1.977841E-15 -6.104477E-16 _shell_0000001214   
      1214  11  1.026331E-04  8.999775E+00  8.139042E-06 -1.323802E-05  3.365503E-15 -3.786873E-15 _shell_0000001214   
      1214  12  1.045408E-04  8.999628E+00 -4.873502E-06  1.218891E-05  1.280521E-14 -2.248778E-14 _shell_0000001214   
      1214  13  9.387458E-05  8.999881E+00 -1.323050E-06 -2.888198E-05 -9.748250E-15 -9.422306E-15 _shell_0000001214   
      1214  14  1.201848E-04  8.999757E+00 -6.895831E-06 -2.093034E-05 -8.359895E-15 -3.672410E-16 _shell_0000001214   
      1214  15  1.346194E-04  8.999585E+00 -4.476750E-06 -1.272869E-06 -6.022136E-16 -3.784573E-14 _shell_0000001214   
      1214  16  1.195109E-04  8.999904E+00  5.783678E-06 -3.711027E-05 -9.060082E-15  4.682748E-15 _shell_0000001214   
      1214  17  1.326180E-04  8.999730E+00 -4.439417E-05 -3.492808E-05 -8.389780E-15 -7.391323E-15 _shell_0000001214   
      1214  18  1.474213E-04  8.999522E+00 -5.491218E-05 -2.104007E-05 -1.120703E-14 -2.931167E-14 _shell_0000001214   
      1214  19  7.887379E-05  8.999865E+00 -3.274347E-07 -2.731542E-05  1.948638E-06 -3.469296E-06 _shell_0000001214   
      1214  20  1.159307E-04  8.999802E+00  2.003764E-05 -2.683113E-05  4.478300E-06  5.086943E-07 _shell_0000001214   
      1214  21  1.275399E-04  8.999677E+00  1.672661E-05 -1.464100E-05  7.007962E-06  1.805867E-05 _shell_0000001214   
      1214  22  7.430624E-05  8.999874E+00 -9.053565E-06 -2.600444E-05 -3.482960E-06 -9.325935E-07 _shell_0000001214   
      1214  23  1.103180E-04  8.999773E+00 -4.924836E-06 -3.128961E-05 -1.181638E-05 -4.890602E-07 _shell_0000001214   
      1214  24  1.344541E-04  8.999624E+00  7.195757E-06 -2.486894E-05 -2.014980E-05  1.352646E-05 _shell_0000001214   
      1214  25  7.677810E-05  8.999888E+00 -1.187444E-05 -3.099889E-05 -1.499357E-05  1.604109E-06 _shell_0000001214   
      1214  26  9.958673E-05  8.999737E+00 -5.235078E-05 -4.205352E-05 -3.419007E-05 -1.486815E-06 _shell_0000001214   
      1214  27  1.240916E-04  8.999551E+00 -5.316728E-05 -4.140231E-05 -5.338657E-05  8.994249E-06 _shell_0000001214   
      1215   1  1.101177E-04  8.999628E+00  9.287581E-06  6.159687E-05 -1.167299E-06 -1.884521E-05 _shell_0000001215   
      1215   2  5.802071E-05  8.999640E+00  9.316697E-07  8.695180E-05  2.596326E-06 -3.323787E-06 _shell_0000001215   
      1215   3  1.557636E-05  8.999685E+00 -7.397295E-06  6.148856E-05  6.359950E-06 -3.296373E-07 _shell_0000001215   
      1215   4  1.879233E-04  8.999616E+00  3.460200E-05  8.930281E-05  4.028361E-05 -1.333439E-05 _shell_0000001215   
      1215   5  7.489627E-05  8.999668E+00  4.123651E-06  1.055104E-04  1.252405E-05  2.015547E-06 _shell_0000001215   
      1215   6 -1.595083E-05  8.999764E+00  2.902552E-06  7.089984E-05 -1.523551E-05  4.838211E-06 _shell_0000001215   
      1215   7  2.178636E-04  8.999571E+00 -2.531493E-06  1.293453E-04  7.430809E-05 -7.823571E-06 _shell_0000001215   
      1215   8  5.875946E-05  8.999677E+00 -2.047561E-05  1.364056E-04  1.502535E-05  7.354880E-06 _shell_0000001215   
      1215   9 -6.563753E-05  8.999840E+00  2.006782E-05  9.264771E-05 -4.425739E-05  1.000606E-05 _shell_0000001215   
      1215  10  9.175206E-05  8.999584E+00 -9.193534E-06  8.661586E-05  1.177210E-14 -3.583620E-14 _shell_0000001215   
      1215  11  5.617163E-05  8.999636E+00 -1.032905E-06  9.302613E-05  4.982367E-15 -1.620753E-14 _shell_0000001215   
      1215  12  3.024383E-05  8.999719E+00  7.154672E-06  4.861822E-05 -1.000622E-14  4.009805E-14 _shell_0000001215   
      1215  13  1.364045E-04  8.999558E+00  1.912385E-06  1.198273E-04  6.921215E-15 -4.524215E-14 _shell_0000001215   
      1215  14  3.989404E-05  8.999649E+00 -1.204942E-05  1.170903E-04  8.959293E-15 -2.071855E-14 _shell_0000001215   
      1215  15 -3.443652E-05  8.999784E+00  3.246023E-06  6.353502E-05 -4.466416E-15  3.953664E-14 _shell_0000001215   
      1215  16  1.331917E-04  8.999499E+00 -4.942960E-05  1.653753E-04 -4.027412E-15 -4.398060E-14 _shell_0000001215   
      1215  17 -9.395925E-06  8.999644E+00 -5.085718E-05  1.534910E-04  2.443655E-15 -2.398613E-14 _shell_0000001215   
      1215  18 -1.172764E-04  8.999845E+00  6.202793E-06  9.078840E-05 -1.156707E-14  5.597726E-14 _shell_0000001215   
      1215  19  1.101177E-04  8.999628E+00  9.287581E-06  6.159687E-05  1.167299E-06  1.884521E-05 _shell_0000001215   
      1215  20  5.802071E-05  8.999640E+00  9.316697E-07  8.695180E-05 -2.596326E-06  3.323787E-06 _shell_0000001215   
      1215  21  1.557636E-05  8.999685E+00 -7.397295E-06  6.148856E-05 -6.359950E-06  3.296374E-07 _shell_0000001215   
      1215  22  1.879233E-04  8.999616E+00  3.460200E-05  8.930281E-05 -4.028361E-05  1.333439E-05 _shell_0000001215   
      1215  23  7.489627E-05  8.999668E+00  4.123650E-06  1.055104E-04 -1.252405E-05 -2.015547E-06 _shell_0000001215   
      1215  24 -1.595083E-05  8.999764E+00  2.902552E-06  7.089984E-05  1.523551E-05 -4.838211E-06 _shell_0000001215   
      1215  25  2.178636E-04  8.999571E+00 -2.531493E-06  1.293453E-04 -7.430809E-05  7.823571E-06 _shell_0000001215   
      1215  26  5.875946E-05  8.999677E+00 -2.047561E-05  1.364056E-04 -1.502535E-05 -7.354880E-06 _shell_0000001215   
      1215  27 -6.563753E-05  8.999840E+00  2.006782E-05  9.264771E-05  4.425739E-05 -1.000606E-05 _shell_0000001215   
      1301   1 -6.143873E-05  8.999874E+00  2.933573E-05 -1.240543E-04  3.986914E-05  1.051943E-05 _shell_0000001301   
      1301   2  5.978472E-05  8.999744E+00 -2.257693E-05 -1.492334E-04  6.503375E-06  3.570179E-05 _shell_0000001301   
      1301   3 -1.210241E-05  8.999133E+00 -2.385603E-04 -2.505781E-04 -2.686239E-05  5.985577E-05 _shell_0000001301   
      1301   4 -4.579761E-06  9.000048E+00  7.084694E-05 -3.525684E-05 -1.468503E-05 -8.217161E-05 _shell_0000001301   
      1301   5 -7.272711E-05  8.999730E+00 -9.541424E-05 -2.122620E-04  7.253586E-05  9.139612E-05 _shell_0000001301   
      1301   6 -3.329567E-04  8.998934E+00 -4.233466E-04 -4.654328E-04  1.597568E-04  2.639355E-04 _shell_0000001301   
      1301   7 -8.983945E-05  9.000159E+00  4.806750E-05  3.513273E-05 -7.800509E-05 -1.748626E-04 _shell_0000001301   
      1301   8 -3.298258E-04  8.999672E+00 -1.916347E-04 -2.936985E-04  1.298025E-04  1.470905E-04 _shell_0000001301   
      1301   9 -7.608660E-04  8.998708E+00 -5.906085E-04 -6.986952E-04  3.376100E-04  4.680152E-04 _shell_0000001301   
      1301  10 -1.972135E-04  8.999614E+00 -8.958222E-05 -1.596496E-04 -1.366595E-14 -3.755664E-14 _shell_0000001301   
      1301  11  1.106667E-04  8.999919E+00  4.516193E-05 -9.400316E-05 -1.134464E-14 -5.609441E-15 _shell_0000001301   
      1301  12  2.254364E-04  8.999744E+00  1.583538E-05 -1.045222E-04 -1.379444E-14 -4.017285E-14 _shell_0000001301   
      1301  13  1.859029E-05  8.999855E+00  2.004822E-05 -8.633284E-06 -3.257819E-15 -4.560947E-14 _shell_0000001301   
      1301  14  1.370998E-04  8.999973E+00  4.044385E-05 -9.481282E-05  3.200174E-15  4.021371E-15 _shell_0000001301   
      1301  15  6.352701E-05  8.999613E+00 -1.008317E-04 -2.571579E-04  1.996807E-15 -3.457415E-14 _shell_0000001301   
      1301  16  9.227546E-05  9.000035E+00  6.538801E-05  1.239752E-04  3.362785E-15 -4.018346E-14 _shell_0000001301   
      1301  17  3.894592E-05  8.999984E+00  1.234263E-05 -1.140303E-04  4.187651E-15  1.169773E-14 _shell_0000001301   
      1301  18 -2.054375E-04  8.999455E+00 -1.999744E-04 -4.282015E-04  5.796995E-15 -4.083601E-14 _shell_0000001301   
      1301  19 -6.143873E-05  8.999874E+00  2.933573E-05 -1.240543E-04 -3.986914E-05 -1.051943E-05 _shell_0000001301   
      1301  20  5.978472E-05  8.999744E+00 -2.257693E-05 -1.492334E-04 -6.503375E-06 -3.570179E-05 _shell_0000001301   
      1301  21 -1.210241E-05  8.999133E+00 -2.385603E-04 -2.505781E-04  2.686239E-05 -5.985577E-05 _shell_0000001301   
      1301  22 -4.579761E-06  9.000048E+00  7.084694E-05 -3.525684E-05  1.468503E-05  8.217161E-05 _shell_0000001301   
      1301  23 -7.272711E-05  8.999730E+00 -9.541424E-05 -2.122620E-04 -7.253586E-05 -9.139612E-05 _shell_0000001301   
      1301  24 -3.329567E-04  8.998934E+00 -4.233466E-04 -4.654328E-04 -1.597568E-04 -2.639355E-04 _shell_0000001301   
      1301  25 -8.983945E-05  9.000159E+00  4.806750E-05  3.513273E-05  7.800509E-05  1.748626E-04 _shell_0000001301   
      1301  26 -3.298258E-04  8.999672E+00 -1.916347E-04 -2.936985E-04 -1.298025E-04 -1.470905E-04 _shell_0000001301   
      1301  27 -7.608660E-04  8.998708E+00 -5.906085E-04 -6.986952E-04 -3.376100E-04 -4.680152E-04 _shell_0000001301   
      1302   1 -3.768045E-05  8.999098E+00 -2.716238E-04 -1.482397E-05 -1.248656E-05  5.298546E-05 _shell_0000001302   
      1302   2  1.104956E-04  8.999710E+00 -7.433395E-05  1.977141E-05 -1.887910E-05  1.202842E-05 _shell_0000001302   
      1302   3  1.137831E-04  8.999945E+00  1.760429E-05  2.830548E-05 -2.527163E-05 -1.941206E-05 _shell_0000001302   
      1302   4  9.246040E-05  8.999075E+00 -2.592410E-04  3.293013E-05  1.717089E-04  2.658884E-04 _shell_0000001302   
      1302   5  2.247314E-04  8.999722E+00 -3.714974E-05  4.440831E-05  6.651680E-05  1.068669E-04 _shell_0000001302   
      1302   6  2.025972E-04  8.999982E+00  5.738464E-05  2.982517E-05 -3.867534E-05 -4.263798E-05 _shell_0000001302   
      1302   7  3.165069E-04  8.999111E+00 -1.446227E-04  8.692366E-05  3.659466E-04  4.787913E-04 _shell_0000001302   
      1302   8  4.127885E-04  8.999773E+00  5.540663E-05  7.528463E-05  1.619549E-04  2.017054E-04 _shell_0000001302   
      1302   9  3.451482E-04  9.000039E+00  1.056737E-04  3.758428E-05 -4.203688E-05 -6.586391E-05 _shell_0000001302   
      1302  10  2.495178E-04  8.999747E+00  9.249065E-06  1.217519E-04 -1.425306E-14 -3.674223E-14 _shell_0000001302   
      1302  11  2.422766E-04  8.999997E+00  5.112157E-05  7.867884E-05 -1.387633E-14 -6.627547E-15 _shell_0000001302   
      1302  12  9.014664E-05  8.999869E+00 -1.235754E-05  9.544499E-06 -4.640266E-15 -4.307440E-14 _shell_0000001302   
      1302  13  2.437389E-04  8.999666E+00 -3.661948E-05  1.177002E-04  1.859472E-15 -3.583606E-14 _shell_0000001302   
      1302  14  2.205926E-04  8.999950E+00  3.005447E-05  5.150995E-05 -3.257819E-15  1.628910E-15 _shell_0000001302   
      1302  15  4.304102E-05  8.999848E+00 -3.082850E-05 -4.074160E-05 -1.088030E-15 -5.306589E-14 _shell_0000001302   
      1302  16  3.318657E-04  8.999643E+00  1.974756E-05  1.198879E-04  2.163094E-15 -3.305709E-14 _shell_0000001302   
      1302  17  2.727299E-04  8.999943E+00  6.435954E-05  3.058049E-05 -5.120942E-15  8.032631E-15 _shell_0000001302   
      1302  18  4.967237E-05  8.999846E+00 -4.079074E-05 -8.478827E-05 -9.578933E-15 -7.313428E-14 _shell_0000001302   
      1302  19 -3.768045E-05  8.999098E+00 -2.716238E-04 -1.482397E-05  1.248656E-05 -5.298546E-05 _shell_0000001302   
      1302  20  1.104956E-04  8.999710E+00 -7.433395E-05  1.977141E-05  1.887910E-05 -1.202842E-05 _shell_0000001302   
      1302  21  1.137831E-04  8.999945E+00  1.760429E-05  2.830548E-05  2.527163E-05  1.941206E-05 _shell_0000001302   
      1302  22  9.246040E-05  8.999075E+00 -2.592410E-04  3.293013E-05 -1.717089E-04 -2.658884E-04 _shell_0000001302   
      1302  23  2.247314E-04  8.999722E+00 -3.714974E-05  4.440831E-05 -6.651680E-05 -1.068669E-04 _shell_0000001302   
      1302  24  2.025972E-04  8.999982E+00  5.738464E-05  2.982517E-05  3.867534E-05  4.263798E-05 _shell_0000001302   
      1302  25  3.165069E-04  8.999111E+00 -1.446227E-04  8.692366E-05 -3.659466E-04 -4.787913E-04 _shell_0000001302   
      1302  26  4.127885E-04  8.999773E+00  5.540663E-05  7.528463E-05 -1.619549E-04 -2.017054E-04 _shell_0000001302   
      1302  27  3.451482E-04  9.000039E+00  1.056737E-04  3.758428E-05  4.203688E-05  6.586391E-05 _shell_0000001302   
      1303   1  1.638537E-04  8.999988E+00  4.937458E-05 -7.535323E-06  2.992326E-06 -2.011887E-05 _shell_0000001303   
      1303   2  1.612868E-04  9.000009E+00  2.244561E-05 -2.371171E-05  3.519430E-06 -3.091520E-06 _shell_0000001303   
      1303   3  1.447942E-04  8.999987E+00 -8.370498E-06 -4.095985E-05  4.046534E-06  4.886592E-06 _shell_0000001303   
      1303   4  2.004452E-04  9.000009E+00  5.969665E-05 -6.666358E-07 -3.033507E-05 -6.964738E-05 _shell_0000001303   
      1303   5  1.855112E-04  9.000013E+00  1.248274E-05 -2.338746E-05 -1.294679E-05 -2.494419E-05 _shell_0000001303   
      1303   6  1.657008E-04  8.999984E+00 -1.750343E-05 -4.718003E-05  4.441482E-06  1.070976E-05 _shell_0000001303   
      1303   7  2.264255E-04  9.000018E+00  4.323549E-05  4.952253E-06 -6.674585E-05 -1.191759E-04 _shell_0000001303   
      1303   8  2.052911E-04  9.000012E+00 -9.874182E-06 -2.431301E-05 -3.249641E-05 -4.679686E-05 _shell_0000001303   
      1303   9  1.883296E-04  8.999982E+00 -2.464122E-05 -5.465002E-05  1.753034E-06  1.653292E-05 _shell_0000001303   
      1303  10  1.006339E-04  8.999830E+00 -1.706386E-05 -3.405525E-05 -1.917200E-16 -4.407226E-14 _shell_0000001303   
      1303  11  1.361400E-04  8.999939E+00 -5.919873E-06 -3.419230E-05  1.229200E-15 -1.008890E-14 _shell_0000001303   
      1303  12  1.577204E-04  9.000006E+00  1.336975E-06 -3.540109E-05 -3.766741E-16 -2.581816E-14 _shell_0000001303   
      1303  13  1.652943E-04  8.999862E+00  5.287718E-06 -1.449558E-05 -2.796684E-15 -6.678534E-14 _shell_0000001303   
      1303  14  1.884332E-04  8.999955E+00 -3.853238E-06 -2.117706E-05 -4.886729E-15 -1.135146E-14 _shell_0000001303   
      1303  15  2.066957E-04  9.000015E+00  4.233551E-06 -2.893029E-05 -2.940611E-15 -3.129057E-14 _shell_0000001303   
      1303  16  2.193434E-04  8.999884E+00  8.560618E-07  3.814299E-06 -1.241992E-14 -7.683390E-14 _shell_0000001303   
      1303  17  2.362820E-04  8.999967E+00 -1.418065E-05 -9.411624E-06 -1.517515E-14 -1.833522E-14 _shell_0000001303   
      1303  18  2.573934E-04  9.000025E+00  9.125262E-06 -2.370929E-05 -1.864528E-15 -7.094547E-14 _shell_0000001303   
      1303  19  1.638537E-04  8.999988E+00  4.937458E-05 -7.535323E-06 -2.992326E-06  2.011887E-05 _shell_0000001303   
      1303  20  1.612868E-04  9.000009E+00  2.244561E-05 -2.371171E-05 -3.519430E-06  3.091520E-06 _shell_0000001303   
      1303  21  1.447942E-04  8.999987E+00 -8.370498E-06 -4.095985E-05 -4.046534E-06 -4.886592E-06 _shell_0000001303   
      1303  22  2.004452E-04  9.000009E+00  5.969665E-05 -6.666357E-07  3.033507E-05  6.964737E-05 _shell_0000001303   
      1303  23  1.855112E-04  9.000013E+00  1.248274E-05 -2.338746E-05  1.294679E-05  2.494419E-05 _shell_0000001303   
      1303  24  1.657008E-04  8.999984E+00 -1.750343E-05 -4.718003E-05 -4.441482E-06 -1.070976E-05 _shell_0000001303   
      1303  25  2.264255E-04  9.000018E+00  4.323549E-05  4.952253E-06  6.674585E-05  1.191759E-04 _shell_0000001303   
      1303  26  2.052911E-04  9.000012E+00 -9.874182E-06 -2.431301E-05  3.249641E-05  4.679686E-05 _shell_0000001303   
      1303  27  1.883296E-04  8.999982E+00 -2.464122E-05 -5.465002E-05 -1.753034E-06 -1.653292E-05 _shell_0000001303   
      1304   1  1.457139E-04  8.999981E+00 -1.241216E-05 -4.330852E-05  9.245905E-07  4.328959E-06 _shell_0000001304   
      1304   2  1.473387E-04  8.999998E+00 -4.675678E-06 -4.117705E-05 -2.230700E-07  1.043700E-06 _shell_0000001304   
      1304   3  1.470388E-04  9.000010E+00  2.048671E-06 -4.152802E-05 -1.370731E-06 -1.051939E-06 _shell_0000001304   
      1304   4  1.722981E-04  8.999981E+00 -1.367715E-05 -3.996287E-05  8.396660E-06  1.627076E-05 _shell_0000001304   
      1304   5  1.717250E-04  8.999998E+00 -3.047315E-06 -3.692333E-05  3.424018E-06  6.336310E-06 _shell_0000001304   
      1304   6  1.680374E-04  9.000009E+00  3.794609E-06 -3.636625E-05 -1.548624E-06 -2.408522E-06 _shell_0000001304   
      1304   7  2.040854E-04  8.999983E+00 -8.727721E-06 -3.655399E-05  1.649167E-05  2.821256E-05 _shell_0000001304   
      1304   8  2.000684E-04  9.000000E+00  1.888419E-06 -3.260640E-05  7.694045E-06  1.162892E-05 _shell_0000001304   
      1304   9  1.917474E-04  9.000009E+00  5.940871E-06 -3.114125E-05 -1.103578E-06 -3.765105E-06 _shell_0000001304   
      1304  10  1.604447E-04  9.000018E+00  2.922691E-06 -3.701230E-05 -1.721044E-15 -2.350724E-14 _shell_0000001304   
      1304  11  1.531876E-04  9.000014E+00  1.777216E-06 -3.819567E-05  1.866967E-15 -1.222692E-14 _shell_0000001304   
      1304  12  1.440057E-04  9.000005E+00 -3.803883E-07 -4.186148E-05 -3.153767E-15 -2.851602E-14 _shell_0000001304   
      1304  13  1.812279E-04  9.000015E+00 -8.284333E-07 -3.662730E-05  8.713776E-16 -3.746740E-14 _shell_0000001304   
      1304  14  1.717728E-04  9.000011E+00  9.194460E-07 -3.690261E-05  1.982224E-15 -1.651897E-15 _shell_0000001304   
      1304  15  1.592033E-04  9.000001E+00 -1.120583E-06 -3.966036E-05  1.615327E-15 -2.034633E-14 _shell_0000001304   
      1304  16  2.072142E-04  9.000015E+00  1.634861E-06 -3.617907E-05  5.114170E-15 -6.624588E-14 _shell_0000001304   
      1304  17  1.943153E-04  9.000011E+00  3.369048E-06 -3.554632E-05  4.948136E-15 -2.860702E-15 _shell_0000001304   
      1304  18  1.771123E-04  8.999999E+00 -1.460453E-06 -3.739602E-05  9.296247E-15 -2.116185E-14 _shell_0000001304   
      1304  19  1.457139E-04  8.999981E+00 -1.241216E-05 -4.330852E-05 -9.245905E-07 -4.328959E-06 _shell_0000001304   
      1304  20  1.473387E-04  8.999998E+00 -4.675678E-06 -4.117705E-05  2.230700E-07 -1.043700E-06 _shell_0000001304   
      1304  21  1.470388E-04  9.000010E+00  2.048671E-06 -4.152802E-05  1.370731E-06  1.051939E-06 _shell_0000001304   
      1304  22  1.722981E-04  8.999981E+00 -1.367715E-05 -3.996287E-05 -8.396660E-06 -1.627076E-05 _shell_0000001304   
      1304  23  1.717250E-04  8.999998E+00 -3.047315E-06 -3.692333E-05 -3.424018E-06 -6.336310E-06 _shell_0000001304   
      1304  24  1.680374E-04  9.000009E+00  3.794609E-06 -3.636625E-05  1.548624E-06  2.408522E-06 _shell_0000001304   
      1304  25  2.040854E-04  8.999983E+00 -8.727721E-06 -3.655399E-05 -1.649167E-05 -2.821256E-05 _shell_0000001304   
      1304  26  2.000684E-04  9.000000E+00  1.888419E-06 -3.260640E-05 -7.694045E-06 -1.162892E-05 _shell_0000001304   
      1304  27  1.917474E-04  9.000009E+00  5.940871E-06 -3.114125E-05  1.103578E-06  3.765105E-06 _shell_0000001304   
      1305   1  1.443571E-04  9.000011E+00  3.027110E-06 -3.925036E-05 -4.144343E-07 -1.183138E-06 _shell_0000001305   
      1305   2  1.379711E-04  9.000009E+00  1.085300E-06 -3.335422E-05 -7.012944E-08 -3.955846E-07 _shell_0000001305   
      1305   3  1.314936E-04  9.000007E+00 -5.625357E-07 -3.031874E-05  2.741754E-07  2.535813E-07 _shell_0000001305   
      1305   4  1.613520E-04  9.000009E+00  3.369469E-06 -3.481635E-05 -1.745648E-06 -4.017418E-06 _shell_0000001305   
      1305   5  1.510003E-04  9.000007E+00  8.647235E-07 -2.929648E-05 -7.302857E-07 -1.658770E-06 _shell_0000001305   
      1305   6  1.406954E-04  9.000004E+00 -1.023144E-06 -2.663728E-05  2.850763E-07  5.614908E-07 _shell_0000001305   
      1305   7  1.772615E-04  9.000006E+00  2.010329E-06 -3.017107E-05 -3.271633E-06 -6.851699E-06 _shell_0000001305   
      1305   8  1.633336E-04  9.000004E+00 -1.484144E-07 -2.502747E-05 -1.585214E-06 -2.921956E-06 _shell_0000001305   
      1305   9  1.495909E-04  9.000002E+00 -1.367376E-06 -2.274454E-05  1.012049E-07  8.694004E-07 _shell_0000001305   
      1305  10  1.410800E-04  9.000002E+00 -6.166515E-07 -3.974748E-05 -1.643166E-15 -2.045305E-14 _shell_0000001305   
      1305  11  1.368997E-04  9.000006E+00 -3.527420E-07 -3.329614E-05  4.329824E-15 -7.238412E-15 _shell_0000001305   
      1305  12  1.326279E-04  9.000008E+00  2.051420E-07 -2.970548E-05  5.541037E-15 -5.055723E-14 _shell_0000001305   
      1305  13  1.590465E-04  9.000001E+00  1.420983E-07 -3.457823E-05  7.635513E-16 -2.443854E-14 _shell_0000001305   
      1305  14  1.509005E-04  9.000004E+00 -1.569274E-07 -2.850317E-05  2.904508E-15 -2.443368E-15 _shell_0000001305   
      1305  15  1.428013E-04  9.000006E+00  1.609251E-07 -2.528878E-05  4.883665E-15 -3.398599E-14 _shell_0000001305   
      1305  16  1.759275E-04  8.999998E+00 -8.006508E-07 -2.919770E-05  6.426490E-15 -2.206172E-14 _shell_0000001305   
      1305  17  1.642054E-04  9.000001E+00 -7.536743E-07 -2.349892E-05  4.045334E-15 -8.765508E-15 _shell_0000001305   
      1305  18  1.526684E-04  9.000004E+00  2.330839E-07 -2.066080E-05  6.385402E-15 -4.432289E-14 _shell_0000001305   
      1305  19  1.443571E-04  9.000011E+00  3.027110E-06 -3.925036E-05  4.144343E-07  1.183138E-06 _shell_0000001305   
      1305  20  1.379711E-04  9.000009E+00  1.085300E-06 -3.335422E-05  7.012945E-08  3.955846E-07 _shell_0000001305   
      1305  21  1.314936E-04  9.000007E+00 -5.625357E-07 -3.031874E-05 -2.741754E-07 -2.535813E-07 _shell_0000001305   
      1305  22  1.613520E-04  9.000009E+00  3.369469E-06 -3.481635E-05  1.745648E-06  4.017418E-06 _shell_0000001305   
      1305  23  1.510003E-04  9.000007E+00  8.647235E-07 -2.929648E-05  7.302857E-07  1.658770E-06 _shell_0000001305   
      1305  24  1.406954E-04  9.000004E+00 -1.023144E-06 -2.663728E-05 -2.850763E-07 -5.614909E-07 _shell_0000001305   
      1305  25  1.772615E-04  9.000006E+00  2.010329E-06 -3.017107E-05  3.271633E-06  6.851699E-06 _shell_0000001305   
      1305  26  1.633336E-04  9.000004E+00 -1.484144E-07 -2.502747E-05  1.585214E-06  2.921956E-06 _shell_0000001305   
      1305  27  1.495909E-04  9.000002E+00 -1.367376E-06 -2.274454E-05 -1.012049E-07 -8.694005E-07 _shell_0000001305   
      1306   1  1.279368E-04  9.000006E+00 -9.268421E-07 -2.709539E-05  2.140580E-07  3.427877E-07 _shell_0000001306   
      1306   2  1.237043E-04  9.000006E+00 -2.599809E-07 -2.175133E-05  3.812918E-08  1.292699E-07 _shell_0000001306   
      1306   3  1.191919E-04  9.000006E+00  3.542934E-08 -1.773081E-05 -1.377996E-07 -2.264904E-08 _shell_0000001306   
      1306   4  1.369093E-04  9.000004E+00 -7.736510E-07 -2.325155E-05  5.127043E-07  9.968898E-07 _shell_0000001306   
      1306   5  1.309947E-04  9.000005E+00 -2.679532E-08 -1.853345E-05  1.789471E-07  4.019644E-07 _shell_0000001306   
      1306   6  1.247386E-04  9.000005E+00  2.048787E-07 -1.513890E-05 -1.548101E-07 -1.313621E-07 _shell_0000001306   
      1306   7  1.451310E-04  9.000002E+00 -5.204522E-07 -1.930600E-05  8.490644E-07  1.650992E-06 _shell_0000001306   
      1306   8  1.374588E-04  9.000003E+00  1.304008E-07 -1.521386E-05  3.574787E-07  6.746589E-07 _shell_0000001306   
      1306   9  1.293836E-04  9.000002E+00  1.223413E-07 -1.244527E-05 -1.341069E-07 -2.400752E-07 _shell_0000001306   
      1306  10  1.286458E-04  9.000008E+00 -6.013985E-08 -2.667908E-05  3.782587E-15 -4.753367E-14 _shell_0000001306   
      1306  11  1.238993E-04  9.000007E+00  9.278208E-08 -2.147649E-05  8.293515E-16 -7.227735E-16 _shell_0000001306   
      1306  12  1.188730E-04  9.000006E+00 -1.257471E-07 -1.759745E-05  1.396077E-15  1.644237E-15 _shell_0000001306   
      1306  13  1.373707E-04  9.000006E+00 -1.305204E-08 -2.300656E-05  5.828442E-15 -4.072274E-14 _shell_0000001306   
      1306  14  1.309422E-04  9.000005E+00  2.198644E-07 -1.842993E-05  5.701183E-15  8.167552E-15 _shell_0000001306   
      1306  15  1.241721E-04  9.000004E+00 -6.240092E-08 -1.517684E-05  3.509297E-15  1.612842E-14 _shell_0000001306   
      1306  16  1.453449E-04  9.000004E+00  1.340436E-07 -1.923232E-05  8.440226E-15 -3.855442E-14 _shell_0000001306   
      1306  17  1.371587E-04  9.000003E+00  2.709574E-07 -1.528165E-05  9.093808E-15  1.302115E-14 _shell_0000001306   
      1306  18  1.285696E-04  9.000002E+00 -2.510415E-07 -1.265453E-05  5.891130E-16  1.818651E-14 _shell_0000001306   
      1306  19  1.279368E-04  9.000006E+00 -9.268421E-07 -2.709539E-05 -2.140580E-07 -3.427879E-07 _shell_0000001306   
      1306  20  1.237043E-04  9.000006E+00 -2.599809E-07 -2.175133E-05 -3.812918E-08 -1.292699E-07 _shell_0000001306   
      1306  21  1.191919E-04  9.000006E+00  3.542935E-08 -1.773081E-05  1.377996E-07  2.264906E-08 _shell_0000001306   
      1306  22  1.369093E-04  9.000004E+00 -7.736510E-07 -2.325155E-05 -5.127043E-07 -9.968899E-07 _shell_0000001306   
      1306  23  1.309947E-04  9.000005E+00 -2.679531E-08 -1.853345E-05 -1.789471E-07 -4.019644E-07 _shell_0000001306   
      1306  24  1.247386E-04  9.000005E+00  2.048787E-07 -1.513890E-05  1.548101E-07  1.313621E-07 _shell_0000001306   
      1306  25  1.451310E-04  9.000002E+00 -5.204522E-07 -1.930600E-05 -8.490643E-07 -1.650992E-06 _shell_0000001306   
      1306  26  1.374588E-04  9.000003E+00  1.304008E-07 -1.521386E-05 -3.574787E-07 -6.746590E-07 _shell_0000001306   
      1306  27  1.293836E-04  9.000002E+00  1.223413E-07 -1.244527E-05  1.341069E-07  2.400752E-07 _shell_0000001306   
      1307   1  1.170210E-04  9.000006E+00  4.351302E-08 -1.490911E-05  2.811587E-09 -4.677492E-08 _shell_0000001307   
      1307   2  1.146587E-04  9.000006E+00  7.786596E-08 -1.037769E-05 -1.742792E-08 -1.137858E-08 _shell_0000001307   
      1307   3  1.120938E-04  9.000005E+00 -1.471604E-07 -6.501210E-06 -3.766743E-08  3.354153E-08 _shell_0000001307   
      1307   4  1.218272E-04  9.000004E+00  1.759221E-07 -1.274973E-05 -1.505990E-08 -2.411135E-07 _shell_0000001307   
      1307   5  1.186373E-04  9.000004E+00  1.992756E-07 -8.828631E-06 -3.478625E-08 -1.185608E-07 _shell_0000001307   
      1307   6  1.152353E-04  9.000004E+00 -5.897224E-08 -5.562463E-06 -5.451259E-08  1.351552E-08 _shell_0000001307   
      1307   7  1.257125E-04  9.000002E+00  1.603784E-08 -1.052459E-05 -4.175142E-08 -4.354520E-07 _shell_0000001307   
      1307   8  1.217126E-04  9.000002E+00  6.955205E-08 -7.213802E-06 -6.096459E-08 -2.257432E-07 _shell_0000001307   
      1307   9  1.174912E-04  9.000002E+00 -1.807571E-07 -4.557949E-06 -8.017778E-08 -6.510508E-09 _shell_0000001307   
      1307  10  1.168083E-04  9.000006E+00 -1.379998E-07 -1.481983E-05  6.576243E-15 -2.952979E-16 _shell_0000001307   
      1307  11  1.145639E-04  9.000006E+00  1.424906E-08 -1.029160E-05  9.273270E-15  1.037417E-14 _shell_0000001307   
      1307  12  1.121169E-04  9.000005E+00 -9.288149E-08 -6.418304E-06  2.369977E-15  5.038426E-14 _shell_0000001307   
      1307  13  1.216090E-04  9.000004E+00 -7.980663E-09 -1.262115E-05  2.411875E-15  6.515636E-15 _shell_0000001307   
      1307  14  1.185370E-04  9.000004E+00  1.332687E-07 -8.703240E-06  6.120486E-15  2.850592E-14 _shell_0000001307   
      1307  15  1.152529E-04  9.000004E+00 -7.083211E-09 -5.440259E-06  2.117013E-15  1.018219E-13 _shell_0000001307   
      1307  16  1.254886E-04  9.000002E+00 -1.702548E-07 -1.035671E-05 -2.274924E-15  1.112732E-14 _shell_0000001307   
      1307  17  1.216067E-04  9.000002E+00  1.155315E-09 -7.049112E-06 -2.925435E-15  2.656146E-14 _shell_0000001307   
      1307  18  1.175032E-04  9.000002E+00 -1.312580E-07 -4.396445E-06  1.890167E-15  1.080311E-13 _shell_0000001307   
      1307  19  1.170210E-04  9.000006E+00  4.351301E-08 -1.490911E-05 -2.811577E-09  4.677490E-08 _shell_0000001307   
      1307  20  1.146587E-04  9.000006E+00  7.786599E-08 -1.037769E-05  1.742793E-08  1.137862E-08 _shell_0000001307   
      1307  21  1.120938E-04  9.000005E+00 -1.471602E-07 -6.501210E-06  3.766743E-08 -3.354141E-08 _shell_0000001307   
      1307  22  1.218272E-04  9.000004E+00  1.759221E-07 -1.274973E-05  1.505991E-08  2.411135E-07 _shell_0000001307   
      1307  23  1.186373E-04  9.000004E+00  1.992756E-07 -8.828631E-06  3.478625E-08  1.185609E-07 _shell_0000001307   
      1307  24  1.152353E-04  9.000004E+00 -5.897212E-08 -5.562463E-06  5.451260E-08 -1.351532E-08 _shell_0000001307   
      1307  25  1.257125E-04  9.000002E+00  1.603791E-08 -1.052459E-05  4.175142E-08  4.354520E-07 _shell_0000001307   
      1307  26  1.217126E-04  9.000002E+00  6.955203E-08 -7.213802E-06  6.096460E-08  2.257432E-07 _shell_0000001307   
      1307  27  1.174912E-04  9.000002E+00 -1.807570E-07 -4.557949E-06  8.017779E-08  6.510724E-09 _shell_0000001307   
      1308   1  1.113728E-04  9.000005E+00 -1.623764E-07 -3.977923E-06  8.375620E-08  4.557851E-08 _shell_0000001308   
      1308   2  1.114809E-04  9.000005E+00 -8.374521E-09 -5.006352E-14 -1.520422E-14  4.134346E-08 _shell_0000001308   
      1308   3  1.113728E-04  9.000005E+00 -1.623763E-07  3.977923E-06 -8.375622E-08  4.557853E-08 _shell_0000001308   
      1308   4  1.143810E-04  9.000004E+00 -3.465363E-08 -3.360397E-06  1.069390E-07  5.091450E-08 _shell_0000001308   
      1308   5  1.144933E-04  9.000004E+00  1.292301E-07 -2.186302E-14 -2.249295E-14  4.667944E-08 _shell_0000001308   
      1308   6  1.143810E-04  9.000004E+00 -3.465344E-08  3.360397E-06 -1.069390E-07  5.091442E-08 _shell_0000001308   
      1308   7  1.164885E-04  9.000002E+00 -1.135406E-07 -2.742871E-06  1.301218E-07  5.625044E-08 _shell_0000001308   
      1308   8  1.166050E-04  9.000002E+00  6.022484E-08 -8.271806E-15 -8.535868E-15  5.201533E-08 _shell_0000001308   
      1308   9  1.164885E-04  9.000002E+00 -1.135405E-07  2.742871E-06 -1.301218E-07  5.625033E-08 _shell_0000001308   
      1308  10  1.113296E-04  9.000005E+00 -1.169252E-07 -3.957360E-06 -8.875962E-15  5.305149E-14 _shell_0000001308   
      1308  11  1.114377E-04  9.000006E+00  3.707664E-08 -6.576722E-14 -1.516469E-14 -1.639034E-15 _shell_0000001308   
      1308  12  1.113296E-04  9.000005E+00 -1.169252E-07  3.957360E-06 -4.095784E-15 -2.014243E-14 _shell_0000001308   
      1308  13  1.143018E-04  9.000004E+00 -4.625014E-09 -3.339834E-06 -5.802990E-15  9.121893E-14 _shell_0000001308   
      1308  14  1.144141E-04  9.000004E+00  1.592586E-07 -5.314317E-14 -1.450748E-14  7.330093E-15 _shell_0000001308   
      1308  15  1.143018E-04  9.000004E+00 -4.624950E-09  3.339834E-06 -6.897410E-15 -3.129301E-14 _shell_0000001308   
      1308  16  1.163733E-04  9.000002E+00 -9.893458E-08 -2.722308E-06  4.356950E-16  1.066221E-13 _shell_0000001308   
      1308  17  1.164898E-04  9.000002E+00  7.483079E-08 -4.530405E-14 -4.516819E-15 -1.120888E-14 _shell_0000001308   
      1308  18  1.163733E-04  9.000002E+00 -9.893454E-08  2.722308E-06  2.252529E-15 -6.051018E-14 _shell_0000001308   
      1308  19  1.113728E-04  9.000005E+00 -1.623763E-07 -3.977924E-06 -8.375622E-08 -4.557844E-08 _shell_0000001308   
      1308  20  1.114809E-04  9.000005E+00 -8.374487E-09 -1.157798E-13 -1.628910E-14 -4.134345E-08 _shell_0000001308   
      1308  21  1.113728E-04  9.000005E+00 -1.623763E-07  3.977923E-06  8.375621E-08 -4.557857E-08 _shell_0000001308   
      1308  22  1.143810E-04  9.000004E+00 -3.465356E-08 -3.360397E-06 -1.069390E-07 -5.091433E-08 _shell_0000001308   
      1308  23  1.144933E-04  9.000004E+00  1.292300E-07 -1.031812E-13 -1.420205E-14 -4.667940E-08 _shell_0000001308   
      1308  24  1.143810E-04  9.000004E+00 -3.465349E-08  3.360397E-06  1.069390E-07 -5.091451E-08 _shell_0000001308   
      1308  25  1.164885E-04  9.000002E+00 -1.135406E-07 -2.742871E-06 -1.301218E-07 -5.625029E-08 _shell_0000001308   
      1308  26  1.166050E-04  9.000002E+00  6.022471E-08 -9.493488E-14 -1.206411E-14 -5.201536E-08 _shell_0000001308   
      1308  27  1.164885E-04  9.000002E+00 -1.135406E-07  2.742871E-06  1.301218E-07 -5.625044E-08 _shell_0000001308   
      1309   1  1.120938E-04  9.000005E+00 -1.471602E-07  6.501210E-06  3.766743E-08  3.354150E-08 _shell_0000001309   
      1309   2  1.146587E-04  9.000006E+00  7.786601E-08  1.037769E-05  1.742793E-08 -1.137859E-08 _shell_0000001309   
      1309   3  1.170210E-04  9.000006E+00  4.351291E-08  1.490911E-05 -2.811578E-09 -4.677496E-08 _shell_0000001309   
      1309   4  1.152353E-04  9.000004E+00 -5.897204E-08  5.562463E-06  5.451261E-08  1.351542E-08 _shell_0000001309   
      1309   5  1.186373E-04  9.000004E+00  1.992756E-07  8.828631E-06  3.478627E-08 -1.185609E-07 _shell_0000001309   
      1309   6  1.218272E-04  9.000004E+00  1.759220E-07  1.274973E-05  1.505990E-08 -2.411135E-07 _shell_0000001309   
      1309   7  1.174912E-04  9.000002E+00 -1.807569E-07  4.557949E-06  8.017782E-08 -6.510690E-09 _shell_0000001309   
      1309   8  1.217126E-04  9.000002E+00  6.955209E-08  7.213802E-06  6.096461E-08 -2.257432E-07 _shell_0000001309   
      1309   9  1.257125E-04  9.000002E+00  1.603795E-08  1.052459E-05  4.175139E-08 -4.354521E-07 _shell_0000001309   
      1309  10  1.121169E-04  9.000005E+00 -9.288149E-08  6.418304E-06  3.340863E-15 -1.719523E-14 _shell_0000001309   
      1309  11  1.145639E-04  9.000006E+00  1.424905E-08  1.029160E-05  9.855848E-15 -2.536003E-14 _shell_0000001309   
      1309  12  1.168083E-04  9.000006E+00 -1.379998E-07  1.481983E-05  4.221205E-15 -3.574432E-14 _shell_0000001309   
      1309  13  1.152529E-04  9.000004E+00 -7.083191E-09  5.440259E-06  4.969589E-16 -3.257819E-14 _shell_0000001309   
      1309  14  1.185370E-04  9.000004E+00  1.332687E-07  8.703240E-06  8.857195E-15 -2.112492E-14 _shell_0000001309   
      1309  15  1.216090E-04  9.000004E+00 -7.980654E-09  1.262115E-05  4.880058E-15  1.692407E-15 _shell_0000001309   
      1309  16  1.175032E-04  9.000002E+00 -1.312580E-07  4.396445E-06  8.170004E-15 -4.995679E-14 _shell_0000001309   
      1309  17  1.216067E-04  9.000002E+00  1.155266E-09  7.049112E-06  8.201484E-15 -1.935343E-14 _shell_0000001309   
      1309  18  1.254886E-04  9.000002E+00 -1.702547E-07  1.035671E-05 -7.151176E-15  4.340782E-15 _shell_0000001309   
      1309  19  1.120938E-04  9.000005E+00 -1.471603E-07  6.501210E-06 -3.766741E-08 -3.354154E-08 _shell_0000001309   
      1309  20  1.146587E-04  9.000006E+00  7.786600E-08  1.037769E-05 -1.742792E-08  1.137853E-08 _shell_0000001309   
      1309  21  1.170210E-04  9.000006E+00  4.351307E-08  1.490911E-05  2.811572E-09  4.677488E-08 _shell_0000001309   
      1309  22  1.152353E-04  9.000004E+00 -5.897209E-08  5.562463E-06 -5.451261E-08 -1.351547E-08 _shell_0000001309   
      1309  23  1.186373E-04  9.000004E+00  1.992756E-07  8.828631E-06 -3.478625E-08  1.185609E-07 _shell_0000001309   
      1309  24  1.218272E-04  9.000004E+00  1.759221E-07  1.274973E-05 -1.505989E-08  2.411135E-07 _shell_0000001309   
      1309  25  1.174912E-04  9.000002E+00 -1.807570E-07  4.557949E-06 -8.017780E-08  6.510541E-09 _shell_0000001309   
      1309  26  1.217126E-04  9.000002E+00  6.955202E-08  7.213802E-06 -6.096461E-08  2.257431E-07 _shell_0000001309   
      1309  27  1.257125E-04  9.000002E+00  1.603788E-08  1.052459E-05 -4.175140E-08  4.354521E-07 _shell_0000001309   
      1310   1  1.191919E-04  9.000006E+00  3.542931E-08  1.773081E-05  1.377996E-07 -2.264915E-08 _shell_0000001310   
      1310   2  1.237043E-04  9.000006E+00 -2.599809E-07  2.175133E-05 -3.812919E-08  1.292699E-07 _shell_0000001310   
      1310   3  1.279368E-04  9.000006E+00 -9.268421E-07  2.709539E-05 -2.140580E-07  3.427877E-07 _shell_0000001310   
      1310   4  1.247386E-04  9.000005E+00  2.048787E-07  1.513890E-05  1.548101E-07 -1.313622E-07 _shell_0000001310   
      1310   5  1.309947E-04  9.000005E+00 -2.679531E-08  1.853345E-05 -1.789471E-07  4.019644E-07 _shell_0000001310   
      1310   6  1.369093E-04  9.000004E+00 -7.736511E-07  2.325155E-05 -5.127043E-07  9.968898E-07 _shell_0000001310   
      1310   7  1.293836E-04  9.000002E+00  1.223415E-07  1.244527E-05  1.341069E-07 -2.400752E-07 _shell_0000001310   
      1310   8  1.374588E-04  9.000003E+00  1.304009E-07  1.521386E-05 -3.574787E-07  6.746589E-07 _shell_0000001310   
      1310   9  1.451310E-04  9.000002E+00 -5.204524E-07  1.930600E-05 -8.490643E-07  1.650992E-06 _shell_0000001310   
      1310  10  1.188730E-04  9.000006E+00 -1.257470E-07  1.759745E-05  9.289931E-16 -2.595062E-14 _shell_0000001310   
      1310  11  1.238993E-04  9.000007E+00  9.278208E-08  2.147649E-05  2.614175E-15 -1.752090E-14 _shell_0000001310   
      1310  12  1.286458E-04  9.000008E+00 -6.013987E-08  2.667908E-05 -2.650007E-15 -4.050380E-14 _shell_0000001310   
      1310  13  1.241721E-04  9.000004E+00 -6.240090E-08  1.517684E-05  1.157394E-15 -8.170001E-15 _shell_0000001310   
      1310  14  1.309422E-04  9.000005E+00  2.198644E-07  1.842993E-05 -3.257819E-15 -1.466019E-14 _shell_0000001310   
      1310  15  1.373707E-04  9.000006E+00 -1.305207E-08  2.300656E-05  2.696433E-16 -1.688000E-14 _shell_0000001310   
      1310  16  1.285696E-04  9.000002E+00 -2.510413E-07  1.265453E-05 -1.387117E-14  2.371928E-15 _shell_0000001310   
      1310  17  1.371587E-04  9.000003E+00  2.709574E-07  1.528165E-05 -9.099658E-15 -2.403654E-14 _shell_0000001310   
      1310  18  1.453449E-04  9.000004E+00  1.340435E-07  1.923232E-05 -3.465221E-16 -2.136545E-14 _shell_0000001310   
      1310  19  1.191919E-04  9.000006E+00  3.542941E-08  1.773081E-05 -1.377996E-07  2.264907E-08 _shell_0000001310   
      1310  20  1.237043E-04  9.000006E+00 -2.599809E-07  2.175133E-05  3.812919E-08 -1.292699E-07 _shell_0000001310   
      1310  21  1.279368E-04  9.000006E+00 -9.268421E-07  2.709539E-05  2.140580E-07 -3.427878E-07 _shell_0000001310   
      1310  22  1.247386E-04  9.000005E+00  2.048787E-07  1.513890E-05 -1.548101E-07  1.313622E-07 _shell_0000001310   
      1310  23  1.309947E-04  9.000005E+00 -2.679532E-08  1.853345E-05  1.789471E-07 -4.019644E-07 _shell_0000001310   
      1310  24  1.369093E-04  9.000004E+00 -7.736511E-07  2.325155E-05  5.127043E-07 -9.968899E-07 _shell_0000001310   
      1310  25  1.293836E-04  9.000002E+00  1.223415E-07  1.244527E-05 -1.341070E-07  2.400752E-07 _shell_0000001310   
      1310  26  1.374588E-04  9.000003E+00  1.304008E-07  1.521386E-05  3.574787E-07 -6.746590E-07 _shell_0000001310   
      1310  27  1.451310E-04  9.000002E+00 -5.204523E-07  1.930600E-05  8.490643E-07 -1.650992E-06 _shell_0000001310   
      1311   1  1.314936E-04  9.000007E+00 -5.625358E-07  3.031874E-05 -2.741754E-07  2.535812E-07 _shell_0000001311   
      1311   2  1.379711E-04  9.000009E+00  1.085300E-06  3.335422E-05  7.012940E-08 -3.955847E-07 _shell_0000001311   
      1311   3  1.443571E-04  9.000011E+00  3.027110E-06  3.925036E-05  4.144343E-07 -1.183138E-06 _shell_0000001311   
      1311   4  1.406954E-04  9.000004E+00 -1.023144E-06  2.663728E-05 -2.850763E-07  5.614908E-07 _shell_0000001311   
      1311   5  1.510003E-04  9.000007E+00  8.647235E-07  2.929648E-05  7.302856E-07 -1.658770E-06 _shell_0000001311   
      1311   6  1.613520E-04  9.000009E+00  3.369469E-06  3.481635E-05  1.745648E-06 -4.017418E-06 _shell_0000001311   
      1311   7  1.495909E-04  9.000002E+00 -1.367376E-06  2.274454E-05 -1.012049E-07  8.694005E-07 _shell_0000001311   
      1311   8  1.633336E-04  9.000004E+00 -1.484144E-07  2.502747E-05  1.585214E-06 -2.921956E-06 _shell_0000001311   
      1311   9  1.772615E-04  9.000006E+00  2.010329E-06  3.017107E-05  3.271633E-06 -6.851699E-06 _shell_0000001311   
      1311  10  1.326279E-04  9.000008E+00  2.051420E-07  2.970548E-05 -7.413130E-15 -4.244332E-14 _shell_0000001311   
      1311  11  1.368997E-04  9.000006E+00 -3.527420E-07  3.329614E-05 -1.317496E-14 -2.749796E-14 _shell_0000001311   
      1311  12  1.410800E-04  9.000002E+00 -6.166514E-07  3.974748E-05 -1.046558E-15 -3.666059E-14 _shell_0000001311   
      1311  13  1.428013E-04  9.000006E+00  1.609251E-07  2.528878E-05 -1.037225E-14 -1.791799E-14 _shell_0000001311   
      1311  14  1.509005E-04  9.000004E+00 -1.569274E-07  2.850317E-05 -2.891314E-14 -9.722554E-15 _shell_0000001311   
      1311  15  1.590465E-04  9.000001E+00  1.420983E-07  3.457823E-05 -9.687972E-15 -7.692303E-14 _shell_0000001311   
      1311  16  1.526684E-04  9.000004E+00  2.330839E-07  2.066080E-05 -1.249073E-14  1.173816E-14 _shell_0000001311   
      1311  17  1.642054E-04  9.000001E+00 -7.536743E-07  2.349892E-05 -3.399748E-14 -8.969116E-15 _shell_0000001311   
      1311  18  1.759275E-04  8.999998E+00 -8.006508E-07  2.919770E-05 -9.697029E-15 -1.554705E-13 _shell_0000001311   
      1311  19  1.314936E-04  9.000007E+00 -5.625357E-07  3.031874E-05  2.741754E-07 -2.535813E-07 _shell_0000001311   
      1311  20  1.379711E-04  9.000009E+00  1.085300E-06  3.335422E-05 -7.012943E-08  3.955846E-07 _shell_0000001311   
      1311  21  1.443571E-04  9.000011E+00  3.027110E-06  3.925036E-05 -4.144343E-07  1.183138E-06 _shell_0000001311   
      1311  22  1.406954E-04  9.000004E+00 -1.023144E-06  2.663728E-05  2.850763E-07 -5.614909E-07 _shell_0000001311   
      1311  23  1.510003E-04  9.000007E+00  8.647235E-07  2.929648E-05 -7.302857E-07  1.658770E-06 _shell_0000001311   
      1311  24  1.613520E-04  9.000009E+00  3.369469E-06  3.481635E-05 -1.745648E-06  4.017418E-06 _shell_0000001311   
      1311  25  1.495909E-04  9.000002E+00 -1.367376E-06  2.274454E-05  1.012049E-07 -8.694005E-07 _shell_0000001311   
      1311  26  1.633336E-04  9.000004E+00 -1.484144E-07  2.502747E-05 -1.585214E-06  2.921956E-06 _shell_0000001311   
      1311  27  1.772615E-04  9.000006E+00  2.010329E-06  3.017107E-05 -3.271633E-06  6.851699E-06 _shell_0000001311   
      1312   1  1.470388E-04  9.000010E+00  2.048671E-06  4.152802E-05  1.370731E-06 -1.051940E-06 _shell_0000001312   
      1312   2  1.473387E-04  8.999998E+00 -4.675678E-06  4.117705E-05  2.230700E-07  1.043700E-06 _shell_0000001312   
      1312   3  1.457139E-04  8.999981E+00 -1.241216E-05  4.330852E-05 -9.245905E-07  4.328959E-06 _shell_0000001312   
      1312   4  1.680374E-04  9.000009E+00  3.794609E-06  3.636625E-05  1.548624E-06 -2.408522E-06 _shell_0000001312   
      1312   5  1.717250E-04  8.999998E+00 -3.047315E-06  3.692333E-05 -3.424018E-06  6.336310E-06 _shell_0000001312   
      1312   6  1.722981E-04  8.999981E+00 -1.367715E-05  3.996287E-05 -8.396660E-06  1.627076E-05 _shell_0000001312   
      1312   7  1.917474E-04  9.000009E+00  5.940871E-06  3.114125E-05  1.103578E-06 -3.765105E-06 _shell_0000001312   
      1312   8  2.000684E-04  9.000000E+00  1.888419E-06  3.260640E-05 -7.694045E-06  1.162892E-05 _shell_0000001312   
      1312   9  2.040854E-04  8.999983E+00 -8.727721E-06  3.655399E-05 -1.649167E-05  2.821256E-05 _shell_0000001312   
      1312  10  1.440057E-04  9.000005E+00 -3.803884E-07  4.186148E-05  6.050834E-15 -4.162885E-14 _shell_0000001312   
      1312  11  1.531876E-04  9.000014E+00  1.777216E-06  3.819567E-05 -4.030443E-15 -3.940942E-14 _shell_0000001312   
      1312  12  1.604447E-04  9.000018E+00  2.922691E-06  3.701230E-05 -5.030439E-15 -2.733407E-15 _shell_0000001312   
      1312  13  1.592033E-04  9.000001E+00 -1.120583E-06  3.966036E-05  3.663672E-15 -8.144535E-14 _shell_0000001312   
      1312  14  1.717728E-04  9.000011E+00  9.194460E-07  3.690261E-05  4.072274E-15 -1.791800E-14 _shell_0000001312   
      1312  15  1.812279E-04  9.000015E+00 -8.284333E-07  3.662730E-05 -1.535971E-15 -9.119727E-15 _shell_0000001312   
      1312  16  1.771123E-04  8.999999E+00 -1.460453E-06  3.739602E-05  8.080996E-15 -1.476914E-13 _shell_0000001312   
      1312  17  1.943153E-04  9.000011E+00  3.369048E-06  3.554632E-05  1.480986E-14 -6.627582E-15 _shell_0000001312   
      1312  18  2.072142E-04  9.000015E+00  1.634861E-06  3.617907E-05  1.419309E-14 -3.442215E-14 _shell_0000001312   
      1312  19  1.470388E-04  9.000010E+00  2.048671E-06  4.152802E-05 -1.370731E-06  1.051939E-06 _shell_0000001312   
      1312  20  1.473387E-04  8.999998E+00 -4.675678E-06  4.117705E-05 -2.230700E-07 -1.043700E-06 _shell_0000001312   
      1312  21  1.457139E-04  8.999981E+00 -1.241216E-05  4.330852E-05  9.245905E-07 -4.328959E-06 _shell_0000001312   
      1312  22  1.680374E-04  9.000009E+00  3.794609E-06  3.636625E-05 -1.548624E-06  2.408522E-06 _shell_0000001312   
      1312  23  1.717250E-04  8.999998E+00 -3.047315E-06  3.692333E-05  3.424018E-06 -6.336310E-06 _shell_0000001312   
      1312  24  1.722981E-04  8.999981E+00 -1.367715E-05  3.996287E-05  8.396660E-06 -1.627076E-05 _shell_0000001312   
      1312  25  1.917474E-04  9.000009E+00  5.940871E-06  3.114125E-05 -1.103578E-06  3.765105E-06 _shell_0000001312   
      1312  26  2.000684E-04  9.000000E+00  1.888419E-06  3.260640E-05  7.694045E-06 -1.162892E-05 _shell_0000001312   
      1312  27  2.040854E-04  8.999983E+00 -8.727721E-06  3.655399E-05  1.649167E-05 -2.821256E-05 _shell_0000001312   
      1313   1  1.447942E-04  8.999987E+00 -8.370498E-06  4.095985E-05 -4.046534E-06  4.886592E-06 _shell_0000001313   
      1313   2  1.612868E-04  9.000009E+00  2.244561E-05  2.371171E-05 -3.519430E-06 -3.091520E-06 _shell_0000001313   
      1313   3  1.638537E-04  8.999988E+00  4.937458E-05  7.535323E-06 -2.992326E-06 -2.011887E-05 _shell_0000001313   
      1313   4  1.657008E-04  8.999984E+00 -1.750343E-05  4.718003E-05 -4.441482E-06  1.070976E-05 _shell_0000001313   
      1313   5  1.855112E-04  9.000013E+00  1.248274E-05  2.338746E-05  1.294679E-05 -2.494419E-05 _shell_0000001313   
      1313   6  2.004452E-04  9.000009E+00  5.969665E-05  6.666356E-07  3.033507E-05 -6.964737E-05 _shell_0000001313   
      1313   7  1.883296E-04  8.999982E+00 -2.464122E-05  5.465002E-05 -1.753034E-06  1.653292E-05 _shell_0000001313   
      1313   8  2.052911E-04  9.000012E+00 -9.874182E-06  2.431301E-05  3.249641E-05 -4.679686E-05 _shell_0000001313   
      1313   9  2.264255E-04  9.000018E+00  4.323549E-05 -4.952253E-06  6.674586E-05 -1.191759E-04 _shell_0000001313   
      1313  10  1.577204E-04  9.000006E+00  1.336975E-06  3.540109E-05 -1.393773E-15  1.212523E-14 _shell_0000001313   
      1313  11  1.361400E-04  8.999939E+00 -5.919873E-06  3.419230E-05  6.665273E-15  2.942245E-15 _shell_0000001313   
      1313  12  1.006339E-04  8.999830E+00 -1.706386E-05  3.405525E-05  5.214510E-15  1.177400E-14 _shell_0000001313   
      1313  13  2.066957E-04  9.000015E+00  4.233551E-06  2.893029E-05  9.301891E-15 -1.303106E-14 _shell_0000001313   
      1313  14  1.884332E-04  8.999955E+00 -3.853238E-06  2.117706E-05  1.935532E-14  3.299140E-15 _shell_0000001313   
      1313  15  1.652943E-04  8.999862E+00  5.287718E-06  1.449558E-05  2.301926E-14  2.793609E-14 _shell_0000001313   
      1313  16  2.573934E-04  9.000025E+00  9.125262E-06  2.370929E-05  1.852824E-14 -4.588430E-14 _shell_0000001313   
      1313  17  2.362820E-04  8.999967E+00 -1.418065E-05  9.411623E-06  2.610440E-14  3.043922E-15 _shell_0000001313   
      1313  18  2.193434E-04  8.999884E+00  8.560619E-07 -3.814300E-06  2.597423E-14  2.292054E-14 _shell_0000001313   
      1313  19  1.447942E-04  8.999987E+00 -8.370498E-06  4.095985E-05  4.046534E-06 -4.886592E-06 _shell_0000001313   
      1313  20  1.612868E-04  9.000009E+00  2.244561E-05  2.371171E-05  3.519430E-06  3.091520E-06 _shell_0000001313   
      1313  21  1.638537E-04  8.999988E+00  4.937458E-05  7.535323E-06  2.992326E-06  2.011887E-05 _shell_0000001313   
      1313  22  1.657008E-04  8.999984E+00 -1.750343E-05  4.718003E-05  4.441482E-06 -1.070976E-05 _shell_0000001313   
      1313  23  1.855112E-04  9.000013E+00  1.248274E-05  2.338746E-05 -1.294679E-05  2.494419E-05 _shell_0000001313   
      1313  24  2.004452E-04  9.000009E+00  5.969665E-05  6.666357E-07 -3.033507E-05  6.964738E-05 _shell_0000001313   
      1313  25  1.883296E-04  8.999982E+00 -2.464122E-05  5.465002E-05  1.753034E-06 -1.653292E-05 _shell_0000001313   
      1313  26  2.052911E-04  9.000012E+00 -9.874182E-06  2.431301E-05 -3.249641E-05  4.679686E-05 _shell_0000001313   
      1313  27  2.264255E-04  9.000018E+00  4.323549E-05 -4.952253E-06 -6.674585E-05  1.191759E-04 _shell_0000001313   
      1314   1  1.137831E-04  8.999945E+00  1.760429E-05 -2.830548E-05  2.527163E-05 -1.941206E-05 _shell_0000001314   
      1314   2  1.104956E-04  8.999710E+00 -7.433395E-05 -1.977141E-05  1.887910E-05  1.202842E-05 _shell_0000001314   
      1314   3 -3.768045E-05  8.999098E+00 -2.716238E-04  1.482397E-05  1.248656E-05  5.298546E-05 _shell_0000001314   
      1314   4  2.025972E-04  8.999982E+00  5.738464E-05 -2.982517E-05  3.867534E-05 -4.263798E-05 _shell_0000001314   
      1314   5  2.247314E-04  8.999722E+00 -3.714974E-05 -4.440831E-05 -6.651680E-05  1.068669E-04 _shell_0000001314   
      1314   6  9.246040E-05  8.999075E+00 -2.592410E-04 -3.293013E-05 -1.717089E-04  2.658884E-04 _shell_0000001314   
      1314   7  3.451482E-04  9.000039E+00  1.056737E-04 -3.758428E-05  4.203688E-05 -6.586391E-05 _shell_0000001314   
      1314   8  4.127885E-04  8.999773E+00  5.540663E-05 -7.528463E-05 -1.619549E-04  2.017054E-04 _shell_0000001314   
      1314   9  3.165069E-04  8.999111E+00 -1.446227E-04 -8.692366E-05 -3.659466E-04  4.787913E-04 _shell_0000001314   
      1314  10  9.014664E-05  8.999869E+00 -1.235754E-05 -9.544499E-06  3.568583E-15  1.456906E-14 _shell_0000001314   
      1314  11  2.422766E-04  8.999997E+00  5.112157E-05 -7.867884E-05 -8.851294E-15 -5.609244E-15 _shell_0000001314   
      1314  12  2.495178E-04  8.999747E+00  9.249065E-06 -1.217519E-04 -9.885093E-15 -3.123920E-14 _shell_0000001314   
      1314  13  4.304102E-05  8.999848E+00 -3.082850E-05  4.074160E-05  9.875264E-15  2.444342E-14 _shell_0000001314   
      1314  14  2.205926E-04  8.999950E+00  3.005447E-05 -5.150995E-05 -3.473407E-15  8.144112E-15 _shell_0000001314   
      1314  15  2.437389E-04  8.999666E+00 -3.661948E-05 -1.177002E-04 -2.077657E-15 -3.969206E-14 _shell_0000001314   
      1314  16  4.967237E-05  8.999846E+00 -4.079074E-05  8.478827E-05  1.531023E-14  2.965557E-14 _shell_0000001314   
      1314  17  2.727299E-04  8.999943E+00  6.435954E-05 -3.058049E-05  2.197724E-15  1.129085E-14 _shell_0000001314   
      1314  18  3.318657E-04  8.999643E+00  1.974756E-05 -1.198879E-04 -7.134689E-15 -5.488569E-14 _shell_0000001314   
      1314  19  1.137831E-04  8.999945E+00  1.760429E-05 -2.830548E-05 -2.527163E-05  1.941206E-05 _shell_0000001314   
      1314  20  1.104956E-04  8.999710E+00 -7.433395E-05 -1.977141E-05 -1.887910E-05 -1.202842E-05 _shell_0000001314   
      1314  21 -3.768045E-05  8.999098E+00 -2.716238E-04  1.482397E-05 -1.248656E-05 -5.298546E-05 _shell_0000001314   
      1314  22  2.025972E-04  8.999982E+00  5.738464E-05 -2.982517E-05 -3.867534E-05  4.263798E-05 _shell_0000001314   
      1314  23  2.247314E-04  8.999722E+00 -3.714974E-05 -4.440831E-05  6.651680E-05 -1.068669E-04 _shell_0000001314   
      1314  24  9.246040E-05  8.999075E+00 -2.592410E-04 -3.293013E-05  1.717089E-04 -2.658884E-04 _shell_0000001314   
      1314  25  3.451482E-04  9.000039E+00  1.056737E-04 -3.758428E-05 -4.203688E-05  6.586391E-05 _shell_0000001314   
      1314  26  4.127885E-04  8.999773E+00  5.540663E-05 -7.528463E-05  1.619549E-04 -2.017054E-04 _shell_0000001314   
      1314  27  3.165069E-04  8.999111E+00 -1.446227E-04 -8.692366E-05  3.659466E-04 -4.787913E-04 _shell_0000001314   
      1315   1 -1.210241E-05  8.999133E+00 -2.385603E-04  2.505781E-04  2.686239E-05  5.985577E-05 _shell_0000001315   
      1315   2  5.978472E-05  8.999744E+00 -2.257693E-05  1.492334E-04 -6.503375E-06  3.570179E-05 _shell_0000001315   
      1315   3 -6.143873E-05  8.999874E+00  2.933573E-05  1.240543E-04 -3.986914E-05  1.051943E-05 _shell_0000001315   
      1315   4 -3.329567E-04  8.998934E+00 -4.233466E-04  4.654328E-04 -1.597568E-04  2.639355E-04 _shell_0000001315   
      1315   5 -7.272711E-05  8.999730E+00 -9.541424E-05  2.122620E-04 -7.253586E-05  9.139612E-05 _shell_0000001315   
      1315   6 -4.579761E-06  9.000048E+00  7.084694E-05  3.525684E-05  1.468503E-05 -8.217161E-05 _shell_0000001315   
      1315   7 -7.608660E-04  8.998708E+00 -5.906085E-04  6.986952E-04 -3.376100E-04  4.680152E-04 _shell_0000001315   
      1315   8 -3.298258E-04  8.999672E+00 -1.916347E-04  2.936985E-04 -1.298025E-04  1.470905E-04 _shell_0000001315   
      1315   9 -8.983945E-05  9.000159E+00  4.806750E-05 -3.513273E-05  7.800509E-05 -1.748626E-04 _shell_0000001315   
      1315  10  2.254364E-04  8.999744E+00  1.583538E-05  1.045222E-04 -8.245626E-15 -3.979650E-14 _shell_0000001315   
      1315  11  1.106667E-04  8.999919E+00  4.516193E-05  9.400316E-05 -7.845260E-15 -2.424013E-14 _shell_0000001315   
      1315  12 -1.972135E-04  8.999614E+00 -8.958222E-05  1.596496E-04 -1.963972E-14  5.280227E-14 _shell_0000001315   
      1315  13  6.352701E-05  8.999613E+00 -1.008317E-04  2.571579E-04  5.332813E-16 -5.052159E-14 _shell_0000001315   
      1315  14  1.370998E-04  8.999973E+00  4.044385E-05  9.481282E-05 -1.303128E-14 -1.465040E-14 _shell_0000001315   
      1315  15  1.859029E-05  8.999855E+00  2.004822E-05  8.633284E-06 -2.749969E-14  4.891492E-14 _shell_0000001315   
      1315  16 -2.054375E-04  8.999455E+00 -1.999744E-04  4.282015E-04 -7.781278E-15 -6.074855E-14 _shell_0000001315   
      1315  17  3.894592E-05  8.999984E+00  1.234263E-05  1.140303E-04 -1.628918E-14 -1.232869E-14 _shell_0000001315   
      1315  18  9.227546E-05  9.000035E+00  6.538801E-05 -1.239752E-04 -1.957160E-14  1.207810E-14 _shell_0000001315   
      1315  19 -1.210241E-05  8.999133E+00 -2.385603E-04  2.505781E-04 -2.686239E-05 -5.985577E-05 _shell_0000001315   
      1315  20  5.978472E-05  8.999744E+00 -2.257693E-05  1.492334E-04  6.503375E-06 -3.570179E-05 _shell_0000001315   
      1315  21 -6.143873E-05  8.999874E+00  2.933573E-05  1.240543E-04  3.986914E-05 -1.051943E-05 _shell_0000001315   
      1315  22 -3.329567E-04  8.998934E+00 -4.233466E-04  4.654328E-04  1.597568E-04 -2.639355E-04 _shell_0000001315   
      1315  23 -7.272711E-05  8.999730E+00 -9.541424E-05  2.122620E-04  7.253586E-05 -9.139612E-05 _shell_0000001315   
      1315  24 -4.579761E-06  9.000048E+00  7.084694E-05  3.525684E-05 -1.468503E-05  8.217161E-05 _shell_0000001315   
      1315  25 -7.608660E-04  8.998708E+00 -5.906085E-04  6.986952E-04  3.376100E-04 -4.680152E-04 _shell_0000001315   
      1315  26 -3.298258E-04  8.999672E+00 -1.916347E-04  2.936985E-04  1.298025E-04 -1.470905E-04 _shell_0000001315   
      1315  27 -8.983945E-05  9.000159E+00  4.806750E-05 -3.513273E-05 -7.800509E-05  1.748626E-04 _shell_0000001315   
      1401   1 -2.005900E-04  8.999879E+00 -9.737010E-05 -7.737005E-05 -9.100821E-05 -1.610064E-04 _shell_0000001401   
      1401   2 -2.684087E-04  8.999861E+00 -1.002756E-04 -8.548596E-05  1.169241E-04  1.301013E-04 _shell_0000001401   
      1401   3 -1.138208E-04  9.000347E+00  1.347379E-04 -1.218034E-04  3.248564E-04  4.641705E-04 _shell_0000001401   
      1401   4  3.229294E-07  8.999947E+00 -6.816545E-05 -3.310595E-05 -6.159632E-05 -8.907803E-05 _shell_0000001401   
      1401   5 -6.582757E-05  8.999960E+00  2.555789E-05 -4.840023E-05  2.617799E-05  5.785931E-05 _shell_0000001401   
      1401   6  4.746689E-05  9.000434E+00  2.569564E-04 -9.189606E-05  1.139523E-04  2.477583E-04 _shell_0000001401   
      1401   7  7.760591E-05  8.999968E+00 -6.931137E-05  1.147534E-05 -2.425481E-05 -1.714970E-05 _shell_0000001401   
      1401   8 -2.735661E-06  8.999996E+00  8.403586E-05 -1.099730E-05 -5.663847E-05 -1.438265E-05 _shell_0000001401   
      1401   9  5.340612E-05  9.000442E+00  2.748146E-04 -6.167150E-05 -8.902214E-05  3.134601E-05 _shell_0000001401   
      1401  10  1.742435E-04  9.000220E+00  1.171513E-04  1.024351E-04  7.016079E-16 -4.316610E-14 _shell_0000001401   
      1401  11 -7.360837E-05  8.999782E+00 -6.578739E-05 -1.190987E-05  3.722682E-15  7.294417E-15 _shell_0000001401   
      1401  12 -9.905372E-05  8.999847E+00 -1.080716E-05 -1.544564E-04  6.592269E-15 -3.601803E-14 _shell_0000001401   
      1401  13  1.892556E-04  9.000207E+00  6.668419E-05  8.668815E-05 -9.824361E-15 -3.094928E-14 _shell_0000001401   
      1401  14 -5.692817E-05  8.999800E+00 -1.962571E-05 -3.483522E-05 -8.720722E-16 -6.199921E-15 _shell_0000001401   
      1401  15 -1.236669E-04  8.999854E+00  3.173961E-05 -1.845601E-04  8.945526E-15 -2.805286E-14 _shell_0000001401   
      1401  16  8.063764E-05  9.000149E+00 -1.413355E-05  7.125836E-05 -8.039379E-15 -1.192157E-14 _shell_0000001401   
      1401  17 -1.797372E-04  8.999757E+00 -4.081955E-05 -5.744337E-05 -3.142525E-15 -2.081958E-15 _shell_0000001401   
      1401  18 -3.036286E-04  8.999783E+00 -3.007408E-05 -2.143466E-04  2.831898E-15 -9.524001E-15 _shell_0000001401   
      1401  19 -2.005900E-04  8.999879E+00 -9.737010E-05 -7.737005E-05  9.100821E-05  1.610064E-04 _shell_0000001401   
      1401  20 -2.684087E-04  8.999861E+00 -1.002756E-04 -8.548596E-05 -1.169241E-04 -1.301013E-04 _shell_0000001401   
      1401  21 -1.138208E-04  9.000347E+00  1.347379E-04 -1.218034E-04 -3.248564E-04 -4.641705E-04 _shell_0000001401   
      1401  22  3.229296E-07  8.999947E+00 -6.816545E-05 -3.310595E-05  6.159632E-05  8.907803E-05 _shell_0000001401   
      1401  23 -6.582757E-05  8.999960E+00  2.555789E-05 -4.840023E-05 -2.617799E-05 -5.785931E-05 _shell_0000001401   
      1401  24  4.746689E-05  9.000434E+00  2.569564E-04 -9.189606E-05 -1.139523E-04 -2.477583E-04 _shell_0000001401   
      1401  25  7.760591E-05  8.999968E+00 -6.931137E-05  1.147534E-05  2.425481E-05  1.714970E-05 _shell_0000001401   
      1401  26 -2.735661E-06  8.999996E+00  8.403586E-05 -1.099730E-05  5.663847E-05  1.438265E-05 _shell_0000001401   
      1401  27  5.340612E-05  9.000442E+00  2.748146E-04 -6.167150E-05  8.902214E-05 -3.134601E-05 _shell_0000001401   
      1402   1  9.571080E-04  9.000764E+00  5.840490E-04  6.477186E-04  3.597437E-04  4.820692E-04 _shell_0000001402   
      1402   2  5.185199E-04  9.000045E+00  1.889979E-04  2.401439E-04  1.678785E-04  2.023793E-04 _shell_0000001402   
      1402   3  3.189238E-04  8.999885E+00  3.102242E-05  1.207971E-05 -2.398662E-05 -4.539363E-05 _shell_0000001402   
      1402   4  4.090807E-04  9.000550E+00  3.984666E-04  4.320041E-04  1.335278E-04  2.605253E-04 _shell_0000001402   
      1402   5  2.834236E-04  8.999976E+00  1.239368E-04  1.455641E-04  8.213522E-05  1.073709E-04 _shell_0000001402   
      1402   6  3.648416E-04  8.999929E+00  1.200994E-05  3.863446E-05  3.074261E-05 -1.386661E-05 _shell_0000001402   
      1402   7 -8.789372E-05  9.000347E+00  1.953690E-04  2.191104E-04 -9.916313E-05  3.898143E-05 _shell_0000001402   
      1402   8  1.123305E-04  8.999930E+00  7.157793E-05  5.380493E-05 -1.008321E-05  1.236248E-05 _shell_0000001402   
      1402   9  4.877130E-04  9.000009E+00  3.591700E-05  6.800994E-05  7.899670E-05  1.766041E-05 _shell_0000001402   
      1402  10  4.318373E-04  9.000020E+00  2.032162E-04  3.694734E-04  2.939673E-15 -3.196735E-14 _shell_0000001402   
      1402  11  1.501707E-04  8.999667E+00 -3.491347E-05  5.528435E-05 -8.786159E-15  1.401359E-14 _shell_0000001402   
      1402  12  1.074960E-04  8.999874E+00 -3.596753E-05 -7.939430E-05 -1.263225E-14 -6.645830E-14 _shell_0000001402   
      1402  13  4.723473E-05  8.999876E+00  8.767287E-05  2.060661E-04  1.005493E-14 -1.466025E-14 _shell_0000001402   
      1402  14  7.849914E-05  8.999668E+00 -2.993541E-05  1.301164E-05 -6.515431E-15  6.882348E-15 _shell_0000001402   
      1402  15  3.168386E-04  8.999987E+00  1.505916E-05 -5.324009E-07 -1.320267E-14 -6.145946E-14 _shell_0000001402   
      1402  16 -2.863149E-04  8.999743E+00 -4.538554E-05  4.547952E-05  2.137979E-15  9.061367E-16 _shell_0000001402   
      1402  17  7.083078E-05  8.999692E+00 -1.225513E-05 -2.644034E-05 -1.061862E-14  1.786637E-15 _shell_0000001402   
      1402  18  6.031347E-04  9.000137E+00  1.090054E-04  8.115023E-05 -1.190771E-14 -7.834549E-14 _shell_0000001402   
      1402  19  9.571080E-04  9.000764E+00  5.840490E-04  6.477186E-04 -3.597437E-04 -4.820692E-04 _shell_0000001402   
      1402  20  5.185199E-04  9.000045E+00  1.889979E-04  2.401439E-04 -1.678785E-04 -2.023793E-04 _shell_0000001402   
      1402  21  3.189238E-04  8.999885E+00  3.102242E-05  1.207971E-05  2.398662E-05  4.539363E-05 _shell_0000001402   
      1402  22  4.090807E-04  9.000550E+00  3.984666E-04  4.320041E-04 -1.335278E-04 -2.605253E-04 _shell_0000001402   
      1402  23  2.834236E-04  8.999976E+00  1.239368E-04  1.455641E-04 -8.213522E-05 -1.073709E-04 _shell_0000001402   
      1402  24  3.648416E-04  8.999929E+00  1.200994E-05  3.863446E-05 -3.074261E-05  1.386661E-05 _shell_0000001402   
      1402  25 -8.789372E-05  9.000347E+00  1.953690E-04  2.191104E-04  9.916313E-05 -3.898143E-05 _shell_0000001402   
      1402  26  1.123305E-04  8.999930E+00  7.157793E-05  5.380493E-05  1.008321E-05 -1.236248E-05 _shell_0000001402   
      1402  27  4.877130E-04  9.000009E+00  3.591700E-05  6.800994E-05 -7.899670E-05 -1.766041E-05 _shell_0000001402   
      1403   1  1.950012E-04  8.999895E+00 -3.463284E-05 -4.208384E-05 -6.735981E-05 -1.006341E-04 _shell_0000001403   
      1403   2  1.880185E-04  8.999918E+00 -5.961150E-05 -4.228943E-05 -3.445608E-05 -5.315909E-05 _shell_0000001403   
      1403   3  2.222965E-04  9.000006E+00 -1.174195E-05 -4.910301E-05 -1.552351E-06  1.002089E-05 _shell_0000001403   
      1403   4  2.752263E-04  8.999946E+00 -5.571837E-05 -3.371689E-05 -2.949259E-05 -4.197060E-05 _shell_0000001403   
      1403   5  2.655176E-04  8.999953E+00 -4.519757E-05 -2.636458E-05 -1.807458E-05 -2.777694E-05 _shell_0000001403   
      1403   6  2.813647E-04  9.000008E+00  1.526456E-06 -2.562025E-05 -6.656564E-06  2.121720E-06 _shell_0000001403   
      1403   7  3.659942E-04  9.000005E+00 -5.787446E-05 -3.030829E-05  1.081606E-05  1.669286E-05 _shell_0000001403   
      1403   8  3.486768E-04  8.999991E+00 -2.324756E-05 -1.539807E-05  7.483606E-07 -2.394794E-06 _shell_0000001403   
      1403   9  3.412100E-04  9.000010E+00  1.093758E-05 -7.095839E-06 -9.319343E-06 -5.777447E-06 _shell_0000001403   
      1403  10  3.282422E-04  9.000094E+00  6.504641E-05  2.576472E-05 -1.682433E-14 -7.716957E-14 _shell_0000001403   
      1403  11  2.783248E-04  9.000017E+00 -2.866956E-06  3.555466E-06 -1.994674E-14 -1.927711E-14 _shell_0000001403   
      1403  12  2.696681E-04  9.000004E+00  2.067896E-06 -2.526177E-05 -4.258148E-15 -8.485989E-14 _shell_0000001403   
      1403  13  3.699609E-04  9.000128E+00  2.745813E-05  1.982010E-05 -1.819499E-14 -6.189862E-14 _shell_0000001403   
      1403  14  3.173175E-04  9.000035E+00 -4.955769E-06  5.168755E-06 -2.036114E-14 -2.238710E-14 _shell_0000001403   
      1403  15  2.902299E-04  8.999991E+00 -1.166448E-06 -1.609058E-05 -1.724426E-14 -1.064441E-13 _shell_0000001403   
      1403  16  4.222224E-04  9.000171E+00  8.799302E-06  8.917133E-06 -1.126157E-14 -7.137674E-14 _shell_0000001403   
      1403  17  3.619703E-04  9.000057E+00  4.914996E-07  1.823691E-06 -1.334268E-14 -2.722817E-14 _shell_0000001403   
      1403  18  3.115688E-04  8.999976E+00 -8.258072E-06 -1.187774E-05 -2.516557E-14 -1.287653E-13 _shell_0000001403   
      1403  19  1.950012E-04  8.999895E+00 -3.463284E-05 -4.208384E-05  6.735981E-05  1.006341E-04 _shell_0000001403   
      1403  20  1.880185E-04  8.999918E+00 -5.961150E-05 -4.228943E-05  3.445608E-05  5.315908E-05 _shell_0000001403   
      1403  21  2.222965E-04  9.000006E+00 -1.174195E-05 -4.910301E-05  1.552351E-06 -1.002089E-05 _shell_0000001403   
      1403  22  2.752263E-04  8.999946E+00 -5.571837E-05 -3.371689E-05  2.949259E-05  4.197060E-05 _shell_0000001403   
      1403  23  2.655176E-04  8.999953E+00 -4.519757E-05 -2.636458E-05  1.807458E-05  2.777694E-05 _shell_0000001403   
      1403  24  2.813647E-04  9.000008E+00  1.526455E-06 -2.562025E-05  6.656564E-06 -2.121721E-06 _shell_0000001403   
      1403  25  3.659942E-04  9.000005E+00 -5.787446E-05 -3.030829E-05 -1.081606E-05 -1.669286E-05 _shell_0000001403   
      1403  26  3.486768E-04  8.999991E+00 -2.324756E-05 -1.539807E-05 -7.483606E-07  2.394794E-06 _shell_0000001403   
      1403  27  3.412100E-04  9.000010E+00  1.093758E-05 -7.095839E-06  9.319343E-06  5.777447E-06 _shell_0000001403   
      1404   1  2.494371E-04  9.000043E+00  2.115262E-05 -2.686918E-05  1.574700E-05  2.700031E-05 _shell_0000001404   
      1404   2  2.244312E-04  9.000020E+00  1.286281E-05 -2.375623E-05  7.818270E-06  1.213107E-05 _shell_0000001404   
      1404   3  1.992624E-04  8.999999E+00  1.629558E-06 -2.700614E-05 -1.104584E-07 -2.585381E-06 _shell_0000001404   
      1404   4  2.749356E-04  9.000026E+00  1.738337E-05 -1.752559E-05  4.089789E-06  1.189751E-05 _shell_0000001404   
      1404   5  2.444285E-04  9.000011E+00  9.995297E-06 -1.433637E-05  2.971992E-06  5.554350E-06 _shell_0000001404   
      1404   6  2.136056E-04  8.999999E+00 -6.927162E-07 -1.750999E-05  1.854194E-06 -6.360212E-07 _shell_0000001404   
      1404   7  2.963672E-04  9.000005E+00  6.006597E-06 -6.314107E-06 -8.498551E-06 -3.205295E-06 _shell_0000001404   
      1404   8  2.622211E-04  9.000001E+00  3.865539E-06 -3.048608E-06 -2.805418E-06 -1.022372E-06 _shell_0000001404   
      1404   9  2.276065E-04  8.999998E+00 -1.931961E-06 -6.145962E-06  2.887716E-06  1.313338E-06 _shell_0000001404   
      1404  10  2.172077E-04  8.999991E+00 -4.348228E-06 -4.148601E-05  1.498647E-15 -8.897917E-14 _shell_0000001404   
      1404  11  2.038887E-04  8.999995E+00 -9.511557E-07 -3.332216E-05  1.866904E-15 -2.886301E-15 _shell_0000001404   
      1404  12  1.904068E-04  9.000001E+00 -4.975181E-07 -3.152116E-05  7.904974E-15 -2.087425E-14 _shell_0000001404   
      1404  13  2.515453E-04  8.999977E+00 -4.329299E-06 -2.824679E-05 -1.213447E-14 -1.075105E-13 _shell_0000001404   
      1404  14  2.327250E-04  8.999989E+00 -3.048752E-08 -2.000667E-05 -8.605565E-15 -1.594532E-14 _shell_0000001404   
      1404  15  2.135891E-04  9.000004E+00  9.683854E-07 -1.812939E-05  2.048122E-15 -5.085757E-14 _shell_0000001404   
      1404  16  2.818160E-04  8.999960E+00 -1.191790E-05 -1.313968E-05 -2.829104E-14 -1.261488E-13 _shell_0000001404   
      1404  17  2.593568E-04  8.999983E+00 -2.372068E-06 -4.823279E-06 -1.724579E-14 -2.285056E-14 _shell_0000001404   
      1404  18  2.364291E-04  9.000007E+00  3.517318E-06 -2.869730E-06  4.454856E-17 -7.162619E-14 _shell_0000001404   
      1404  19  2.494371E-04  9.000043E+00  2.115262E-05 -2.686918E-05 -1.574700E-05 -2.700031E-05 _shell_0000001404   
      1404  20  2.244312E-04  9.000020E+00  1.286281E-05 -2.375623E-05 -7.818270E-06 -1.213107E-05 _shell_0000001404   
      1404  21  1.992624E-04  8.999999E+00  1.629558E-06 -2.700614E-05  1.104584E-07  2.585381E-06 _shell_0000001404   
      1404  22  2.749356E-04  9.000026E+00  1.738337E-05 -1.752559E-05 -4.089789E-06 -1.189751E-05 _shell_0000001404   
      1404  23  2.444285E-04  9.000011E+00  9.995297E-06 -1.433637E-05 -2.971992E-06 -5.554350E-06 _shell_0000001404   
      1404  24  2.136056E-04  8.999999E+00 -6.927163E-07 -1.750999E-05 -1.854194E-06  6.360211E-07 _shell_0000001404   
      1404  25  2.963672E-04  9.000005E+00  6.006597E-06 -6.314106E-06  8.498551E-06  3.205295E-06 _shell_0000001404   
      1404  26  2.622211E-04  9.000001E+00  3.865539E-06 -3.048608E-06  2.805417E-06  1.022372E-06 _shell_0000001404   
      1404  27  2.276065E-04  8.999998E+00 -1.931961E-06 -6.145962E-06 -2.887716E-06 -1.313339E-06 _shell_0000001404   
      1405   1  1.806651E-04  8.999992E+00 -5.085829E-06 -2.744256E-05 -3.070380E-06 -6.034955E-06 _shell_0000001405   
      1405   2  1.681234E-04  8.999997E+00 -3.292017E-06 -2.220374E-05 -1.623354E-06 -2.942076E-06 _shell_0000001405   
      1405   3  1.560181E-04  9.000002E+00 -4.515935E-07 -1.927351E-05 -1.763286E-07  6.612385E-07 _shell_0000001405   
      1405   4  1.977193E-04  8.999995E+00 -4.595537E-06 -1.640462E-05 -5.658089E-07 -2.240259E-06 _shell_0000001405   
      1405   5  1.819099E-04  8.999999E+00 -1.937649E-06 -1.265282E-05 -6.125144E-07 -1.331975E-06 _shell_0000001405   
      1405   6  1.660264E-04  9.000002E+00  5.758338E-07 -1.120961E-05 -6.592200E-07  8.674344E-08 _shell_0000001405   
      1405   7  2.132258E-04  8.999999E+00 -2.783536E-06 -5.565046E-06  2.188575E-06  1.554438E-06 _shell_0000001405   
      1405   8  1.936491E-04  9.000000E+00 -4.273682E-07 -3.300273E-06  6.481384E-07  2.781258E-07 _shell_0000001405   
      1405   9  1.734878E-04  9.000000E+00  5.933790E-07 -3.344083E-06 -8.922983E-07 -4.877516E-07 _shell_0000001405   
      1405  10  1.883061E-04  9.000005E+00  1.298279E-06 -2.318936E-05  7.354040E-15 -2.911676E-14 _shell_0000001405   
      1405  11  1.727447E-04  9.000003E+00  7.234224E-08 -1.926225E-05  3.922557E-15 -5.126070E-15 _shell_0000001405   
      1405  12  1.576196E-04  9.000002E+00 -1.069845E-07 -1.764373E-05  4.153890E-15 -5.093275E-14 _shell_0000001405   
      1405  13  2.030648E-04  9.000008E+00  8.047887E-07 -1.315800E-05  7.279189E-15 -4.238200E-14 _shell_0000001405   
      1405  14  1.842357E-04  9.000004E+00  4.429266E-07 -1.071791E-05  6.569591E-15  1.014020E-14 _shell_0000001405   
      1405  15  1.653325E-04  9.000000E+00 -6.334086E-08 -1.058641E-05  4.349238E-15 -5.795615E-14 _shell_0000001405   
      1405  16  2.162758E-04  9.000010E+00  1.633005E-06 -3.325009E-06  9.468050E-15 -6.078881E-14 _shell_0000001405   
      1405  17  1.936793E-04  9.000004E+00  9.694234E-07 -2.371948E-06  1.361516E-14  1.746494E-14 _shell_0000001405   
      1405  18  1.704983E-04  8.999998E+00 -1.029579E-06 -3.727469E-06  1.161573E-14 -7.287331E-14 _shell_0000001405   
      1405  19  1.806651E-04  8.999992E+00 -5.085830E-06 -2.744256E-05  3.070380E-06  6.034955E-06 _shell_0000001405   
      1405  20  1.681234E-04  8.999997E+00 -3.292017E-06 -2.220374E-05  1.623354E-06  2.942076E-06 _shell_0000001405   
      1405  21  1.560181E-04  9.000002E+00 -4.515936E-07 -1.927351E-05  1.763286E-07 -6.612386E-07 _shell_0000001405   
      1405  22  1.977193E-04  8.999995E+00 -4.595537E-06 -1.640462E-05  5.658089E-07  2.240258E-06 _shell_0000001405   
      1405  23  1.819099E-04  8.999999E+00 -1.937649E-06 -1.265282E-05  6.125145E-07  1.331975E-06 _shell_0000001405   
      1405  24  1.660264E-04  9.000002E+00  5.758337E-07 -1.120961E-05  6.592200E-07 -8.674360E-08 _shell_0000001405   
      1405  25  2.132258E-04  8.999999E+00 -2.783536E-06 -5.565046E-06 -2.188575E-06 -1.554438E-06 _shell_0000001405   
      1405  26  1.936491E-04  9.000000E+00 -4.273681E-07 -3.300273E-06 -6.481383E-07 -2.781257E-07 _shell_0000001405   
      1405  27  1.734878E-04  9.000000E+00  5.933789E-07 -3.344083E-06  8.922983E-07  4.877514E-07 _shell_0000001405   
      1406   1  1.509754E-04  9.000004E+00  1.085577E-06 -1.598496E-05  7.692732E-07  1.567667E-06 _shell_0000001406   
      1406   2  1.414523E-04  9.000003E+00  7.983521E-07 -1.248171E-05  3.388195E-07  7.412673E-07 _shell_0000001406   
      1406   3  1.315099E-04  9.000001E+00 -1.827586E-07 -1.036888E-05 -9.163434E-08 -9.835408E-08 _shell_0000001406   
      1406   4  1.574362E-04  9.000002E+00  9.975854E-07 -9.643548E-06  9.726295E-08  5.203140E-07 _shell_0000001406   
      1406   5  1.463448E-04  9.000002E+00  7.813818E-07 -7.228213E-06  3.471668E-08  2.535377E-07 _shell_0000001406   
      1406   6  1.348473E-04  9.000001E+00 -9.785684E-08 -6.203301E-06 -2.782959E-08 -2.646042E-08 _shell_0000001406   
      1406   7  1.620486E-04  9.000000E+00 -1.413277E-08 -3.076069E-06 -6.322296E-07 -5.270390E-07 _shell_0000001406   
      1406   8  1.495038E-04  9.000000E+00  1.089359E-07 -1.748652E-06 -3.268684E-07 -2.341920E-07 _shell_0000001406   
      1406   9  1.365661E-04  9.000000E+00 -4.001799E-07 -1.811658E-06 -2.150715E-08  4.543327E-08 _shell_0000001406   
      1406  10  1.490193E-04  9.000001E+00 -4.704324E-07 -1.668288E-05  6.365943E-15 -4.642392E-14 _shell_0000001406   
      1406  11  1.402551E-04  9.000001E+00  1.254045E-09 -1.289873E-05  3.679940E-15  1.910396E-14 _shell_0000001406   
      1406  12  1.310716E-04  9.000001E+00 -2.209452E-07 -1.050502E-05  5.943447E-16  2.644046E-14 _shell_0000001406   
      1406  13  1.559717E-04  8.999999E+00 -3.477576E-07 -1.008849E-05  1.145327E-15 -6.352747E-14 _shell_0000001406   
      1406  14  1.456391E-04  9.000001E+00  1.949503E-07 -7.392268E-06 -1.018053E-15  1.179211E-14 _shell_0000001406   
      1406  15  1.349005E-04  9.000001E+00  7.462311E-08 -6.086468E-06  2.084027E-15  2.226763E-14 _shell_0000001406   
      1406  16  1.610756E-04  8.999997E+00 -1.148809E-06 -3.268042E-06  3.451726E-15 -8.705497E-14 _shell_0000001406   
      1406  17  1.492897E-04  8.999999E+00 -2.668291E-07 -1.659736E-06 -6.075428E-15  9.524000E-15 _shell_0000001406   
      1406  18  1.371109E-04  9.000000E+00 -1.703345E-08 -1.441854E-06 -3.483157E-15  7.986776E-15 _shell_0000001406   
      1406  19  1.509754E-04  9.000004E+00  1.085577E-06 -1.598496E-05 -7.692732E-07 -1.567667E-06 _shell_0000001406   
      1406  20  1.414523E-04  9.000003E+00  7.983521E-07 -1.248171E-05 -3.388194E-07 -7.412673E-07 _shell_0000001406   
      1406  21  1.315099E-04  9.000001E+00 -1.827586E-07 -1.036888E-05  9.163434E-08  9.835413E-08 _shell_0000001406   
      1406  22  1.574362E-04  9.000002E+00  9.975853E-07 -9.643548E-06 -9.726295E-08 -5.203141E-07 _shell_0000001406   
      1406  23  1.463448E-04  9.000002E+00  7.813818E-07 -7.228213E-06 -3.471668E-08 -2.535377E-07 _shell_0000001406   
      1406  24  1.348473E-04  9.000001E+00 -9.785688E-08 -6.203301E-06  2.782958E-08  2.646044E-08 _shell_0000001406   
      1406  25  1.620486E-04  9.000000E+00 -1.413285E-08 -3.076069E-06  6.322297E-07  5.270389E-07 _shell_0000001406   
      1406  26  1.495038E-04  9.000000E+00  1.089358E-07 -1.748652E-06  3.268684E-07  2.341920E-07 _shell_0000001406   
      1406  27  1.365661E-04  9.000000E+00 -4.001800E-07 -1.811658E-06  2.150714E-08 -4.543325E-08 _shell_0000001406   
      1407   1  1.272499E-04  9.000000E+00 -4.893049E-07 -8.826030E-06 -1.255123E-08 -3.095508E-07 _shell_0000001407   
      1407   2  1.230512E-04  9.000001E+00 -1.692280E-07 -6.062534E-06 -5.968483E-08 -1.531117E-07 _shell_0000001407   
      1407   3  1.186237E-04  9.000001E+00 -1.842809E-07 -3.791639E-06 -1.068184E-07  5.609099E-08 _shell_0000001407   
      1407   4  1.300716E-04  9.000000E+00 -2.761529E-07 -5.217337E-06  1.308493E-07 -1.126915E-07 _shell_0000001407   
      1407   5  1.252339E-04  9.000001E+00  1.207149E-07 -3.453415E-06 -1.274572E-08 -8.643241E-08 _shell_0000001407   
      1407   6  1.201145E-04  9.000001E+00  5.933772E-08 -2.182093E-06 -1.563407E-07 -7.409706E-09 _shell_0000001407   
      1407   7  1.314157E-04  9.000000E+00 -3.444370E-07 -1.590125E-06  2.907789E-07  8.416784E-08 _shell_0000001407   
      1407   8  1.259058E-04  9.000000E+00  5.208600E-08 -8.257771E-07  5.072249E-08 -1.975306E-08 _shell_0000001407   
      1407   9  1.200616E-04  9.000000E+00 -1.327511E-07 -5.540291E-07 -1.893339E-07 -7.091040E-08 _shell_0000001407   
      1407  10  1.275650E-04  9.000001E+00 -1.089852E-07 -8.518147E-06 -3.782597E-15  1.018068E-14 _shell_0000001407   
      1407  11  1.231826E-04  9.000001E+00  2.744872E-08 -5.846783E-06 -7.168531E-15  2.256540E-14 _shell_0000001407   
      1407  12  1.185714E-04  9.000001E+00 -1.712472E-07 -3.668020E-06  2.815382E-15  1.004540E-13 _shell_0000001407   
      1407  13  1.302255E-04  9.000001E+00  3.506739E-08 -4.970668E-06 -1.100459E-15  9.773456E-15 _shell_0000001407   
      1407  14  1.252040E-04  9.000001E+00  2.482923E-07 -3.298879E-06 -2.634904E-15  1.334711E-14 _shell_0000001407   
      1407  15  1.199011E-04  9.000001E+00  3.272146E-09 -2.119689E-06  4.942159E-15  6.985989E-14 _shell_0000001407   
      1407  16  1.314083E-04  9.000000E+00 -1.023160E-07 -1.404670E-06 -3.356607E-15 -1.212514E-14 _shell_0000001407   
      1407  17  1.257148E-04  9.000000E+00  1.105640E-07 -7.324548E-07 -8.473912E-15  1.054207E-14 _shell_0000001407   
      1407  18  1.196870E-04  9.000000E+00 -2.579160E-07 -5.528392E-07  4.129918E-15  4.954942E-14 _shell_0000001407   
      1407  19  1.272499E-04  9.000000E+00 -4.893048E-07 -8.826030E-06  1.255122E-08  3.095508E-07 _shell_0000001407   
      1407  20  1.230512E-04  9.000001E+00 -1.692280E-07 -6.062534E-06  5.968481E-08  1.531118E-07 _shell_0000001407   
      1407  21  1.186237E-04  9.000001E+00 -1.842810E-07 -3.791638E-06  1.068184E-07 -5.609082E-08 _shell_0000001407   
      1407  22  1.300716E-04  9.000000E+00 -2.761529E-07 -5.217337E-06 -1.308493E-07  1.126915E-07 _shell_0000001407   
      1407  23  1.252339E-04  9.000001E+00  1.207149E-07 -3.453415E-06  1.274570E-08  8.643243E-08 _shell_0000001407   
      1407  24  1.201145E-04  9.000001E+00  5.933764E-08 -2.182093E-06  1.563407E-07  7.409819E-09 _shell_0000001407   
      1407  25  1.314157E-04  9.000000E+00 -3.444371E-07 -1.590125E-06 -2.907789E-07 -8.416784E-08 _shell_0000001407   
      1407  26  1.259058E-04  9.000000E+00  5.208597E-08 -8.257771E-07 -5.072249E-08  1.975311E-08 _shell_0000001407   
      1407  27  1.200616E-04  9.000000E+00 -1.327511E-07 -5.540290E-07  1.893339E-07  7.091046E-08 _shell_0000001407   
      1408   1  1.174908E-04  9.000001E+00 -7.655486E-08 -2.263688E-06  1.253466E-07  1.217200E-07 _shell_0000001408   
      1408   2  1.176187E-04  9.000001E+00  1.132821E-07 -1.644181E-14  1.653407E-14  1.139817E-07 _shell_0000001408   
      1408   3  1.174908E-04  9.000001E+00 -7.655508E-08  2.263688E-06 -1.253466E-07  1.217199E-07 _shell_0000001408   
      1408   4  1.185635E-04  9.000001E+00  5.159058E-08 -1.371728E-06  8.575405E-08  2.033764E-08 _shell_0000001408   
      1408   5  1.186991E-04  9.000001E+00  2.594833E-07 -1.206411E-14  2.044409E-14  1.259942E-08 _shell_0000001408   
      1408   6  1.185635E-04  9.000001E+00  5.159037E-08  1.371728E-06 -8.575401E-08  2.033758E-08 _shell_0000001408   
      1408   7  1.182793E-04  9.000000E+00 -1.941950E-07 -4.797691E-07  4.616142E-08 -8.104470E-08 _shell_0000001408   
      1408   8  1.184227E-04  9.000000E+00  3.175371E-08 -2.209209E-14 -9.560299E-15 -8.878284E-08 _shell_0000001408   
      1408   9  1.182793E-04  9.000000E+00 -1.941948E-07  4.797691E-07 -4.616147E-08 -8.104467E-08 _shell_0000001408   
      1408  10  1.172739E-04  9.000001E+00 -1.646311E-07 -2.287579E-06  3.493573E-15  9.142255E-14 _shell_0000001408   
      1408  11  1.174018E-04  9.000001E+00  2.520609E-08 -6.016785E-14  1.277114E-15 -1.988805E-14 _shell_0000001408   
      1408  12  1.172739E-04  9.000001E+00 -1.646310E-07  2.287578E-06  6.390319E-15 -7.269396E-14 _shell_0000001408   
      1408  13  1.183884E-04  9.000001E+00 -1.856751E-08 -1.395619E-06  1.168234E-14  6.841420E-14 _shell_0000001408   
      1408  14  1.185241E-04  9.000001E+00  1.893254E-07 -3.766853E-15  1.425296E-14 -1.592236E-14 _shell_0000001408   
      1408  15  1.183884E-04  9.000001E+00 -1.856746E-08  1.395619E-06  5.866619E-15 -8.198747E-14 _shell_0000001408   
      1408  16  1.181460E-04  9.000000E+00 -2.464349E-07 -5.036598E-07  2.005897E-14  5.384570E-14 _shell_0000001408   
      1408  17  1.182894E-04  9.000000E+00 -2.048611E-08  4.489682E-14  3.223545E-14  5.044500E-15 _shell_0000001408   
      1408  18  1.181460E-04  9.000000E+00 -2.464345E-07  5.036599E-07  1.180965E-14 -7.506216E-14 _shell_0000001408   
      1408  19  1.174908E-04  9.000001E+00 -7.655499E-08 -2.263688E-06 -1.253466E-07 -1.217198E-07 _shell_0000001408   
      1408  20  1.176187E-04  9.000001E+00  1.132821E-07 -1.085006E-13 -1.547464E-14 -1.139817E-07 _shell_0000001408   
      1408  21  1.174908E-04  9.000001E+00 -7.655516E-08  2.263688E-06  1.253466E-07 -1.217200E-07 _shell_0000001408   
      1408  22  1.185635E-04  9.000001E+00  5.159053E-08 -1.371728E-06 -8.575402E-08 -2.033748E-08 _shell_0000001408   
      1408  23  1.186991E-04  9.000001E+00  2.594834E-07 -8.302348E-14  5.599376E-16 -1.259945E-08 _shell_0000001408   
      1408  24  1.185635E-04  9.000001E+00  5.159033E-08  1.371728E-06  8.575401E-08 -2.033778E-08 _shell_0000001408   
      1408  25  1.182793E-04  9.000000E+00 -1.941949E-07 -4.797691E-07 -4.616138E-08  8.104482E-08 _shell_0000001408   
      1408  26  1.184227E-04  9.000000E+00  3.175387E-08 -6.938136E-14  6.250940E-14  8.878286E-08 _shell_0000001408   
      1408  27  1.182793E-04  9.000000E+00 -1.941947E-07  4.797689E-07  4.616148E-08  8.104450E-08 _shell_0000001408   
      1409   1  1.186237E-04  9.000001E+00 -1.842812E-07  3.791639E-06  1.068184E-07  5.609095E-08 _shell_0000001409   
      1409   2  1.230512E-04  9.000001E+00 -1.692280E-07  6.062534E-06  5.968480E-08 -1.531118E-07 _shell_0000001409   
      1409   3  1.272499E-04  9.000000E+00 -4.893047E-07  8.826030E-06  1.255115E-08 -3.095509E-07 _shell_0000001409   
      1409   4  1.201145E-04  9.000001E+00  5.933752E-08  2.182093E-06  1.563407E-07 -7.409676E-09 _shell_0000001409   
      1409   5  1.252339E-04  9.000001E+00  1.207149E-07  3.453415E-06  1.274566E-08 -8.643245E-08 _shell_0000001409   
      1409   6  1.300716E-04  9.000000E+00 -2.761528E-07  5.217337E-06 -1.308494E-07 -1.126917E-07 _shell_0000001409   
      1409   7  1.200616E-04  9.000000E+00 -1.327510E-07  5.540292E-07  1.893340E-07 -7.091031E-08 _shell_0000001409   
      1409   8  1.259058E-04  9.000000E+00  5.208607E-08  8.257771E-07 -5.072247E-08 -1.975311E-08 _shell_0000001409   
      1409   9  1.314157E-04  9.000000E+00 -3.444371E-07  1.590125E-06 -2.907789E-07  8.416758E-08 _shell_0000001409   
      1409  10  1.185714E-04  9.000001E+00 -1.712472E-07  3.668020E-06  7.400412E-15 -6.515638E-14 _shell_0000001409   
      1409  11  1.231826E-04  9.000001E+00  2.744869E-08  5.846783E-06  5.223638E-15 -1.988806E-14 _shell_0000001409   
      1409  12  1.275650E-04  9.000001E+00 -1.089852E-07  8.518147E-06 -9.872672E-15  1.076221E-14 _shell_0000001409   
      1409  13  1.199011E-04  9.000001E+00  3.272178E-09  2.119689E-06 -2.837210E-15 -7.655874E-14 _shell_0000001409   
      1409  14  1.252040E-04  9.000001E+00  2.482923E-07  3.298879E-06 -5.344863E-15 -2.569582E-14 _shell_0000001409   
      1409  15  1.302255E-04  9.000001E+00  3.506737E-08  4.970668E-06 -3.073623E-15  1.063131E-14 _shell_0000001409   
      1409  16  1.196870E-04  9.000000E+00 -2.579155E-07  5.528391E-07 -7.266464E-15 -8.298270E-14 _shell_0000001409   
      1409  17  1.257148E-04  9.000000E+00  1.105641E-07  7.324546E-07 -1.691935E-14 -2.376684E-14 _shell_0000001409   
      1409  18  1.314083E-04  9.000000E+00 -1.023163E-07  1.404670E-06 -8.391948E-15 -1.171285E-14 _shell_0000001409   
      1409  19  1.186237E-04  9.000001E+00 -1.842813E-07  3.791639E-06 -1.068184E-07 -5.609108E-08 _shell_0000001409   
      1409  20  1.230512E-04  9.000001E+00 -1.692280E-07  6.062534E-06 -5.968480E-08  1.531118E-07 _shell_0000001409   
      1409  21  1.272499E-04  9.000000E+00 -4.893047E-07  8.826030E-06 -1.255119E-08  3.095510E-07 _shell_0000001409   
      1409  22  1.201145E-04  9.000001E+00  5.933747E-08  2.182094E-06 -1.563407E-07  7.409529E-09 _shell_0000001409   
      1409  23  1.252339E-04  9.000001E+00  1.207149E-07  3.453415E-06 -1.274568E-08  8.643242E-08 _shell_0000001409   
      1409  24  1.300716E-04  9.000000E+00 -2.761528E-07  5.217337E-06  1.308494E-07  1.126917E-07 _shell_0000001409   
      1409  25  1.200616E-04  9.000000E+00 -1.327509E-07  5.540293E-07 -1.893340E-07  7.091016E-08 _shell_0000001409   
      1409  26  1.259058E-04  9.000000E+00  5.208604E-08  8.257771E-07  5.072243E-08  1.975310E-08 _shell_0000001409   
      1409  27  1.314157E-04  9.000000E+00 -3.444371E-07  1.590125E-06  2.907789E-07 -8.416762E-08 _shell_0000001409   
      1410   1  1.315099E-04  9.000001E+00 -1.827586E-07  1.036888E-05  9.163438E-08 -9.835422E-08 _shell_0000001410   
      1410   2  1.414523E-04  9.000003E+00  7.983520E-07  1.248171E-05 -3.388194E-07  7.412673E-07 _shell_0000001410   
      1410   3  1.509754E-04  9.000004E+00  1.085577E-06  1.598496E-05 -7.692732E-07  1.567667E-06 _shell_0000001410   
      1410   4  1.348473E-04  9.000001E+00 -9.785671E-08  6.203302E-06  2.782964E-08 -2.646057E-08 _shell_0000001410   
      1410   5  1.463448E-04  9.000002E+00  7.813817E-07  7.228213E-06 -3.471663E-08  2.535377E-07 _shell_0000001410   
      1410   6  1.574362E-04  9.000002E+00  9.975852E-07  9.643548E-06 -9.726291E-08  5.203142E-07 _shell_0000001410   
      1410   7  1.365661E-04  9.000000E+00 -4.001801E-07  1.811658E-06  2.150710E-08  4.543305E-08 _shell_0000001410   
      1410   8  1.495038E-04  9.000000E+00  1.089359E-07  1.748652E-06  3.268684E-07 -2.341919E-07 _shell_0000001410   
      1410   9  1.620486E-04  9.000000E+00 -1.413240E-08  3.076069E-06  6.322296E-07 -5.270387E-07 _shell_0000001410   
      1410  10  1.310716E-04  9.000001E+00 -2.209453E-07  1.050502E-05 -1.471109E-14  1.018068E-15 _shell_0000001410   
      1410  11  1.402551E-04  9.000001E+00  1.254049E-09  1.289873E-05 -8.533680E-15 -2.976332E-14 _shell_0000001410   
      1410  12  1.490193E-04  9.000001E+00 -4.704323E-07  1.668288E-05 -4.342527E-15 -2.858614E-14 _shell_0000001410   
      1410  13  1.349005E-04  9.000001E+00  7.462306E-08  6.086468E-06 -6.496880E-16 -2.545160E-17 _shell_0000001410   
      1410  14  1.456391E-04  9.000001E+00  1.949503E-07  7.392268E-06 -2.850607E-15 -3.709818E-14 _shell_0000001410   
      1410  15  1.559717E-04  8.999999E+00 -3.477575E-07  1.008849E-05 -6.246053E-15 -4.741670E-14 _shell_0000001410   
      1410  16  1.371109E-04  9.000000E+00 -1.703367E-08  1.441854E-06  1.336213E-15 -2.434196E-14 _shell_0000001410   
      1410  17  1.492897E-04  8.999999E+00 -2.668289E-07  1.659737E-06  4.186136E-15 -4.331375E-14 _shell_0000001410   
      1410  18  1.610756E-04  8.999997E+00 -1.148808E-06  3.268043E-06 -7.816611E-15 -6.475421E-14 _shell_0000001410   
      1410  19  1.315099E-04  9.000001E+00 -1.827585E-07  1.036888E-05 -9.163441E-08  9.835423E-08 _shell_0000001410   
      1410  20  1.414523E-04  9.000003E+00  7.983520E-07  1.248171E-05  3.388194E-07 -7.412674E-07 _shell_0000001410   
      1410  21  1.509754E-04  9.000004E+00  1.085577E-06  1.598496E-05  7.692732E-07 -1.567667E-06 _shell_0000001410   
      1410  22  1.348473E-04  9.000001E+00 -9.785677E-08  6.203302E-06 -2.782965E-08  2.646058E-08 _shell_0000001410   
      1410  23  1.463448E-04  9.000002E+00  7.813817E-07  7.228213E-06  3.471662E-08 -2.535378E-07 _shell_0000001410   
      1410  24  1.574362E-04  9.000002E+00  9.975851E-07  9.643548E-06  9.726290E-08 -5.203144E-07 _shell_0000001410   
      1410  25  1.365661E-04  9.000000E+00 -4.001802E-07  1.811658E-06 -2.150710E-08 -4.543310E-08 _shell_0000001410   
      1410  26  1.495038E-04  9.000000E+00  1.089359E-07  1.748652E-06 -3.268684E-07  2.341919E-07 _shell_0000001410   
      1410  27  1.620486E-04  9.000000E+00 -1.413247E-08  3.076069E-06 -6.322296E-07  5.270385E-07 _shell_0000001410   
      1411   1  1.560181E-04  9.000002E+00 -4.515937E-07  1.927351E-05  1.763286E-07  6.612388E-07 _shell_0000001411   
      1411   2  1.681234E-04  8.999997E+00 -3.292017E-06  2.220374E-05  1.623354E-06 -2.942076E-06 _shell_0000001411   
      1411   3  1.806651E-04  8.999992E+00 -5.085829E-06  2.744256E-05  3.070380E-06 -6.034956E-06 _shell_0000001411   
      1411   4  1.660264E-04  9.000002E+00  5.758336E-07  1.120961E-05  6.592200E-07  8.674382E-08 _shell_0000001411   
      1411   5  1.819099E-04  8.999999E+00 -1.937649E-06  1.265282E-05  6.125144E-07 -1.331975E-06 _shell_0000001411   
      1411   6  1.977193E-04  8.999995E+00 -4.595536E-06  1.640462E-05  5.658089E-07 -2.240259E-06 _shell_0000001411   
      1411   7  1.734878E-04  9.000000E+00  5.933792E-07  3.344082E-06  8.922983E-07 -4.877512E-07 _shell_0000001411   
      1411   8  1.936491E-04  9.000000E+00 -4.273681E-07  3.300273E-06 -6.481383E-07  2.781258E-07 _shell_0000001411   
      1411   9  2.132258E-04  8.999999E+00 -2.783536E-06  5.565046E-06 -2.188575E-06  1.554438E-06 _shell_0000001411   
      1411  10  1.576196E-04  9.000002E+00 -1.069843E-07  1.764373E-05 -1.140907E-14  5.497579E-15 _shell_0000001411   
      1411  11  1.727447E-04  9.000003E+00  7.234224E-08  1.926225E-05 -2.630803E-14 -7.162188E-15 _shell_0000001411   
      1411  12  1.883061E-04  9.000005E+00  1.298280E-06  2.318936E-05 -6.773153E-15 -1.910953E-13 _shell_0000001411   
      1411  13  1.653325E-04  9.000000E+00 -6.334075E-08  1.058641E-05 -8.310678E-15 -9.773438E-15 _shell_0000001411   
      1411  14  1.842357E-04  9.000004E+00  4.429266E-07  1.071791E-05 -4.072315E-15 -7.828705E-15 _shell_0000001411   
      1411  15  2.030648E-04  9.000008E+00  8.047887E-07  1.315800E-05  2.325122E-15 -2.210762E-13 _shell_0000001411   
      1411  16  1.704983E-04  8.999998E+00 -1.029579E-06  3.727469E-06  6.005192E-18 -1.843715E-14 _shell_0000001411   
      1411  17  1.936793E-04  9.000004E+00  9.694237E-07  2.371948E-06  2.169088E-14 -5.034369E-15 _shell_0000001411   
      1411  18  2.162758E-04  9.000010E+00  1.633005E-06  3.325009E-06  2.825183E-15 -2.730001E-13 _shell_0000001411   
      1411  19  1.560181E-04  9.000002E+00 -4.515938E-07  1.927351E-05 -1.763286E-07 -6.612388E-07 _shell_0000001411   
      1411  20  1.681234E-04  8.999997E+00 -3.292017E-06  2.220374E-05 -1.623354E-06  2.942076E-06 _shell_0000001411   
      1411  21  1.806651E-04  8.999992E+00 -5.085829E-06  2.744256E-05 -3.070380E-06  6.034955E-06 _shell_0000001411   
      1411  22  1.660264E-04  9.000002E+00  5.758335E-07  1.120961E-05 -6.592200E-07 -8.674382E-08 _shell_0000001411   
      1411  23  1.819099E-04  8.999999E+00 -1.937649E-06  1.265282E-05 -6.125144E-07  1.331975E-06 _shell_0000001411   
      1411  24  1.977193E-04  8.999995E+00 -4.595537E-06  1.640462E-05 -5.658088E-07  2.240258E-06 _shell_0000001411   
      1411  25  1.734878E-04  9.000000E+00  5.933793E-07  3.344083E-06 -8.922983E-07  4.877511E-07 _shell_0000001411   
      1411  26  1.936491E-04  9.000000E+00 -4.273681E-07  3.300273E-06  6.481383E-07 -2.781258E-07 _shell_0000001411   
      1411  27  2.132258E-04  8.999999E+00 -2.783537E-06  5.565046E-06  2.188575E-06 -1.554438E-06 _shell_0000001411   
      1412   1  1.992624E-04  8.999999E+00  1.629558E-06  2.700614E-05  1.104584E-07 -2.585381E-06 _shell_0000001412   
      1412   2  2.244312E-04  9.000020E+00  1.286281E-05  2.375623E-05 -7.818270E-06  1.213107E-05 _shell_0000001412   
      1412   3  2.494371E-04  9.000043E+00  2.115262E-05  2.686918E-05 -1.574700E-05  2.700031E-05 _shell_0000001412   
      1412   4  2.136056E-04  8.999999E+00 -6.927161E-07  1.750999E-05 -1.854194E-06 -6.360215E-07 _shell_0000001412   
      1412   5  2.444285E-04  9.000011E+00  9.995297E-06  1.433637E-05 -2.971992E-06  5.554350E-06 _shell_0000001412   
      1412   6  2.749356E-04  9.000026E+00  1.738337E-05  1.752559E-05 -4.089789E-06  1.189751E-05 _shell_0000001412   
      1412   7  2.276065E-04  8.999998E+00 -1.931961E-06  6.145962E-06 -2.887716E-06  1.313338E-06 _shell_0000001412   
      1412   8  2.622211E-04  9.000001E+00  3.865539E-06  3.048608E-06  2.805417E-06 -1.022372E-06 _shell_0000001412   
      1412   9  2.963672E-04  9.000005E+00  6.006597E-06  6.314107E-06  8.498551E-06 -3.205295E-06 _shell_0000001412   
      1412  10  1.904068E-04  9.000001E+00 -4.975181E-07  3.152116E-05  1.109023E-14 -1.848812E-13 _shell_0000001412   
      1412  11  2.038887E-04  8.999995E+00 -9.511557E-07  3.332216E-05  1.348044E-14 -4.006244E-15 _shell_0000001412   
      1412  12  2.172077E-04  8.999991E+00 -4.348228E-06  4.148601E-05  1.407111E-14 -4.288996E-14 _shell_0000001412   
      1412  13  2.135891E-04  9.000004E+00  9.683854E-07  1.812939E-05  3.803126E-16 -2.117581E-13 _shell_0000001412   
      1412  14  2.327250E-04  8.999989E+00 -3.048757E-08  2.000667E-05 -1.018080E-14 -1.211243E-15 _shell_0000001412   
      1412  15  2.515453E-04  8.999977E+00 -4.329299E-06  2.824679E-05 -2.299669E-15 -4.864088E-14 _shell_0000001412   
      1412  16  2.364291E-04  9.000007E+00  3.517318E-06  2.869730E-06 -2.514631E-14 -2.668459E-13 _shell_0000001412   
      1412  17  2.593568E-04  8.999983E+00 -2.372068E-06  4.823279E-06 -3.914771E-14 -2.591036E-15 _shell_0000001412   
      1412  18  2.818160E-04  8.999960E+00 -1.191790E-05  1.313968E-05 -1.512732E-14 -6.933549E-14 _shell_0000001412   
      1412  19  1.992624E-04  8.999999E+00  1.629558E-06  2.700614E-05 -1.104584E-07  2.585381E-06 _shell_0000001412   
      1412  20  2.244312E-04  9.000020E+00  1.286281E-05  2.375623E-05  7.818270E-06 -1.213107E-05 _shell_0000001412   
      1412  21  2.494371E-04  9.000043E+00  2.115262E-05  2.686918E-05  1.574700E-05 -2.700031E-05 _shell_0000001412   
      1412  22  2.136056E-04  8.999999E+00 -6.927163E-07  1.750999E-05  1.854194E-06  6.360211E-07 _shell_0000001412   
      1412  23  2.444285E-04  9.000011E+00  9.995297E-06  1.433637E-05  2.971992E-06 -5.554350E-06 _shell_0000001412   
      1412  24  2.749356E-04  9.000026E+00  1.738337E-05  1.752559E-05  4.089789E-06 -1.189751E-05 _shell_0000001412   
      1412  25  2.276065E-04  8.999998E+00 -1.931961E-06  6.145962E-06  2.887716E-06 -1.313339E-06 _shell_0000001412   
      1412  26  2.622211E-04  9.000001E+00  3.865539E-06  3.048608E-06 -2.805418E-06  1.022372E-06 _shell_0000001412   
      1412  27  2.963672E-04  9.000005E+00  6.006597E-06  6.314106E-06 -8.498551E-06  3.205295E-06 _shell_0000001412   
      1413   1  2.222965E-04  9.000006E+00 -1.174195E-05  4.910301E-05  1.552351E-06  1.002089E-05 _shell_0000001413   
      1413   2  1.880185E-04  8.999918E+00 -5.961150E-05  4.228943E-05  3.445608E-05 -5.315908E-05 _shell_0000001413   
      1413   3  1.950012E-04  8.999895E+00 -3.463284E-05  4.208384E-05  6.735981E-05 -1.006341E-04 _shell_0000001413   
      1413   4  2.813647E-04  9.000008E+00  1.526456E-06  2.562025E-05  6.656564E-06  2.121721E-06 _shell_0000001413   
      1413   5  2.655176E-04  8.999953E+00 -4.519757E-05  2.636458E-05  1.807458E-05 -2.777694E-05 _shell_0000001413   
      1413   6  2.752263E-04  8.999946E+00 -5.571837E-05  3.371689E-05  2.949259E-05 -4.197060E-05 _shell_0000001413   
      1413   7  3.412100E-04  9.000010E+00  1.093758E-05  7.095839E-06  9.319343E-06 -5.777447E-06 _shell_0000001413   
      1413   8  3.486768E-04  8.999991E+00 -2.324756E-05  1.539807E-05 -7.483606E-07 -2.394794E-06 _shell_0000001413   
      1413   9  3.659942E-04  9.000005E+00 -5.787446E-05  3.030829E-05 -1.081606E-05  1.669286E-05 _shell_0000001413   
      1413  10  2.696681E-04  9.000004E+00  2.067896E-06  2.526177E-05  1.424622E-14 -6.535988E-14 _shell_0000001413   
      1413  11  2.783248E-04  9.000017E+00 -2.866956E-06 -3.555466E-06  2.254731E-14  2.305780E-15 _shell_0000001413   
      1413  12  3.282422E-04  9.000094E+00  6.504641E-05 -2.576472E-05  1.969669E-14  3.076720E-14 _shell_0000001413   
      1413  13  2.902299E-04  8.999991E+00 -1.166448E-06  1.609058E-05  3.447924E-15 -8.633199E-14 _shell_0000001413   
      1413  14  3.173175E-04  9.000035E+00 -4.955769E-06 -5.168755E-06 -1.006352E-15 -7.787391E-15 _shell_0000001413   
      1413  15  3.699609E-04  9.000128E+00  2.745813E-05 -1.982010E-05  1.222716E-14  3.099577E-14 _shell_0000001413   
      1413  16  3.115688E-04  8.999976E+00 -8.258072E-06  1.187774E-05 -9.023483E-15 -1.165788E-13 _shell_0000001413   
      1413  17  3.619703E-04  9.000057E+00  4.914998E-07 -1.823691E-06 -2.133744E-14 -2.906094E-14 _shell_0000001413   
      1413  18  4.222224E-04  9.000171E+00  8.799302E-06 -8.917133E-06  8.285243E-15  4.652609E-15 _shell_0000001413   
      1413  19  2.222965E-04  9.000006E+00 -1.174195E-05  4.910301E-05 -1.552351E-06 -1.002089E-05 _shell_0000001413   
      1413  20  1.880185E-04  8.999918E+00 -5.961150E-05  4.228943E-05 -3.445608E-05  5.315908E-05 _shell_0000001413   
      1413  21  1.950012E-04  8.999895E+00 -3.463284E-05  4.208384E-05 -6.735981E-05  1.006341E-04 _shell_0000001413   
      1413  22  2.813647E-04  9.000008E+00  1.526455E-06  2.562025E-05 -6.656564E-06 -2.121721E-06 _shell_0000001413   
      1413  23  2.655176E-04  8.999953E+00 -4.519757E-05  2.636458E-05 -1.807458E-05  2.777694E-05 _shell_0000001413   
      1413  24  2.752263E-04  8.999946E+00 -5.571837E-05  3.371689E-05 -2.949259E-05  4.197060E-05 _shell_0000001413   
      1413  25  3.412100E-04  9.000010E+00  1.093758E-05  7.095839E-06 -9.319343E-06  5.777447E-06 _shell_0000001413   
      1413  26  3.486768E-04  8.999991E+00 -2.324756E-05  1.539807E-05  7.483606E-07  2.394794E-06 _shell_0000001413   
      1413  27  3.659942E-04  9.000005E+00 -5.787446E-05  3.030829E-05  1.081606E-05 -1.669286E-05 _shell_0000001413   
      1414   1  3.189238E-04  8.999885E+00  3.102242E-05 -1.207971E-05  2.398662E-05 -4.539363E-05 _shell_0000001414   
      1414   2  5.185199E-04  9.000045E+00  1.889979E-04 -2.401439E-04 -1.678785E-04  2.023793E-04 _shell_0000001414   
      1414   3  9.571080E-04  9.000764E+00  5.840490E-04 -6.477186E-04 -3.597437E-04  4.820692E-04 _shell_0000001414   
      1414   4  3.648416E-04  8.999929E+00  1.200994E-05 -3.863446E-05 -3.074261E-05 -1.386661E-05 _shell_0000001414   
      1414   5  2.834236E-04  8.999976E+00  1.239368E-04 -1.455641E-04 -8.213522E-05  1.073709E-04 _shell_0000001414   
      1414   6  4.090807E-04  9.000550E+00  3.984666E-04 -4.320041E-04 -1.335278E-04  2.605253E-04 _shell_0000001414   
      1414   7  4.877130E-04  9.000009E+00  3.591700E-05 -6.800994E-05 -7.899670E-05  1.766041E-05 _shell_0000001414   
      1414   8  1.123305E-04  8.999930E+00  7.157793E-05 -5.380493E-05  1.008321E-05  1.236248E-05 _shell_0000001414   
      1414   9 -8.789372E-05  9.000347E+00  1.953690E-04 -2.191104E-04  9.916313E-05  3.898143E-05 _shell_0000001414   
      1414  10  1.074960E-04  8.999874E+00 -3.596753E-05  7.939430E-05  1.819047E-14  3.156086E-14 _shell_0000001414   
      1414  11  1.501707E-04  8.999667E+00 -3.491347E-05 -5.528435E-05  6.216277E-15  1.034883E-14 _shell_0000001414   
      1414  12  4.318373E-04  9.000020E+00  2.032162E-04 -3.694734E-04  1.873723E-15 -6.546554E-14 _shell_0000001414   
      1414  13  3.168386E-04  8.999987E+00  1.505916E-05  5.324009E-07  1.534738E-14  3.584581E-14 _shell_0000001414   
      1414  14  7.849914E-05  8.999668E+00 -2.993541E-05 -1.301164E-05  2.096001E-14 -4.520518E-15 _shell_0000001414   
      1414  15  4.723473E-05  8.999876E+00  8.767287E-05 -2.060661E-04  1.235306E-14 -6.406910E-14 _shell_0000001414   
      1414  16  6.031347E-04  9.000137E+00  1.090054E-04 -8.115023E-05  3.205706E-14 -7.232904E-16 _shell_0000001414   
      1414  17  7.083078E-05  8.999692E+00 -1.225513E-05  2.644034E-05  4.353147E-14 -1.755623E-14 _shell_0000001414   
      1414  18 -2.863149E-04  8.999743E+00 -4.538554E-05 -4.547952E-05  3.427693E-15 -3.958282E-14 _shell_0000001414   
      1414  19  3.189238E-04  8.999885E+00  3.102242E-05 -1.207971E-05 -2.398662E-05  4.539363E-05 _shell_0000001414   
      1414  20  5.185199E-04  9.000045E+00  1.889979E-04 -2.401439E-04  1.678785E-04 -2.023793E-04 _shell_0000001414   
      1414  21  9.571080E-04  9.000764E+00  5.840490E-04 -6.477186E-04  3.597437E-04 -4.820692E-04 _shell_0000001414   
      1414  22  3.648416E-04  8.999929E+00  1.200994E-05 -3.863446E-05  3.074261E-05  1.386661E-05 _shell_0000001414   
      1414  23  2.834236E-04  8.999976E+00  1.239368E-04 -1.455641E-04  8.213522E-05 -1.073709E-04 _shell_0000001414   
      1414  24  4.090807E-04  9.000550E+00  3.984666E-04 -4.320041E-04  1.335278E-04 -2.605253E-04 _shell_0000001414   
      1414  25  4.877130E-04  9.000009E+00  3.591700E-05 -6.800994E-05  7.899670E-05 -1.766041E-05 _shell_0000001414   
      1414  26  1.123305E-04  8.999930E+00  7.157793E-05 -5.380493E-05 -1.008321E-05 -1.236248E-05 _shell_0000001414   
      1414  27 -8.789372E-05  9.000347E+00  1.953690E-04 -2.191104E-04 -9.916313E-05 -3.898143E-05 _shell_0000001414   
      1415   1 -1.138208E-04  9.000347E+00  1.347379E-04  1.218034E-04 -3.248564E-04  4.641705E-04 _shell_0000001415   
      1415   2 -2.684087E-04  8.999861E+00 -1.002756E-04  8.548596E-05 -1.169241E-04  1.301013E-04 _shell_0000001415   
      1415   3 -2.005900E-04  8.999879E+00 -9.737010E-05  7.737005E-05  9.100821E-05 -1.610064E-04 _shell_0000001415   
      1415   4  4.746689E-05  9.000434E+00  2.569564E-04  9.189606E-05 -1.139523E-04  2.477583E-04 _shell_0000001415   
      1415   5 -6.582757E-05  8.999960E+00  2.555789E-05  4.840023E-05 -2.617799E-05  5.785931E-05 _shell_0000001415   
      1415   6  3.229295E-07  8.999947E+00 -6.816545E-05  3.310595E-05  6.159632E-05 -8.907803E-05 _shell_0000001415   
      1415   7  5.340612E-05  9.000442E+00  2.748146E-04  6.167150E-05  8.902214E-05  3.134601E-05 _shell_0000001415   
      1415   8 -2.735661E-06  8.999996E+00  8.403586E-05  1.099730E-05  5.663847E-05 -1.438265E-05 _shell_0000001415   
      1415   9  7.760591E-05  8.999968E+00 -6.931137E-05 -1.147534E-05  2.425481E-05 -1.714971E-05 _shell_0000001415   
      1415  10 -9.905372E-05  8.999847E+00 -1.080716E-05  1.544564E-04 -6.336920E-15 -7.248644E-14 _shell_0000001415   
      1415  11 -7.360837E-05  8.999782E+00 -6.578739E-05  1.190987E-05 -1.354638E-14 -1.011454E-14 _shell_0000001415   
      1415  12  1.742435E-04  9.000220E+00  1.171513E-04 -1.024351E-04 -1.523646E-14  4.501105E-15 _shell_0000001415   
      1415  13 -1.236669E-04  8.999854E+00  3.173961E-05  1.845601E-04 -2.877082E-15 -6.026980E-14 _shell_0000001415   
      1415  14 -5.692817E-05  8.999800E+00 -1.962571E-05  3.483522E-05 -2.524813E-14 -1.917053E-14 _shell_0000001415   
      1415  15  1.892556E-04  9.000207E+00  6.668419E-05 -8.668815E-05 -1.912644E-14 -1.175638E-14 _shell_0000001415   
      1415  16 -3.036286E-04  8.999783E+00 -3.007408E-05  2.143466E-04 -2.365079E-14 -3.492982E-14 _shell_0000001415   
      1415  17 -1.797372E-04  8.999757E+00 -4.081955E-05  5.744337E-05 -3.522516E-14 -1.144819E-14 _shell_0000001415   
      1415  18  8.063764E-05  9.000149E+00 -1.413355E-05 -7.125836E-05 -1.068895E-14 -3.461942E-14 _shell_0000001415   
      1415  19 -1.138208E-04  9.000347E+00  1.347379E-04  1.218034E-04  3.248564E-04 -4.641705E-04 _shell_0000001415   
      1415  20 -2.684087E-04  8.999861E+00 -1.002756E-04  8.548596E-05  1.169241E-04 -1.301013E-04 _shell_0000001415   
      1415  21 -2.005900E-04  8.999879E+00 -9.737010E-05  7.737005E-05 -9.100821E-05  1.610064E-04 _shell_0000001415   
      1415  22  4.746689E-05  9.000434E+00  2.569564E-04  9.189606E-05  1.139523E-04 -2.477583E-04 _shell_0000001415   
      1415  23 -6.582757E-05  8.999960E+00  2.555789E-05  4.840023E-05  2.617799E-05 -5.785931E-05 _shell_0000001415   
      1415  24  3.229296E-07  8.999947E+00 -6.816545E-05  3.310595E-05 -6.159632E-05  8.907803E-05 _shell_0000001415   
      1415  25  5.340612E-05  9.000442E+00  2.748146E-04  6.167150E-05 -8.902214E-05 -3.134601E-05 _shell_0000001415   
      1415  26 -2.735661E-06  8.999996E+00  8.403586E-05  1.099730E-05 -5.663847E-05  1.438265E-05 _shell_0000001415   
      1415  27  7.760591E-05  8.999968E+00 -6.931137E-05 -1.147534E-05 -2.425481E-05  1.714970E-05 _shell_0000001415   
