
                        S T E P       1


                                INCREMENT     1


 displacements (vx,vy,vz) for set NALL and time  0.1000000E+01

         1  1.191726E-01  3.000000E+05  2.730000E+02
         2  1.191726E-01  0.000000E+00  0.000000E+00
         3  1.191726E-01  2.900000E+05  2.730000E+02
         4  1.494636E-06  0.000000E+00  0.000000E+00
         5  1.494485E-06 -1.972790E-06  0.000000E+00
         6  1.494636E-06 -3.945580E-06  0.000000E+00
         7  1.468248E-06 -3.945579E-06  0.000000E+00
         8  1.446635E-06 -3.945580E-06  0.000000E+00
         9  1.446489E-06 -1.972790E-06  0.000000E+00
        10  1.446635E-06 -1.573859E-13  0.000000E+00
        11  1.468248E-06 -1.039510E-12  0.000000E+00
        12  1.191726E-01  0.000000E+00  0.000000E+00
        13  1.191726E-01  0.000000E+00  0.000000E+00

 stresses (elem, integ.pnt.,sxx,syy,szz,sxy,sxz,syz) for set WALL and time  0.1000000E+01

         1   1 -2.473269E+05  2.180824E+03  3.016501E+06 -1.937890E+01  4.414379E+04  2.619949E-01
         1   2 -1.401163E+05 -2.581914E+03  2.893414E+06 -7.617103E-01  4.104322E+04  1.029778E-02
         1   3 -2.360028E+04  1.958931E+03  2.792035E+06  1.785548E+01  3.808246E+04 -2.413993E-01
         1   4 -2.473273E+05  2.181019E+03  3.016503E+06 -1.918163E-08  4.414380E+04  5.565040E-13
         1   5 -1.401168E+05 -2.581760E+03  2.893415E+06  4.352853E-09  4.104324E+04 -4.378459E-08
         1   6 -2.360078E+04  1.959047E+03  2.792036E+06 -2.201013E-09  3.808247E+04 -1.751389E-08
         1   7 -2.473269E+05  2.180824E+03  3.016501E+06  1.937890E+01  4.414379E+04 -2.619948E-01
         1   8 -1.401163E+05 -2.581914E+03  2.893414E+06  7.617103E-01  4.104322E+04 -1.029780E-02
         1   9 -2.360028E+04  1.958931E+03  2.792035E+06 -1.785548E+01  3.808246E+04  2.413993E-01
         1  10 -2.479061E+05  2.188306E+03  3.017106E+06 -1.938070E+01  2.180703E-09 -2.189789E-09
         1  11 -1.406720E+05 -2.582385E+03  2.893968E+06 -7.618002E-01 -1.094627E-09  1.094627E-09
         1  12 -2.413336E+04  1.951071E+03  2.792542E+06  1.785709E+01 -1.992564E-09  1.094293E-09
         1  13 -2.479065E+05  2.188501E+03  3.017107E+06 -1.754824E-08  4.395612E-09 -8.757018E-09
         1  14 -1.406724E+05 -2.582232E+03  2.893969E+06  4.344302E-09  8.757018E-09 -4.378705E-09
         1  15 -2.413386E+04  1.951187E+03  2.792543E+06 -4.372095E-09 -8.261015E-09  5.473220E-09
         1  16 -2.479061E+05  2.188306E+03  3.017106E+06  1.938070E+01  2.180703E-09 -6.567763E-09
         1  17 -1.406720E+05 -2.582385E+03  2.893968E+06  7.618002E-01  1.094627E-09 -3.283347E-09
         1  18 -2.413336E+04  1.951071E+03  2.792542E+06 -1.785709E+01 -1.907046E-09  6.021184E-09
         1  19 -2.473269E+05  2.180824E+03  3.016501E+06 -1.937890E+01 -4.414379E+04 -2.619949E-01
         1  20 -1.401163E+05 -2.581914E+03  2.893414E+06 -7.617103E-01 -4.104322E+04 -1.029779E-02
         1  21 -2.360028E+04  1.958931E+03  2.792035E+06  1.785548E+01 -3.808246E+04  2.413993E-01
         1  22 -2.473273E+05  2.181019E+03  3.016503E+06 -1.589775E-08 -4.414380E+04 -5.722802E-13
         1  23 -1.401168E+05 -2.581760E+03  2.893415E+06  4.361405E-09 -4.104324E+04 -8.757552E-09
         1  24 -2.360078E+04  1.959047E+03  2.792036E+06  6.556004E-09 -3.808247E+04  1.751393E-08
         1  25 -2.473269E+05  2.180824E+03  3.016501E+06  1.937890E+01 -4.414379E+04  2.619948E-01
         1  26 -1.401163E+05 -2.581914E+03  2.893414E+06  7.617103E-01 -4.104322E+04  1.029780E-02
         1  27 -2.360028E+04  1.958931E+03  2.792035E+06 -1.785548E+01 -3.808246E+04 -2.413993E-01
