    1C
    1UUSER                                                              
    1UDATE              27.june.2025                                    
    1UTIME              16:38:19                                        
    1UHOST                                                              
    1UPGM               CalculiX                                        
    1UVERSION           Version DEVELOPMENT                             
    1UCOMPILETIME       Thu Jun 19 12:45:50 CEST 2025                    
    1UDIR                                                               
    1UDBN                                                               
    1UMAT    1EL                                                        
    2C                           288                                     1
 -1       122 1.36359E+02 4.44903E+01-2.38016E+00
 -1       123 1.36380E+02 4.44903E+01 8.35085E-15
 -1       124 1.36359E+02 4.44903E+01 2.38016E+00
 -1       125 1.36359E+02 4.19903E+01-2.38016E+00
 -1       127 1.36359E+02 4.19903E+01 2.38016E+00
 -1       128 1.36359E+02 3.94903E+01-2.38016E+00
 -1       129 1.36380E+02 3.94903E+01 8.35085E-15
 -1       130 1.36359E+02 3.94903E+01 2.38016E+00
 -1       131 1.36359E+02 3.69903E+01-2.38016E+00
 -1       133 1.36359E+02 3.69903E+01 2.38016E+00
 -1       134 1.36359E+02 3.44903E+01-2.38015E+00
 -1       135 1.36380E+02 3.44903E+01 8.35085E-15
 -1       136 1.36359E+02 3.44903E+01 2.38015E+00
 -1       137 1.36359E+02 3.19903E+01-2.38015E+00
 -1       139 1.36359E+02 3.19903E+01 2.38015E+00
 -1       140 1.36359E+02 2.94903E+01-2.38015E+00
 -1       141 1.36380E+02 2.94903E+01 8.35085E-15
 -1       142 1.36359E+02 2.94903E+01 2.38015E+00
 -1       143 1.26361E+02 4.44903E+01-2.20563E+00
 -1       144 1.26380E+02 4.44903E+01 7.73853E-15
 -1       145 1.26361E+02 4.44903E+01 2.20563E+00
 -1       146 1.26361E+02 4.19903E+01-2.20563E+00
 -1       148 1.26361E+02 4.19903E+01 2.20563E+00
 -1       149 1.26361E+02 3.94903E+01-2.20563E+00
 -1       150 1.26380E+02 3.94903E+01 7.73853E-15
 -1       151 1.26361E+02 3.94903E+01 2.20563E+00
 -1       152 1.26361E+02 3.69903E+01-2.20563E+00
 -1       154 1.26361E+02 3.69903E+01 2.20563E+00
 -1       155 1.26361E+02 3.44903E+01-2.20563E+00
 -1       156 1.26380E+02 3.44903E+01 7.73853E-15
 -1       157 1.26361E+02 3.44903E+01 2.20563E+00
 -1       158 1.26361E+02 3.19903E+01-2.20563E+00
 -1       160 1.26361E+02 3.19903E+01 2.20563E+00
 -1       161 1.26361E+02 2.94903E+01-2.20563E+00
 -1       162 1.26380E+02 2.94903E+01 7.73853E-15
 -1       163 1.26361E+02 2.94903E+01 2.20563E+00
 -1       164 1.28860E+02 2.94903E+01-2.24926E+00
 -1       166 1.28860E+02 2.94903E+01 2.24926E+00
 -1       167 1.31360E+02 2.94903E+01-2.29289E+00
 -1       168 1.31380E+02 2.94903E+01 8.04469E-15
 -1       169 1.31360E+02 2.94903E+01 2.29289E+00
 -1       170 1.33859E+02 2.94903E+01-2.33652E+00
 -1       172 1.33859E+02 2.94903E+01 2.33652E+00
 -1       173 1.33859E+02 4.44903E+01-2.33652E+00
 -1       175 1.33859E+02 4.44903E+01 2.33652E+00
 -1       176 1.31360E+02 4.44903E+01-2.29289E+00
 -1       177 1.31380E+02 4.44903E+01 8.04469E-15
 -1       178 1.31360E+02 4.44903E+01 2.29289E+00
 -1       179 1.28860E+02 4.44903E+01-2.24926E+00
 -1       181 1.28860E+02 4.44903E+01 2.24926E+00
 -1       182 1.33859E+02 3.44903E+01-2.33652E+00
 -1       184 1.33859E+02 3.44903E+01 2.33652E+00
 -1       185 1.31360E+02 3.44903E+01-2.29289E+00
 -1       186 1.31380E+02 3.44903E+01 8.04469E-15
 -1       187 1.31360E+02 3.44903E+01 2.29289E+00
 -1       188 1.28860E+02 3.44903E+01-2.24926E+00
 -1       190 1.28860E+02 3.44903E+01 2.24926E+00
 -1       191 1.31360E+02 3.19903E+01-2.29289E+00
 -1       193 1.31360E+02 3.19903E+01 2.29289E+00
 -1       194 1.31360E+02 4.19903E+01-2.29289E+00
 -1       196 1.31360E+02 4.19903E+01 2.29289E+00
 -1       197 1.31360E+02 3.94903E+01-2.29289E+00
 -1       198 1.31380E+02 3.94903E+01 8.04469E-15
 -1       199 1.31360E+02 3.94903E+01 2.29289E+00
 -1       200 1.31360E+02 3.69903E+01-2.29289E+00
 -1       202 1.31360E+02 3.69903E+01 2.29289E+00
 -1       203 1.33859E+02 3.94903E+01-2.33652E+00
 -1       205 1.33859E+02 3.94903E+01 2.33652E+00
 -1       206 1.28860E+02 3.94903E+01-2.24926E+00
 -1       208 1.28860E+02 3.94903E+01 2.24926E+00
 -1       209 1.41358E+02 6.07976E+01-2.46742E+00
 -1       210 1.41380E+02 6.07976E+01 8.65701E-15
 -1       211 1.41358E+02 6.07976E+01 2.46742E+00
 -1       212 1.40108E+02 6.07976E+01-2.44560E+00
 -1       214 1.40108E+02 6.07976E+01 2.44560E+00
 -1       215 1.38859E+02 6.07976E+01-2.42379E+00
 -1       216 1.38880E+02 6.07976E+01 8.50393E-15
 -1       217 1.38859E+02 6.07976E+01 2.42379E+00
 -1       218 1.37609E+02 6.07976E+01-2.40197E+00
 -1       220 1.37609E+02 6.07976E+01 2.40197E+00
 -1       221 1.36359E+02 6.07976E+01-2.38016E+00
 -1       222 1.36380E+02 6.07976E+01 8.35085E-15
 -1       223 1.36359E+02 6.07976E+01 2.38016E+00
 -1       224 1.36359E+02 5.67207E+01-2.38016E+00
 -1       226 1.36359E+02 5.67207E+01 2.38016E+00
 -1       227 1.36359E+02 5.26439E+01-2.38016E+00
 -1       228 1.36380E+02 5.26439E+01 8.35085E-15
 -1       229 1.36359E+02 5.26439E+01 2.38016E+00
 -1       230 1.36359E+02 4.85671E+01-2.38016E+00
 -1       232 1.36359E+02 4.85671E+01 2.38016E+00
 -1       233 1.36359E+02 2.71537E+01-2.38015E+00
 -1       235 1.36359E+02 2.71537E+01 2.38015E+00
 -1       236 1.36359E+02 2.48171E+01-2.38015E+00
 -1       237 1.36380E+02 2.48171E+01 8.35085E-15
 -1       238 1.36359E+02 2.48171E+01 2.38015E+00
 -1       239 1.36359E+02 2.24805E+01-2.38015E+00
 -1       241 1.36359E+02 2.24805E+01 2.38015E+00
 -1       242 1.36359E+02 2.01439E+01-2.38015E+00
 -1       243 1.36380E+02 2.01439E+01 8.35085E-15
 -1       244 1.36359E+02 2.01439E+01 2.38015E+00
 -1       245 1.36359E+02 1.78073E+01-2.38015E+00
 -1       247 1.36359E+02 1.78073E+01 2.38015E+00
 -1       248 1.36359E+02 1.54707E+01-2.38015E+00
 -1       249 1.36380E+02 1.54707E+01 8.35085E-15
 -1       250 1.36359E+02 1.54707E+01 2.38015E+00
 -1       251 1.36359E+02 1.31342E+01-2.38015E+00
 -1       253 1.36359E+02 1.31342E+01 2.38015E+00
 -1       254 1.36359E+02 1.07976E+01-2.38015E+00
 -1       255 1.36380E+02 1.07976E+01 8.35085E-15
 -1       256 1.36359E+02 1.07976E+01 2.38015E+00
 -1       257 1.37609E+02 1.07976E+01-2.40197E+00
 -1       259 1.37609E+02 1.07976E+01 2.40197E+00
 -1       260 1.38859E+02 1.07976E+01-2.42379E+00
 -1       261 1.38880E+02 1.07976E+01 8.50393E-15
 -1       262 1.38859E+02 1.07976E+01 2.42379E+00
 -1       263 1.40108E+02 1.07976E+01-2.44560E+00
 -1       265 1.40108E+02 1.07976E+01 2.44560E+00
 -1       266 1.41358E+02 1.07976E+01-2.46742E+00
 -1       267 1.41380E+02 1.07976E+01 8.65701E-15
 -1       268 1.41358E+02 1.07976E+01 2.46742E+00
 -1       269 1.41358E+02 1.31342E+01-2.46742E+00
 -1       271 1.41358E+02 1.31342E+01 2.46742E+00
 -1       272 1.41358E+02 1.54707E+01-2.46742E+00
 -1       273 1.41380E+02 1.54707E+01 8.65701E-15
 -1       274 1.41358E+02 1.54707E+01 2.46742E+00
 -1       275 1.41358E+02 1.78073E+01-2.46742E+00
 -1       277 1.41358E+02 1.78073E+01 2.46742E+00
 -1       278 1.41358E+02 2.01439E+01-2.46742E+00
 -1       279 1.41380E+02 2.01439E+01 8.65701E-15
 -1       280 1.41358E+02 2.01439E+01 2.46742E+00
 -1       281 1.41358E+02 2.24805E+01-2.46742E+00
 -1       283 1.41358E+02 2.24805E+01 2.46742E+00
 -1       284 1.41358E+02 2.48171E+01-2.46742E+00
 -1       285 1.41380E+02 2.48171E+01 8.65701E-15
 -1       286 1.41358E+02 2.48171E+01 2.46742E+00
 -1       287 1.41358E+02 2.71537E+01-2.46742E+00
 -1       289 1.41358E+02 2.71537E+01 2.46742E+00
 -1       290 1.41358E+02 2.94903E+01-2.46742E+00
 -1       291 1.41380E+02 2.94903E+01 8.65701E-15
 -1       292 1.41358E+02 2.94903E+01 2.46742E+00
 -1       293 1.41358E+02 3.19903E+01-2.46742E+00
 -1       295 1.41358E+02 3.19903E+01 2.46742E+00
 -1       296 1.41358E+02 3.44903E+01-2.46742E+00
 -1       297 1.41380E+02 3.44903E+01 8.65701E-15
 -1       298 1.41358E+02 3.44903E+01 2.46742E+00
 -1       299 1.41358E+02 3.69903E+01-2.46742E+00
 -1       301 1.41358E+02 3.69903E+01 2.46742E+00
 -1       302 1.41358E+02 3.94903E+01-2.46742E+00
 -1       303 1.41380E+02 3.94903E+01 8.65701E-15
 -1       304 1.41358E+02 3.94903E+01 2.46742E+00
 -1       305 1.41358E+02 4.19903E+01-2.46742E+00
 -1       307 1.41358E+02 4.19903E+01 2.46742E+00
 -1       308 1.41358E+02 4.44903E+01-2.46742E+00
 -1       309 1.41380E+02 4.44903E+01 8.65701E-15
 -1       310 1.41358E+02 4.44903E+01 2.46742E+00
 -1       311 1.41358E+02 4.85671E+01-2.46742E+00
 -1       313 1.41358E+02 4.85671E+01 2.46742E+00
 -1       314 1.41358E+02 5.26439E+01-2.46742E+00
 -1       315 1.41380E+02 5.26439E+01 8.65701E-15
 -1       316 1.41358E+02 5.26439E+01 2.46742E+00
 -1       317 1.41358E+02 5.67207E+01-2.46742E+00
 -1       319 1.41358E+02 5.67207E+01 2.46742E+00
 -1       320 1.37609E+02 3.44903E+01-2.40197E+00
 -1       322 1.37609E+02 3.44903E+01 2.40197E+00
 -1       323 1.38859E+02 3.44903E+01-2.42379E+00
 -1       324 1.38880E+02 3.44903E+01 8.50393E-15
 -1       325 1.38859E+02 3.44903E+01 2.42379E+00
 -1       326 1.40108E+02 3.44903E+01-2.44560E+00
 -1       328 1.40108E+02 3.44903E+01 2.44560E+00
 -1       329 1.37609E+02 4.44903E+01-2.40197E+00
 -1       331 1.37609E+02 4.44903E+01 2.40197E+00
 -1       332 1.38859E+02 4.44903E+01-2.42379E+00
 -1       333 1.38880E+02 4.44903E+01 8.50393E-15
 -1       334 1.38859E+02 4.44903E+01 2.42379E+00
 -1       335 1.40108E+02 4.44903E+01-2.44560E+00
 -1       337 1.40108E+02 4.44903E+01 2.44560E+00
 -1       338 1.37609E+02 5.26439E+01-2.40197E+00
 -1       340 1.37609E+02 5.26439E+01 2.40197E+00
 -1       341 1.38859E+02 5.26439E+01-2.42379E+00
 -1       342 1.38880E+02 5.26439E+01 8.50393E-15
 -1       343 1.38859E+02 5.26439E+01 2.42379E+00
 -1       344 1.40108E+02 5.26439E+01-2.44560E+00
 -1       346 1.40108E+02 5.26439E+01 2.44560E+00
 -1       347 1.38859E+02 5.67207E+01-2.42379E+00
 -1       349 1.38859E+02 5.67207E+01 2.42379E+00
 -1       350 1.38859E+02 4.85671E+01-2.42379E+00
 -1       352 1.38859E+02 4.85671E+01 2.42379E+00
 -1       353 1.37609E+02 3.94903E+01-2.40197E+00
 -1       355 1.37609E+02 3.94903E+01 2.40197E+00
 -1       356 1.38859E+02 3.94903E+01-2.42379E+00
 -1       357 1.38880E+02 3.94903E+01 8.50393E-15
 -1       358 1.38859E+02 3.94903E+01 2.42379E+00
 -1       359 1.40108E+02 3.94903E+01-2.44560E+00
 -1       361 1.40108E+02 3.94903E+01 2.44560E+00
 -1       362 1.38859E+02 4.19903E+01-2.42379E+00
 -1       364 1.38859E+02 4.19903E+01 2.42379E+00
 -1       365 1.38859E+02 3.69903E+01-2.42379E+00
 -1       367 1.38859E+02 3.69903E+01 2.42379E+00
 -1       368 1.37609E+02 2.48171E+01-2.40197E+00
 -1       370 1.37609E+02 2.48171E+01 2.40197E+00
 -1       371 1.38859E+02 2.48171E+01-2.42379E+00
 -1       372 1.38880E+02 2.48171E+01 8.50393E-15
 -1       373 1.38859E+02 2.48171E+01 2.42379E+00
 -1       374 1.40108E+02 2.48171E+01-2.44560E+00
 -1       376 1.40108E+02 2.48171E+01 2.44560E+00
 -1       377 1.37609E+02 2.94903E+01-2.40197E+00
 -1       379 1.37609E+02 2.94903E+01 2.40197E+00
 -1       380 1.38859E+02 2.94903E+01-2.42379E+00
 -1       381 1.38880E+02 2.94903E+01 8.50393E-15
 -1       382 1.38859E+02 2.94903E+01 2.42379E+00
 -1       383 1.40108E+02 2.94903E+01-2.44560E+00
 -1       385 1.40108E+02 2.94903E+01 2.44560E+00
 -1       386 1.38859E+02 3.19903E+01-2.42379E+00
 -1       388 1.38859E+02 3.19903E+01 2.42379E+00
 -1       389 1.38859E+02 2.71537E+01-2.42379E+00
 -1       391 1.38859E+02 2.71537E+01 2.42379E+00
 -1       392 1.37609E+02 2.01439E+01-2.40197E+00
 -1       394 1.37609E+02 2.01439E+01 2.40197E+00
 -1       395 1.38859E+02 2.01439E+01-2.42379E+00
 -1       396 1.38880E+02 2.01439E+01 8.50393E-15
 -1       397 1.38859E+02 2.01439E+01 2.42379E+00
 -1       398 1.40108E+02 2.01439E+01-2.44560E+00
 -1       400 1.40108E+02 2.01439E+01 2.44560E+00
 -1       401 1.38859E+02 2.24805E+01-2.42379E+00
 -1       403 1.38859E+02 2.24805E+01 2.42379E+00
 -1       404 1.37609E+02 1.54707E+01-2.40197E+00
 -1       406 1.37609E+02 1.54707E+01 2.40197E+00
 -1       407 1.38859E+02 1.54707E+01-2.42379E+00
 -1       408 1.38880E+02 1.54707E+01 8.50393E-15
 -1       409 1.38859E+02 1.54707E+01 2.42379E+00
 -1       410 1.40108E+02 1.54707E+01-2.44560E+00
 -1       412 1.40108E+02 1.54707E+01 2.44560E+00
 -1       413 1.38859E+02 1.78073E+01-2.42379E+00
 -1       415 1.38859E+02 1.78073E+01 2.42379E+00
 -1       416 1.38859E+02 1.31342E+01-2.42379E+00
 -1       418 1.38859E+02 1.31342E+01 2.42379E+00
 -1       419 1.51357E+02 2.94903E+01-2.64194E+00
 -1       420 1.51380E+02 2.94903E+01 9.26934E-15
 -1       421 1.51357E+02 2.94903E+01 2.64194E+00
 -1       422 1.51357E+02 3.19903E+01-2.64194E+00
 -1       424 1.51357E+02 3.19903E+01 2.64194E+00
 -1       425 1.51357E+02 3.44903E+01-2.64194E+00
 -1       426 1.51380E+02 3.44903E+01 9.26934E-15
 -1       427 1.51357E+02 3.44903E+01 2.64194E+00
 -1       428 1.51357E+02 3.69903E+01-2.64194E+00
 -1       430 1.51357E+02 3.69903E+01 2.64194E+00
 -1       431 1.51357E+02 3.94903E+01-2.64194E+00
 -1       432 1.51380E+02 3.94903E+01 9.26934E-15
 -1       433 1.51357E+02 3.94903E+01 2.64194E+00
 -1       434 1.51357E+02 4.19903E+01-2.64194E+00
 -1       436 1.51357E+02 4.19903E+01 2.64194E+00
 -1       437 1.51357E+02 4.44903E+01-2.64194E+00
 -1       438 1.51380E+02 4.44903E+01 9.26934E-15
 -1       439 1.51357E+02 4.44903E+01 2.64194E+00
 -1       440 1.48857E+02 4.44903E+01-2.59831E+00
 -1       442 1.48857E+02 4.44903E+01 2.59831E+00
 -1       443 1.46357E+02 4.44903E+01-2.55468E+00
 -1       444 1.46380E+02 4.44903E+01 8.96318E-15
 -1       445 1.46357E+02 4.44903E+01 2.55468E+00
 -1       446 1.43858E+02 4.44903E+01-2.51105E+00
 -1       448 1.43858E+02 4.44903E+01 2.51105E+00
 -1       449 1.43858E+02 2.94903E+01-2.51105E+00
 -1       451 1.43858E+02 2.94903E+01 2.51105E+00
 -1       452 1.46357E+02 2.94903E+01-2.55468E+00
 -1       453 1.46380E+02 2.94903E+01 8.96317E-15
 -1       454 1.46357E+02 2.94903E+01 2.55468E+00
 -1       455 1.48857E+02 2.94903E+01-2.59831E+00
 -1       457 1.48857E+02 2.94903E+01 2.59831E+00
 -1       458 1.43858E+02 3.94903E+01-2.51105E+00
 -1       460 1.43858E+02 3.94903E+01 2.51105E+00
 -1       461 1.46357E+02 3.94903E+01-2.55468E+00
 -1       462 1.46380E+02 3.94903E+01 8.96318E-15
 -1       463 1.46357E+02 3.94903E+01 2.55468E+00
 -1       464 1.48857E+02 3.94903E+01-2.59831E+00
 -1       466 1.48857E+02 3.94903E+01 2.59831E+00
 -1       467 1.46357E+02 4.19903E+01-2.55468E+00
 -1       469 1.46357E+02 4.19903E+01 2.55468E+00
 -1       470 1.43858E+02 3.44903E+01-2.51105E+00
 -1       472 1.43858E+02 3.44903E+01 2.51105E+00
 -1       473 1.46357E+02 3.44903E+01-2.55468E+00
 -1       474 1.46380E+02 3.44903E+01 8.96317E-15
 -1       475 1.46357E+02 3.44903E+01 2.55468E+00
 -1       476 1.48857E+02 3.44903E+01-2.59831E+00
 -1       478 1.48857E+02 3.44903E+01 2.59831E+00
 -1       479 1.46357E+02 3.69903E+01-2.55468E+00
 -1       481 1.46357E+02 3.69903E+01 2.55468E+00
 -1       482 1.46357E+02 3.19903E+01-2.55468E+00
 -1       484 1.46357E+02 3.19903E+01 2.55468E+00
 -3
    3C                            30                                     1
 -1         1    4    0    1
 -2       140       134       185       167       142       136       187       169       137       182
 -2       191       170       141       135       186       168       139       184       193       172
 -1         2    4    0    1
 -2       167       185       155       161       169       187       157       163       191       188
 -2       158       164       168       186       156       162       193       190       160       166
 -1         3    4    0    1
 -2       176       197       128       122       178       199       130       124       194       203
 -2       125       173       177       198       129       123       196       205       127       175
 -1         4    4    0    1
 -2       197       185       134       128       199       187       136       130       200       182
 -2       131       203       198       186       135       129       202       184       133       205
 -1         5    4    0    1
 -2       143       149       197       176       145       151       199       178       146       206
 -2       194       179       144       150       198       177       148       208       196       181
 -1         6    4    0    1
 -2       149       155       185       197       151       157       187       199       152       188
 -2       200       206       150       156       186       198       154       190       202       208
 -1         7    4    0    1
 -2       227       341       215       221       229       343       217       223       338       347
 -2       218       224       228       342       216       222       340       349       220       226
 -1         8    4    0    1
 -2       341       314       209       215       343       316       211       217       344       317
 -2       212       347       342       315       210       216       346       319       214       349
 -1         9    4    0    1
 -2       122       332       341       227       124       334       343       229       329       350
 -2       338       230       123       333       342       228       331       352       340       232
 -1        10    4    0    1
 -2       332       308       314       341       334       310       316       343       335       311
 -2       344       350       333       309       315       342       337       313       346       352
 -1        11    4    0    1
 -2       128       356       332       122       130       358       334       124       353       362
 -2       329       125       129       357       333       123       355       364       331       127
 -1        12    4    0    1
 -2       356       302       308       332       358       304       310       334       359       305
 -2       335       362       357       303       309       333       361       307       337       364
 -1        13    4    0    1
 -2       134       323       356       128       136       325       358       130       320       365
 -2       353       131       135       324       357       129       322       367       355       133
 -1        14    4    0    1
 -2       323       296       302       356       325       298       304       358       326       299
 -2       359       365       324       297       303       357       328       301       361       367
 -1        15    4    0    1
 -2       140       380       323       134       142       382       325       136       377       386
 -2       320       137       141       381       324       135       379       388       322       139
 -1        16    4    0    1
 -2       380       290       296       323       382       292       298       325       383       293
 -2       326       386       381       291       297       324       385       295       328       388
 -1        17    4    0    1
 -2       236       371       380       140       238       373       382       142       368       389
 -2       377       233       237       372       381       141       370       391       379       235
 -1        18    4    0    1
 -2       371       284       290       380       373       286       292       382       374       287
 -2       383       389       372       285       291       381       376       289       385       391
 -1        19    4    0    1
 -2       242       395       371       236       244       397       373       238       392       401
 -2       368       239       243       396       372       237       394       403       370       241
 -1        20    4    0    1
 -2       395       278       284       371       397       280       286       373       398       281
 -2       374       401       396       279       285       372       400       283       376       403
 -1        21    4    0    1
 -2       248       407       395       242       250       409       397       244       404       413
 -2       392       245       249       408       396       243       406       415       394       247
 -1        22    4    0    1
 -2       407       272       278       395       409       274       280       397       410       275
 -2       398       413       408       273       279       396       412       277       400       415
 -1        23    4    0    1
 -2       254       260       407       248       256       262       409       250       257       416
 -2       404       251       255       261       408       249       259       418       406       253
 -1        24    4    0    1
 -2       260       266       272       407       262       268       274       409       263       269
 -2       410       416       261       267       273       408       265       271       412       418
 -1        25    4    0    1
 -2       308       302       461       443       310       304       463       445       305       458
 -2       467       446       309       303       462       444       307       460       469       448
 -1        26    4    0    1
 -2       443       461       431       437       445       463       433       439       467       464
 -2       434       440       444       462       432       438       469       466       436       442
 -1        27    4    0    1
 -2       302       296       473       461       304       298       475       463       299       470
 -2       479       458       303       297       474       462       301       472       481       460
 -1        28    4    0    1
 -2       461       473       425       431       463       475       427       433       479       476
 -2       428       464       462       474       426       432       481       478       430       466
 -1        29    4    0    1
 -2       296       290       452       473       298       292       454       475       293       449
 -2       482       470       297       291       453       474       295       451       484       472
 -1        30    4    0    1
 -2       473       452       419       425       475       454       421       427       482       455
 -2       422       476       474       453       420       426       484       457       424       478
 -3
    1PSTEP                         1           1           1          
  100CL  101 1.000000000         288                     0    1           1
 -4  DISP        4    1
 -5  D1          1    2    1    0
 -5  D2          1    2    2    0
 -5  D3          1    2    3    0
 -5  ALL         1    2    0    0    1ALL
 -1       122 1.19664E+00 2.57575E-01-2.08874E-02
 -1       123 1.19682E+00 2.57575E-01 7.32843E-17
 -1       124 1.19664E+00 2.57575E-01 2.08874E-02
 -1       125 1.19823E+00 2.38936E-01-2.09152E-02
 -1       127 1.19823E+00 2.38936E-01 2.09152E-02
 -1       128 1.19864E+00 2.20468E-01-2.09223E-02
 -1       129 1.19882E+00 2.20468E-01 7.34066E-17
 -1       130 1.19864E+00 2.20468E-01 2.09223E-02
 -1       131 1.19775E+00 2.02178E-01-2.09068E-02
 -1       133 1.19775E+00 2.02178E-01 2.09068E-02
 -1       134 1.19559E+00 1.83940E-01-2.08691E-02
 -1       135 1.19577E+00 1.83940E-01 7.32199E-17
 -1       136 1.19559E+00 1.83940E-01 2.08691E-02
 -1       137 1.19216E+00 1.65589E-01-2.08093E-02
 -1       139 1.19216E+00 1.65589E-01 2.08093E-02
 -1       140 1.18757E+00 1.47115E-01-2.07290E-02
 -1       141 1.18775E+00 1.47115E-01 7.27285E-17
 -1       142 1.18757E+00 1.47115E-01 2.07290E-02
 -1       143 1.13251E+00 2.46541E-01-1.97681E-02
 -1       144 1.13269E+00 2.46541E-01 6.93571E-17
 -1       145 1.13251E+00 2.46541E-01 1.97681E-02
 -1       146 1.13469E+00 2.33428E-01-1.98060E-02
 -1       148 1.13469E+00 2.33428E-01 1.98060E-02
 -1       149 1.13553E+00 2.20440E-01-1.98208E-02
 -1       150 1.13570E+00 2.20440E-01 6.95418E-17
 -1       151 1.13553E+00 2.20440E-01 1.98208E-02
 -1       152 1.13500E+00 2.07518E-01-1.98114E-02
 -1       154 1.13500E+00 2.07518E-01 1.98114E-02
 -1       155 1.13315E+00 1.94670E-01-1.97791E-02
 -1       156 1.13332E+00 1.94670E-01 6.93957E-17
 -1       157 1.13315E+00 1.94670E-01 1.97791E-02
 -1       158 1.12991E+00 1.81919E-01-1.97227E-02
 -1       160 1.12991E+00 1.81919E-01 1.97227E-02
 -1       161 1.12536E+00 1.69172E-01-1.96431E-02
 -1       162 1.12553E+00 1.69172E-01 6.89186E-17
 -1       163 1.12536E+00 1.69172E-01 1.96431E-02
 -1       164 1.13875E+00 1.63948E-01-1.98770E-02
 -1       166 1.13875E+00 1.63948E-01 1.98770E-02
 -1       167 1.15360E+00 1.58619E-01-2.01361E-02
 -1       168 1.15377E+00 1.58619E-01 7.06481E-17
 -1       169 1.15360E+00 1.58619E-01 2.01361E-02
 -1       170 1.16992E+00 1.53097E-01-2.04210E-02
 -1       172 1.16992E+00 1.53097E-01 2.04210E-02
 -1       173 1.17847E+00 2.54763E-01-2.05702E-02
 -1       175 1.17847E+00 2.54763E-01 2.05702E-02
 -1       176 1.16168E+00 2.52049E-01-2.02771E-02
 -1       177 1.16185E+00 2.52049E-01 7.11430E-17
 -1       178 1.16168E+00 2.52049E-01 2.02771E-02
 -1       179 1.14637E+00 2.49321E-01-2.00100E-02
 -1       181 1.14637E+00 2.49321E-01 2.00100E-02
 -1       182 1.17796E+00 1.86654E-01-2.05614E-02
 -1       184 1.17796E+00 1.86654E-01 2.05614E-02
 -1       185 1.16162E+00 1.89453E-01-2.02762E-02
 -1       186 1.16180E+00 1.89453E-01 7.11396E-17
 -1       187 1.16162E+00 1.89453E-01 2.02762E-02
 -1       188 1.14668E+00 1.92094E-01-2.00154E-02
 -1       190 1.14668E+00 1.92094E-01 2.00154E-02
 -1       191 1.15832E+00 1.73942E-01-2.02186E-02
 -1       193 1.15832E+00 1.73942E-01 2.02186E-02
 -1       194 1.16370E+00 2.36311E-01-2.03125E-02
 -1       196 1.16370E+00 2.36311E-01 2.03125E-02
 -1       197 1.16432E+00 2.20586E-01-2.03233E-02
 -1       198 1.16450E+00 2.20586E-01 7.13050E-17
 -1       199 1.16432E+00 2.20586E-01 2.03233E-02
 -1       200 1.16364E+00 2.04979E-01-2.03114E-02
 -1       202 1.16364E+00 2.04979E-01 2.03114E-02
 -1       203 1.18081E+00 2.20602E-01-2.06112E-02
 -1       205 1.18081E+00 2.20602E-01 2.06112E-02
 -1       206 1.14922E+00 2.20556E-01-2.00597E-02
 -1       208 1.14922E+00 2.20556E-01 2.00597E-02
 -1       209 1.20698E+00 3.99917E-01-2.10679E-02
 -1       210 1.20717E+00 3.99917E-01 7.39176E-17
 -1       211 1.20698E+00 3.99917E-01 2.10679E-02
 -1       212 1.19618E+00 3.95693E-01-2.08794E-02
 -1       214 1.19618E+00 3.95693E-01 2.08794E-02
 -1       215 1.18570E+00 3.91452E-01-2.06964E-02
 -1       216 1.18588E+00 3.91452E-01 7.26140E-17
 -1       217 1.18570E+00 3.91452E-01 2.06964E-02
 -1       218 1.17555E+00 3.87173E-01-2.05193E-02
 -1       220 1.17555E+00 3.87173E-01 2.05193E-02
 -1       221 1.16573E+00 3.82847E-01-2.03479E-02
 -1       222 1.16591E+00 3.82847E-01 7.13911E-17
 -1       223 1.16573E+00 3.82847E-01 2.03479E-02
 -1       224 1.17805E+00 3.51533E-01-2.05630E-02
 -1       226 1.17805E+00 3.51533E-01 2.05630E-02
 -1       227 1.18690E+00 3.20354E-01-2.07174E-02
 -1       228 1.18708E+00 3.20354E-01 7.26877E-17
 -1       229 1.18690E+00 3.20354E-01 2.07174E-02
 -1       230 1.19294E+00 2.88982E-01-2.08229E-02
 -1       232 1.19294E+00 2.88982E-01 2.08229E-02
 -1       233 1.18384E+00 1.28620E-01-2.06640E-02
 -1       235 1.18384E+00 1.28620E-01 2.06640E-02
 -1       236 1.18033E+00 1.10043E-01-2.06028E-02
 -1       237 1.18051E+00 1.10043E-01 7.22855E-17
 -1       238 1.18033E+00 1.10043E-01 2.06028E-02
 -1       239 1.17736E+00 9.15897E-02-2.05509E-02
 -1       241 1.17736E+00 9.15897E-02 2.05509E-02
 -1       242 1.17485E+00 7.31756E-02-2.05071E-02
 -1       243 1.17503E+00 7.31756E-02 7.19499E-17
 -1       244 1.17485E+00 7.31756E-02 2.05071E-02
 -1       245 1.17289E+00 5.47893E-02-2.04729E-02
 -1       247 1.17289E+00 5.47893E-02 2.04729E-02
 -1       248 1.17150E+00 3.64519E-02-2.04486E-02
 -1       249 1.17168E+00 3.64519E-02 7.17447E-17
 -1       250 1.17150E+00 3.64519E-02 2.04486E-02
 -1       251 1.17069E+00 1.81829E-02-2.04345E-02
 -1       253 1.17069E+00 1.81829E-02 2.04345E-02
 -1       254 1.17045E+00 0.00000E+00-2.04304E-02
 -1       255 1.17063E+00 0.00000E+00 7.16806E-17
 -1       256 1.17045E+00 0.00000E+00 2.04304E-02
 -1       257 1.17904E+00 0.00000E+00-2.05802E-02
 -1       259 1.17904E+00 0.00000E+00 2.05802E-02
 -1       260 1.18816E+00 0.00000E+00-2.07394E-02
 -1       261 1.18834E+00 0.00000E+00 7.27648E-17
 -1       262 1.18816E+00 0.00000E+00 2.07394E-02
 -1       263 1.19781E+00 0.00000E+00-2.09079E-02
 -1       265 1.19781E+00 0.00000E+00 2.09079E-02
 -1       266 1.20800E+00 0.00000E+00-2.10857E-02
 -1       267 1.20818E+00 0.00000E+00 7.39798E-17
 -1       268 1.20800E+00 0.00000E+00 2.10857E-02
 -1       269 1.20836E+00 1.69173E-02-2.10920E-02
 -1       271 1.20836E+00 1.69173E-02 2.10920E-02
 -1       272 1.20934E+00 3.39388E-02-2.11092E-02
 -1       273 1.20953E+00 3.39388E-02 7.40623E-17
 -1       274 1.20934E+00 3.39388E-02 2.11092E-02
 -1       275 1.21090E+00 5.10614E-02-2.11363E-02
 -1       277 1.21090E+00 5.10614E-02 2.11363E-02
 -1       278 1.21301E+00 6.82808E-02-2.11731E-02
 -1       279 1.21319E+00 6.82808E-02 7.42866E-17
 -1       280 1.21301E+00 6.82808E-02 2.11731E-02
 -1       281 1.21566E+00 8.56077E-02-2.12194E-02
 -1       283 1.21566E+00 8.56077E-02 2.12194E-02
 -1       284 1.21878E+00 1.03029E-01-2.12738E-02
 -1       285 1.21896E+00 1.03029E-01 7.46398E-17
 -1       286 1.21878E+00 1.03029E-01 2.12738E-02
 -1       287 1.22242E+00 1.20422E-01-2.13374E-02
 -1       289 1.22242E+00 1.20422E-01 2.13374E-02
 -1       290 1.22653E+00 1.37990E-01-2.14092E-02
 -1       291 1.22672E+00 1.37990E-01 7.51150E-17
 -1       292 1.22653E+00 1.37990E-01 2.14092E-02
 -1       293 1.23143E+00 1.58125E-01-2.14947E-02
 -1       295 1.23143E+00 1.58125E-01 2.14947E-02
 -1       296 1.23503E+00 1.78505E-01-2.15576E-02
 -1       297 1.23522E+00 1.78505E-01 7.56355E-17
 -1       298 1.23503E+00 1.78505E-01 2.15576E-02
 -1       299 1.23737E+00 1.99138E-01-2.15983E-02
 -1       301 1.23737E+00 1.99138E-01 2.15983E-02
 -1       302 1.23842E+00 2.19889E-01-2.16167E-02
 -1       303 1.23861E+00 2.19889E-01 7.58430E-17
 -1       304 1.23842E+00 2.19889E-01 2.16167E-02
 -1       305 1.23818E+00 2.40660E-01-2.16124E-02
 -1       307 1.23818E+00 2.40660E-01 2.16124E-02
 -1       308 1.23660E+00 2.61475E-01-2.15850E-02
 -1       309 1.23679E+00 2.61475E-01 7.57317E-17
 -1       310 1.23660E+00 2.61475E-01 2.15850E-02
 -1       311 1.23300E+00 2.95042E-01-2.15220E-02
 -1       313 1.23300E+00 2.95042E-01 2.15220E-02
 -1       314 1.22735E+00 3.29282E-01-2.14235E-02
 -1       315 1.22754E+00 3.29282E-01 7.51652E-17
 -1       316 1.22735E+00 3.29282E-01 2.14235E-02
 -1       317 1.21887E+00 3.64340E-01-2.12755E-02
 -1       319 1.21887E+00 3.64340E-01 2.12755E-02
 -1       320 1.20490E+00 1.82612E-01-2.10317E-02
 -1       322 1.20490E+00 1.82612E-01 2.10317E-02
 -1       323 1.21458E+00 1.81271E-01-2.12006E-02
 -1       324 1.21477E+00 1.81271E-01 7.43830E-17
 -1       325 1.21458E+00 1.81271E-01 2.12006E-02
 -1       326 1.22463E+00 1.79905E-01-2.13760E-02
 -1       328 1.22463E+00 1.79905E-01 2.13760E-02
 -1       329 1.20609E+00 2.58605E-01-2.10525E-02
 -1       331 1.20609E+00 2.58605E-01 2.10525E-02
 -1       332 1.21593E+00 2.59546E-01-2.12241E-02
 -1       333 1.21611E+00 2.59546E-01 7.44656E-17
 -1       334 1.21593E+00 2.59546E-01 2.12241E-02
 -1       335 1.22608E+00 2.60472E-01-2.14013E-02
 -1       337 1.22608E+00 2.60472E-01 2.14013E-02
 -1       338 1.19648E+00 3.22591E-01-2.08846E-02
 -1       340 1.19648E+00 3.22591E-01 2.08846E-02
 -1       341 1.20643E+00 3.24883E-01-2.10583E-02
 -1       342 1.20661E+00 3.24883E-01 7.38836E-17
 -1       343 1.20643E+00 3.24883E-01 2.10583E-02
 -1       344 1.21671E+00 3.27142E-01-2.12377E-02
 -1       346 1.21671E+00 3.27142E-01 2.12377E-02
 -1       347 1.19777E+00 3.57998E-01-2.09072E-02
 -1       349 1.19777E+00 3.57998E-01 2.09072E-02
 -1       350 1.21219E+00 2.92050E-01-2.11588E-02
 -1       352 1.21219E+00 2.92050E-01 2.11588E-02
 -1       353 1.20806E+00 2.20356E-01-2.10868E-02
 -1       355 1.20806E+00 2.20356E-01 2.10868E-02
 -1       356 1.21783E+00 2.20215E-01-2.12573E-02
 -1       357 1.21801E+00 2.20215E-01 7.45819E-17
 -1       358 1.21783E+00 2.20215E-01 2.12573E-02
 -1       359 1.22796E+00 2.20055E-01-2.14341E-02
 -1       361 1.22796E+00 2.20055E-01 2.14341E-02
 -1       362 1.21748E+00 2.39817E-01-2.12511E-02
 -1       364 1.21748E+00 2.39817E-01 2.12511E-02
 -1       365 1.21687E+00 2.00701E-01-2.12405E-02
 -1       367 1.21687E+00 2.00701E-01 2.12405E-02
 -1       368 1.18916E+00 1.08346E-01-2.07568E-02
 -1       370 1.18916E+00 1.08346E-01 2.07568E-02
 -1       371 1.19854E+00 1.06573E-01-2.09206E-02
 -1       372 1.19872E+00 1.06573E-01 7.34006E-17
 -1       373 1.19854E+00 1.06573E-01 2.09206E-02
 -1       374 1.20838E+00 1.04781E-01-2.10924E-02
 -1       376 1.20838E+00 1.04781E-01 2.10924E-02
 -1       377 1.19673E+00 1.44729E-01-2.08889E-02
 -1       379 1.19673E+00 1.44729E-01 2.08889E-02
 -1       380 1.20631E+00 1.42626E-01-2.10562E-02
 -1       381 1.20650E+00 1.42626E-01 7.38765E-17
 -1       382 1.20631E+00 1.42626E-01 2.10562E-02
 -1       383 1.21621E+00 1.40492E-01-2.12291E-02
 -1       385 1.21621E+00 1.40492E-01 2.12291E-02
 -1       386 1.21098E+00 1.61923E-01-2.11377E-02
 -1       388 1.21098E+00 1.61923E-01 2.11377E-02
 -1       389 1.20210E+00 1.24588E-01-2.09828E-02
 -1       391 1.20210E+00 1.24588E-01 2.09828E-02
 -1       392 1.18360E+00 7.19724E-02-2.06598E-02
 -1       394 1.18360E+00 7.19724E-02 2.06598E-02
 -1       395 1.19287E+00 7.07688E-02-2.08217E-02
 -1       396 1.19305E+00 7.07688E-02 7.30535E-17
 -1       397 1.19287E+00 7.07688E-02 2.08217E-02
 -1       398 1.20268E+00 6.95442E-02-2.09929E-02
 -1       400 1.20268E+00 6.95442E-02 2.09929E-02
 -1       401 1.19544E+00 8.86379E-02-2.08665E-02
 -1       403 1.19544E+00 8.86379E-02 2.08665E-02
 -1       404 1.18016E+00 3.58576E-02-2.05997E-02
 -1       406 1.18016E+00 3.58576E-02 2.05997E-02
 -1       407 1.18936E+00 3.52401E-02-2.07603E-02
 -1       408 1.18954E+00 3.52401E-02 7.28382E-17
 -1       409 1.18936E+00 3.52401E-02 2.07603E-02
 -1       410 1.19908E+00 3.46052E-02-2.09301E-02
 -1       412 1.19908E+00 3.46052E-02 2.09301E-02
 -1       413 1.19083E+00 5.29686E-02-2.07861E-02
 -1       415 1.19083E+00 5.29686E-02 2.07861E-02
 -1       416 1.18846E+00 1.75857E-02-2.07446E-02
 -1       418 1.18846E+00 1.75857E-02 2.07446E-02
 -1       419 1.31988E+00 1.13965E-01-2.30385E-02
 -1       420 1.32008E+00 1.13965E-01 8.08315E-17
 -1       421 1.31988E+00 1.13965E-01 2.30385E-02
 -1       422 1.32523E+00 1.39788E-01-2.31319E-02
 -1       424 1.32523E+00 1.39788E-01 2.31319E-02
 -1       425 1.32927E+00 1.65738E-01-2.32025E-02
 -1       426 1.32947E+00 1.65738E-01 8.14067E-17
 -1       427 1.32927E+00 1.65738E-01 2.32025E-02
 -1       428 1.33196E+00 1.91751E-01-2.32495E-02
 -1       430 1.33196E+00 1.91751E-01 2.32495E-02
 -1       431 1.33336E+00 2.17862E-01-2.32739E-02
 -1       432 1.33357E+00 2.17862E-01 8.16574E-17
 -1       433 1.33336E+00 2.17862E-01 2.32739E-02
 -1       434 1.33342E+00 2.44090E-01-2.32749E-02
 -1       436 1.33342E+00 2.44090E-01 2.32749E-02
 -1       437 1.33216E+00 2.70404E-01-2.32529E-02
 -1       438 1.33236E+00 2.70404E-01 8.15837E-17
 -1       439 1.33216E+00 2.70404E-01 2.32529E-02
 -1       440 1.30638E+00 2.68436E-01-2.28029E-02
 -1       442 1.30638E+00 2.68436E-01 2.28029E-02
 -1       443 1.28183E+00 2.66325E-01-2.23745E-02
 -1       444 1.28203E+00 2.66325E-01 7.85015E-17
 -1       445 1.28183E+00 2.66325E-01 2.23745E-02
 -1       446 1.25858E+00 2.64054E-01-2.19686E-02
 -1       448 1.25858E+00 2.64054E-01 2.19686E-02
 -1       449 1.24800E+00 1.31749E-01-2.17839E-02
 -1       451 1.24800E+00 1.31749E-01 2.17839E-02
 -1       452 1.27068E+00 1.25821E-01-2.21799E-02
 -1       453 1.27088E+00 1.25821E-01 7.78188E-17
 -1       454 1.27068E+00 1.25821E-01 2.21799E-02
 -1       455 1.29466E+00 1.19913E-01-2.25984E-02
 -1       457 1.29466E+00 1.19913E-01 2.25984E-02
 -1       458 1.26032E+00 2.19519E-01-2.19989E-02
 -1       460 1.26032E+00 2.19519E-01 2.19989E-02
 -1       461 1.28344E+00 2.19107E-01-2.24026E-02
 -1       462 1.28364E+00 2.19107E-01 7.86002E-17
 -1       463 1.28344E+00 2.19107E-01 2.24026E-02
 -1       464 1.30780E+00 2.18535E-01-2.28277E-02
 -1       466 1.30780E+00 2.18535E-01 2.28277E-02
 -1       467 1.28333E+00 2.42634E-01-2.24006E-02
 -1       469 1.28333E+00 2.42634E-01 2.24006E-02
 -1       470 1.25678E+00 1.75516E-01-2.19373E-02
 -1       472 1.25678E+00 1.75516E-01 2.19373E-02
 -1       473 1.27972E+00 1.72296E-01-2.23376E-02
 -1       474 1.27991E+00 1.72296E-01 7.83722E-17
 -1       475 1.27972E+00 1.72296E-01 2.23376E-02
 -1       476 1.30389E+00 1.69063E-01-2.27596E-02
 -1       478 1.30389E+00 1.69063E-01 2.27596E-02
 -1       479 1.28225E+00 1.95656E-01-2.23817E-02
 -1       481 1.28225E+00 1.95656E-01 2.23817E-02
 -1       482 1.27590E+00 1.49068E-01-2.22710E-02
 -1       484 1.27590E+00 1.49068E-01 2.22710E-02
 -3
    1PSTEP                         2           1           1          
  100CL  101 1.000000000         288                     0    1           1
 -4  NDTEMP      1    1
 -5  T           1    1    0    0
 -1       122 6.02330E+02
 -1       123 6.02330E+02
 -1       124 6.02330E+02
 -1       125 6.01210E+02
 -1       127 6.01210E+02
 -1       128 6.00090E+02
 -1       129 6.00090E+02
 -1       130 6.00090E+02
 -1       131 5.98970E+02
 -1       133 5.98970E+02
 -1       134 5.97850E+02
 -1       135 5.97850E+02
 -1       136 5.97850E+02
 -1       137 5.96730E+02
 -1       139 5.96730E+02
 -1       140 5.95610E+02
 -1       141 5.95610E+02
 -1       142 5.95610E+02
 -1       143 5.37800E+02
 -1       144 5.37800E+02
 -1       145 5.37800E+02
 -1       146 5.36800E+02
 -1       148 5.36800E+02
 -1       149 5.35800E+02
 -1       150 5.35800E+02
 -1       151 5.35800E+02
 -1       152 5.34800E+02
 -1       154 5.34800E+02
 -1       155 5.33800E+02
 -1       156 5.33800E+02
 -1       157 5.33800E+02
 -1       158 5.32800E+02
 -1       160 5.32800E+02
 -1       161 5.31800E+02
 -1       162 5.31800E+02
 -1       163 5.31800E+02
 -1       164 5.47750E+02
 -1       166 5.47750E+02
 -1       167 5.63700E+02
 -1       168 5.63700E+02
 -1       169 5.63700E+02
 -1       170 5.79660E+02
 -1       172 5.79660E+02
 -1       173 5.86200E+02
 -1       175 5.86200E+02
 -1       176 5.70060E+02
 -1       177 5.70060E+02
 -1       178 5.70060E+02
 -1       179 5.53930E+02
 -1       181 5.53930E+02
 -1       182 5.81840E+02
 -1       184 5.81840E+02
 -1       185 5.65820E+02
 -1       186 5.65820E+02
 -1       187 5.65820E+02
 -1       188 5.49810E+02
 -1       190 5.49810E+02
 -1       191 5.64760E+02
 -1       193 5.64760E+02
 -1       194 5.69000E+02
 -1       196 5.69000E+02
 -1       197 5.67940E+02
 -1       198 5.67940E+02
 -1       199 5.67940E+02
 -1       200 5.66880E+02
 -1       202 5.66880E+02
 -1       203 5.84020E+02
 -1       205 5.84020E+02
 -1       206 5.51870E+02
 -1       208 5.51870E+02
 -1       209 6.42300E+02
 -1       210 6.42300E+02
 -1       211 6.42300E+02
 -1       212 6.34130E+02
 -1       214 6.34130E+02
 -1       215 6.25970E+02
 -1       216 6.25970E+02
 -1       217 6.25970E+02
 -1       218 6.17800E+02
 -1       220 6.17800E+02
 -1       221 6.09640E+02
 -1       222 6.09640E+02
 -1       223 6.09640E+02
 -1       224 6.07810E+02
 -1       226 6.07810E+02
 -1       227 6.05980E+02
 -1       228 6.05980E+02
 -1       229 6.05980E+02
 -1       230 6.04160E+02
 -1       232 6.04160E+02
 -1       233 5.94560E+02
 -1       235 5.94560E+02
 -1       236 5.93520E+02
 -1       237 5.93520E+02
 -1       238 5.93520E+02
 -1       239 5.92470E+02
 -1       241 5.92470E+02
 -1       242 5.91420E+02
 -1       243 5.91420E+02
 -1       244 5.91420E+02
 -1       245 5.90380E+02
 -1       247 5.90380E+02
 -1       248 5.89330E+02
 -1       249 5.89330E+02
 -1       250 5.89330E+02
 -1       251 5.88280E+02
 -1       253 5.88280E+02
 -1       254 5.87240E+02
 -1       255 5.87240E+02
 -1       256 5.87240E+02
 -1       257 5.95100E+02
 -1       259 5.95100E+02
 -1       260 6.02970E+02
 -1       261 6.02970E+02
 -1       262 6.02970E+02
 -1       263 6.10830E+02
 -1       265 6.10830E+02
 -1       266 6.18700E+02
 -1       267 6.18700E+02
 -1       268 6.18700E+02
 -1       269 6.19800E+02
 -1       271 6.19800E+02
 -1       272 6.20900E+02
 -1       273 6.20900E+02
 -1       274 6.20900E+02
 -1       275 6.22010E+02
 -1       277 6.22010E+02
 -1       278 6.23110E+02
 -1       279 6.23110E+02
 -1       280 6.23110E+02
 -1       281 6.24210E+02
 -1       283 6.24210E+02
 -1       284 6.25310E+02
 -1       285 6.25310E+02
 -1       286 6.25310E+02
 -1       287 6.26420E+02
 -1       289 6.26420E+02
 -1       290 6.27520E+02
 -1       291 6.27520E+02
 -1       292 6.27520E+02
 -1       293 6.28700E+02
 -1       295 6.28700E+02
 -1       296 6.29880E+02
 -1       297 6.29880E+02
 -1       298 6.29880E+02
 -1       299 6.31060E+02
 -1       301 6.31060E+02
 -1       302 6.32240E+02
 -1       303 6.32240E+02
 -1       304 6.32240E+02
 -1       305 6.33420E+02
 -1       307 6.33420E+02
 -1       308 6.34600E+02
 -1       309 6.34600E+02
 -1       310 6.34600E+02
 -1       311 6.36520E+02
 -1       313 6.36520E+02
 -1       314 6.38450E+02
 -1       315 6.38450E+02
 -1       316 6.38450E+02
 -1       317 6.40370E+02
 -1       319 6.40370E+02
 -1       320 6.05860E+02
 -1       322 6.05860E+02
 -1       323 6.13870E+02
 -1       324 6.13870E+02
 -1       325 6.13870E+02
 -1       326 6.21870E+02
 -1       328 6.21870E+02
 -1       329 6.10400E+02
 -1       331 6.10400E+02
 -1       332 6.18470E+02
 -1       333 6.18470E+02
 -1       334 6.18470E+02
 -1       335 6.26530E+02
 -1       337 6.26530E+02
 -1       338 6.14100E+02
 -1       340 6.14100E+02
 -1       341 6.22220E+02
 -1       342 6.22220E+02
 -1       343 6.22220E+02
 -1       344 6.30330E+02
 -1       346 6.30330E+02
 -1       347 6.24090E+02
 -1       349 6.24090E+02
 -1       350 6.20340E+02
 -1       352 6.20340E+02
 -1       353 6.08130E+02
 -1       355 6.08130E+02
 -1       356 6.16170E+02
 -1       357 6.16170E+02
 -1       358 6.16170E+02
 -1       359 6.24200E+02
 -1       361 6.24200E+02
 -1       362 6.17320E+02
 -1       364 6.17320E+02
 -1       365 6.15020E+02
 -1       367 6.15020E+02
 -1       368 6.01470E+02
 -1       370 6.01470E+02
 -1       371 6.09420E+02
 -1       372 6.09420E+02
 -1       373 6.09420E+02
 -1       374 6.17360E+02
 -1       376 6.17360E+02
 -1       377 6.03590E+02
 -1       379 6.03590E+02
 -1       380 6.11570E+02
 -1       381 6.11570E+02
 -1       382 6.11570E+02
 -1       383 6.19540E+02
 -1       385 6.19540E+02
 -1       386 6.12720E+02
 -1       388 6.12720E+02
 -1       389 6.10490E+02
 -1       391 6.10490E+02
 -1       392 5.99350E+02
 -1       394 5.99350E+02
 -1       395 6.07270E+02
 -1       396 6.07270E+02
 -1       397 6.07270E+02
 -1       398 6.15190E+02
 -1       400 6.15190E+02
 -1       401 6.08340E+02
 -1       403 6.08340E+02
 -1       404 5.97220E+02
 -1       406 5.97220E+02
 -1       407 6.05120E+02
 -1       408 6.05120E+02
 -1       409 6.05120E+02
 -1       410 6.13010E+02
 -1       412 6.13010E+02
 -1       413 6.06190E+02
 -1       415 6.06190E+02
 -1       416 6.04040E+02
 -1       418 6.04040E+02
 -1       419 6.91330E+02
 -1       420 6.91330E+02
 -1       421 6.91330E+02
 -1       422 6.92630E+02
 -1       424 6.92630E+02
 -1       425 6.93930E+02
 -1       426 6.93930E+02
 -1       427 6.93930E+02
 -1       428 6.95230E+02
 -1       430 6.95230E+02
 -1       431 6.96530E+02
 -1       432 6.96530E+02
 -1       433 6.96530E+02
 -1       434 6.97830E+02
 -1       436 6.97830E+02
 -1       437 6.99130E+02
 -1       438 6.99130E+02
 -1       439 6.99130E+02
 -1       440 6.83000E+02
 -1       442 6.83000E+02
 -1       443 6.66870E+02
 -1       444 6.66870E+02
 -1       445 6.66870E+02
 -1       446 6.50730E+02
 -1       448 6.50730E+02
 -1       449 6.43470E+02
 -1       451 6.43470E+02
 -1       452 6.59430E+02
 -1       453 6.59430E+02
 -1       454 6.59430E+02
 -1       455 6.75380E+02
 -1       457 6.75380E+02
 -1       458 6.48310E+02
 -1       460 6.48310E+02
 -1       461 6.64390E+02
 -1       462 6.64390E+02
 -1       463 6.64390E+02
 -1       464 6.80460E+02
 -1       466 6.80460E+02
 -1       467 6.65630E+02
 -1       469 6.65630E+02
 -1       470 6.45890E+02
 -1       472 6.45890E+02
 -1       473 6.61910E+02
 -1       474 6.61910E+02
 -1       475 6.61910E+02
 -1       476 6.77920E+02
 -1       478 6.77920E+02
 -1       479 6.63150E+02
 -1       481 6.63150E+02
 -1       482 6.60670E+02
 -1       484 6.60670E+02
 -3
    1PSTEP                         3           1           1          
  100CL  101 1.000000000         288                     0    1           1
 -4  STRESS      6    1
 -5  SXX         1    4    1    1
 -5  SYY         1    4    2    2
 -5  SZZ         1    4    3    3
 -5  SXY         1    4    1    2
 -5  SYZ         1    4    2    3
 -5  SZX         1    4    3    1
 -1       122 2.94746E+01 4.63726E+01 2.41150E+02 1.31695E+01-2.29854E-01 3.69629E+00
 -1       123 2.94122E+01 4.63747E+01 2.41237E+02 1.31731E+01-6.48538E-13 6.88347E-12
 -1       124 2.94746E+01 4.63726E+01 2.41150E+02 1.31695E+01 2.29854E-01-3.69629E+00
 -1       125 2.03218E+01 1.92192E+01 2.38591E+02 4.60637E+00-8.03947E-02 3.80494E+00
 -1       127 2.03218E+01 1.92192E+01 2.38591E+02 4.60637E+00 8.03947E-02-3.80494E+00
 -1       128 1.69746E+01 7.57169E+00 2.40554E+02 6.20556E-01-1.08348E-02 3.90417E+00
 -1       129 1.69028E+01 7.57020E+00 2.40644E+02 6.20971E-01 1.85114E-13 5.38878E-12
 -1       130 1.69746E+01 7.57169E+00 2.40554E+02 6.20556E-01 1.08348E-02-3.90417E+00
 -1       131 1.50624E+01 6.85829E+00 2.44292E+02 2.90427E+00-5.07052E-02 3.99588E+00
 -1       133 1.50624E+01 6.85829E+00 2.44292E+02 2.90427E+00 5.07052E-02-3.99588E+00
 -1       134 1.41743E+01 1.25681E+01 2.48266E+02 5.17194E+00-9.03008E-02 4.08774E+00
 -1       135 1.40999E+01 1.25673E+01 2.48361E+02 5.17276E+00-1.67999E-13 4.39949E-12
 -1       136 1.41743E+01 1.25681E+01 2.48266E+02 5.17194E+00 9.03008E-02-4.08774E+00
 -1       137 1.76424E+01 3.56973E+01 2.56882E+02-4.39454E+00 7.66754E-02 4.17117E+00
 -1       139 1.76424E+01 3.56973E+01 2.56882E+02-4.39454E+00-7.66754E-02-4.17117E+00
 -1       140 4.33900E+01 1.01219E+02 2.83052E+02-1.97607E+01 3.44874E-01 4.18500E+00
 -1       141 4.33204E+01 1.01224E+02 2.83151E+02-1.97676E+01 2.49312E-13-1.94047E-12
 -1       142 4.33900E+01 1.01219E+02 2.83052E+02-1.97607E+01-3.44874E-01-4.18500E+00
 -1       143-2.00983E-01 2.13932E+00 5.97945E+02-1.02907E+00 1.79860E-02 1.04448E+01
 -1       144-3.57729E-01 2.14993E+00 5.98183E+02-1.02262E+00-2.01510E-12 3.20742E-12
 -1       145-2.00983E-01 2.13932E+00 5.97945E+02-1.02907E+00-1.79860E-02-1.04448E+01
 -1       146 2.40394E+00 3.20536E-01 6.07154E+02 8.05414E-02-1.39189E-03 1.05519E+01
 -1       148 2.40394E+00 3.20536E-01 6.07154E+02 8.05414E-02 1.39189E-03-1.05519E+01
 -1       149 1.19856E-01-2.71651E+00 6.12211E+02 2.54576E-01-4.44288E-03 1.06883E+01
 -1       150-4.17232E-02-2.70606E+00 6.12454E+02 2.54635E-01-7.64382E-13-5.05954E-12
 -1       151 1.19856E-01-2.71651E+00 6.12211E+02 2.54576E-01 4.44288E-03-1.06883E+01
 -1       152 2.34200E+00 2.05042E-01 6.18207E+02-5.10766E-02 8.81258E-04 1.07461E+01
 -1       154 2.34200E+00 2.05042E-01 6.18207E+02-5.10766E-02-8.81258E-04-1.07461E+01
 -1       155 6.80453E-02-3.68285E+00 6.18509E+02-4.61364E-02 7.84366E-04 1.07992E+01
 -1       156-9.56449E-02-3.67250E+00 6.18755E+02-4.62240E-02-1.71602E-13-6.69673E-12
 -1       157 6.80453E-02-3.68285E+00 6.18509E+02-4.61364E-02-7.84366E-04-1.07992E+01
 -1       158 2.67299E+00 2.53420E-01 6.20412E+02-2.41404E-01 4.17873E-03 1.07788E+01
 -1       160 2.67299E+00 2.53420E-01 6.20412E+02-2.41404E-01-4.17873E-03-1.07788E+01
 -1       161-5.56151E-01 3.71232E+00 6.18114E+02 1.45894E+00-2.55093E-02 1.08032E+01
 -1       162-7.19140E-01 3.72290E+00 6.18360E+02 1.45255E+00 1.64297E-12-1.10405E-12
 -1       163-5.56151E-01 3.71232E+00 6.18114E+02 1.45894E+00 2.55093E-02-1.08032E+01
 -1       164 4.81568E+00-4.65656E+00 5.18399E+02 2.01484E+00-3.52135E-02 8.97535E+00
 -1       166 4.81568E+00-4.65656E+00 5.18399E+02 2.01484E+00 3.52135E-02-8.97535E+00
 -1       167 1.80694E+01-6.80117E+00 4.25950E+02 3.35051E+00-5.85264E-02 7.12246E+00
 -1       168 1.79455E+01-6.80082E+00 4.26114E+02 3.34382E+00 3.61626E-13-2.11227E-12
 -1       169 1.80694E+01-6.80117E+00 4.25950E+02 3.35051E+00 5.85264E-02-7.12246E+00
 -1       170 3.18445E+01 1.64215E+01 3.44326E+02-1.37509E+01 2.39965E-01 5.46306E+00
 -1       172 3.18445E+01 1.64215E+01 3.44326E+02-1.37509E+01-2.39965E-01-5.46306E+00
 -1       173 2.99098E+01 9.84592E+00 3.20821E+02 9.29124E+00-1.62150E-01 5.08672E+00
 -1       175 2.99098E+01 9.84592E+00 3.20821E+02 9.29124E+00 1.62150E-01-5.08672E+00
 -1       176 1.72824E+01-3.44849E+00 4.06164E+02-1.63278E+00 2.85211E-02 6.79069E+00
 -1       177 1.71647E+01-3.44815E+00 4.06320E+02-1.62592E+00-2.46265E-12 1.18434E-12
 -1       178 1.72824E+01-3.44849E+00 4.06164E+02-1.63278E+00-2.85211E-02-6.79069E+00
 -1       179 5.26883E+00-3.27497E+00 4.98778E+02-1.30685E+00 2.28344E-02 8.62483E+00
 -1       181 5.26883E+00-3.27497E+00 4.98778E+02-1.30685E+00-2.28344E-02-8.62483E+00
 -1       182 1.52882E+01 7.02804E+00 3.37685E+02-9.65837E-01 1.68315E-02 5.63599E+00
 -1       184 1.52882E+01 7.02804E+00 3.37685E+02-9.65837E-01-1.68315E-02-5.63599E+00
 -1       185 1.84467E+01 1.02668E+01 4.32872E+02-3.87443E+00 6.76049E-02 7.23673E+00
 -1       186 1.83207E+01 1.02671E+01 4.33037E+02-3.87489E+00-6.38254E-13 3.63944E-12
 -1       187 1.84467E+01 1.02668E+01 4.32872E+02-3.87443E+00-6.76049E-02-7.23673E+00
 -1       188 6.75034E+00 1.51880E+00 5.22926E+02-4.88142E-01 8.49879E-03 9.02037E+00
 -1       190 6.75034E+00 1.51880E+00 5.22926E+02-4.88142E-01-8.49879E-03-9.02037E+00
 -1       191 1.82116E+01 4.77397E+00 4.31492E+02-5.67756E-01 9.87346E-03 7.20842E+00
 -1       193 1.82116E+01 4.77397E+00 4.31492E+02-5.67756E-01-9.87346E-03-7.20842E+00
 -1       194 1.63297E+01 3.74721E+00 4.16901E+02 1.05658E+00-1.84291E-02 6.98661E+00
 -1       196 1.63297E+01 3.74721E+00 4.16901E+02 1.05658E+00 1.84291E-02-6.98661E+00
 -1       197 1.64973E+01 7.50777E+00 4.24613E+02 2.89047E+00-5.04539E-02 7.12654E+00
 -1       198 1.63735E+01 7.50804E+00 4.24775E+02 2.89087E+00-8.58783E-13-3.38855E-12
 -1       199 1.64973E+01 7.50777E+00 4.24613E+02 2.89047E+00 5.04539E-02-7.12654E+00
 -1       200 1.51335E+01 3.85950E+00 4.27637E+02-1.95057E-01 3.39359E-03 7.19534E+00
 -1       202 1.51335E+01 3.85950E+00 4.27637E+02-1.95057E-01-3.39359E-03-7.19534E+00
 -1       203 1.62963E+01 6.78036E+00 3.30933E+02 2.08299E+00-3.63562E-02 5.50073E+00
 -1       205 1.62963E+01 6.78036E+00 3.30933E+02 2.08299E+00 3.63562E-02-5.50073E+00
 -1       206 6.90277E+00 1.19980E+00 5.16145E+02 5.58041E-01-9.74029E-03 8.89937E+00
 -1       208 6.90277E+00 1.19980E+00 5.16145E+02 5.58041E-01 9.74029E-03-8.89937E+00
 -1       209-1.86979E+00 1.54930E+00-3.96475E+01 2.85463E+00-4.97549E-02-6.59611E-01
 -1       210-1.86879E+00 1.54458E+00-3.96605E+01 2.86524E+00-2.69098E-12-6.72932E-12
 -1       211-1.86979E+00 1.54930E+00-3.96475E+01 2.85463E+00 4.97549E-02 6.59611E-01
 -1       212-9.54794E-02-5.47704E-01 2.52861E+00 2.40753E+00-4.19465E-02 4.73857E-02
 -1       214-9.54794E-02-5.47704E-01 2.52861E+00 2.40753E+00 4.19465E-02-4.73857E-02
 -1       215 1.29625E+00 1.85968E-01 4.59579E+01 1.61138E+00-2.80535E-02 7.79914E-01
 -1       216 1.28282E+00 1.86296E-01 4.59789E+01 1.62182E+00 3.36566E-12 6.33228E-12
 -1       217 1.29625E+00 1.85968E-01 4.59579E+01 1.61138E+00 2.80535E-02-7.79914E-01
 -1       218 1.19960E+00-3.49241E-01 8.91367E+01 2.36970E+00-4.12844E-02 1.53706E+00
 -1       220 1.19960E+00-3.49241E-01 8.91367E+01 2.36970E+00 4.12844E-02-1.53706E+00
 -1       221 2.06637E+00-3.15191E+00 1.32470E+02 2.46111E+00-4.28831E-02 2.27710E+00
 -1       222 2.03792E+00-3.14634E+00 1.32526E+02 2.47184E+00 5.27687E-12-1.25111E-11
 -1       223 2.06637E+00-3.15191E+00 1.32470E+02 2.46111E+00 4.28831E-02-2.27710E+00
 -1       224-1.72910E+00 6.84669E+00 1.62773E+02-1.09702E+00 1.92038E-02 2.85444E+00
 -1       226-1.72910E+00 6.84669E+00 1.62773E+02-1.09702E+00-1.92038E-02-2.85444E+00
 -1       227 1.33968E+00 2.50216E+01 1.92250E+02 8.57264E-01-1.49255E-02 3.33365E+00
 -1       228 1.29472E+00 2.50292E+01 1.92328E+02 8.55693E-01 1.13462E-12 9.23894E-12
 -1       229 1.33968E+00 2.50216E+01 1.92250E+02 8.57264E-01 1.49255E-02-3.33365E+00
 -1       230 2.03107E+00 5.05336E+01 2.18933E+02 3.65840E+00-6.38312E-02 3.77515E+00
 -1       232 2.03107E+00 5.05336E+01 2.18933E+02 3.65840E+00 6.38312E-02-3.77515E+00
 -1       233 1.13684E+01 1.75054E+02 2.95341E+02-1.17071E+01 2.04312E-01 4.95941E+00
 -1       235 1.13684E+01 1.75054E+02 2.95341E+02-1.17071E+01-2.04312E-01-4.95941E+00
 -1       236 9.70587E-01 1.77437E+02 2.92985E+02 7.17790E+00-1.25317E-01 5.09912E+00
 -1       237 9.01084E-01 1.77453E+02 2.93104E+02 7.17831E+00-5.09441E-13 2.44890E-12
 -1       238 9.70587E-01 1.77437E+02 2.92985E+02 7.17790E+00 1.25317E-01-5.09912E+00
 -1       239-3.86335E+00 1.70636E+02 2.90431E+02 1.93105E+00-3.37307E-02 5.14097E+00
 -1       241-3.86335E+00 1.70636E+02 2.90431E+02 1.93105E+00 3.37307E-02-5.14097E+00
 -1       242 2.55851E+00 1.76840E+02 2.95840E+02 3.54043E-01-6.20092E-03 5.12123E+00
 -1       243 2.48718E+00 1.76855E+02 2.95957E+02 3.53885E-01-9.12334E-14 5.59207E-13
 -1       244 2.55851E+00 1.76840E+02 2.95840E+02 3.54043E-01 6.20092E-03-5.12123E+00
 -1       245 1.60524E+00 1.79191E+02 2.98754E+02-7.29003E-02 1.25745E-03 5.19132E+00
 -1       247 1.60524E+00 1.79191E+02 2.98754E+02-7.29003E-02-1.25745E-03-5.19132E+00
 -1       248 3.49978E-01 1.80907E+02 3.02245E+02 4.86345E-01-8.49934E-03 5.27164E+00
 -1       249 2.76516E-01 1.80923E+02 3.02366E+02 4.86433E-01-1.79871E-13 5.96656E-12
 -1       250 3.49978E-01 1.80907E+02 3.02245E+02 4.86345E-01 8.49934E-03-5.27164E+00
 -1       251-4.64416E-01 1.79465E+02 3.05841E+02-4.27899E-01 7.46429E-03 5.35122E+00
 -1       253-4.64416E-01 1.79465E+02 3.05841E+02-4.27899E-01-7.46429E-03-5.35122E+00
 -1       254 2.08195E+00 1.79758E+02 3.11789E+02-1.60964E+00 2.80961E-02 5.40806E+00
 -1       255 2.00588E+00 1.79774E+02 3.11913E+02-1.60687E+00 9.46970E-14-3.92535E-12
 -1       256 2.08195E+00 1.79758E+02 3.11789E+02-1.60964E+00-2.80961E-02-5.40806E+00
 -1       257 2.86810E+00 9.21244E+01 2.41326E+02-7.95142E-01 1.38790E-02 4.16633E+00
 -1       259 2.86810E+00 9.21244E+01 2.41326E+02-7.95142E-01-1.38790E-02-4.16633E+00
 -1       260 3.76954E+00 3.80111E+00 1.71542E+02 1.23444E-01-2.15479E-03 2.92966E+00
 -1       261 3.71845E+00 3.80125E+00 1.71609E+02 1.26588E-01 5.39424E-14-9.74704E-12
 -1       262 3.76954E+00 3.80111E+00 1.71542E+02 1.23444E-01 2.15479E-03-2.92966E+00
 -1       263 2.72886E+00-8.83952E+01 1.00896E+02 1.00830E+00-1.75989E-02 1.71671E+00
 -1       265 2.72886E+00-8.83952E+01 1.00896E+02 1.00830E+00 1.75989E-02-1.71671E+00
 -1       266 1.19801E+00-1.81930E+02 3.05077E+01 1.90012E+00-3.31665E-02 5.11881E-01
 -1       267 1.17097E+00-1.81946E+02 3.05174E+01 1.90363E+00-3.62145E-14 1.04234E-11
 -1       268 1.19801E+00-1.81930E+02 3.05077E+01 1.90012E+00 3.31665E-02-5.11881E-01
 -1       269-3.42526E-01-1.80414E+02 2.53056E+01 6.43220E-01-1.12333E-02 4.50857E-01
 -1       271-3.42526E-01-1.80414E+02 2.53056E+01 6.43220E-01 1.12333E-02-4.50857E-01
 -1       272 1.14688E+00-1.77247E+02 2.23907E+01 2.39532E-01-4.19267E-03 3.71037E-01
 -1       273 1.12229E+00-1.77263E+02 2.23976E+01 2.39422E-01 1.65984E-13-7.71333E-12
 -1       274 1.14688E+00-1.77247E+02 2.23907E+01 2.39532E-01 4.19267E-03-3.71037E-01
 -1       275-4.82004E-01-1.75886E+02 1.88428E+01-6.49765E-01 1.13251E-02 3.40141E-01
 -1       277-4.82004E-01-1.75886E+02 1.88428E+01-6.49765E-01-1.13251E-02-3.40141E-01
 -1       278-1.85589E+00-1.73539E+02 1.64847E+01 9.24171E-02-1.63526E-03 3.20334E-01
 -1       279-1.87894E+00-1.73554E+02 1.64901E+01 9.22312E-02-1.11902E-13-7.79696E-12
 -1       280-1.85589E+00-1.73539E+02 1.64847E+01 9.24171E-02 1.63526E-03-3.20334E-01
 -1       281 4.95395E+00-1.67650E+02 1.85019E+01 1.71224E+00-2.99126E-02 2.38830E-01
 -1       283 4.95395E+00-1.67650E+02 1.85019E+01 1.71224E+00 2.99126E-02-2.38830E-01
 -1       284 6.74718E-01-1.74836E+02 1.39105E+01 4.66050E+00-8.13766E-02 2.31193E-01
 -1       285 6.51743E-01-1.74852E+02 1.39129E+01 4.66120E+00 3.36035E-13-5.79999E-12
 -1       286 6.74718E-01-1.74836E+02 1.39105E+01 4.66050E+00 8.13766E-02-2.31193E-01
 -1       287-1.19338E+01-1.77326E+02 8.99099E+00-1.11236E+01 1.94125E-01 3.67677E-01
 -1       289-1.19338E+01-1.77326E+02 8.99099E+00-1.11236E+01-1.94125E-01-3.67677E-01
 -1       290-1.08516E+01-9.74007E+01 3.36477E+01-1.50879E+01 2.63309E-01 7.77055E-01
 -1       291-1.08666E+01-9.74055E+01 3.36643E+01-1.50950E+01-4.64276E-13-5.91766E-12
 -1       292-1.08516E+01-9.74007E+01 3.36477E+01-1.50879E+01-2.63309E-01-7.77055E-01
 -1       293 2.27740E+01-3.31042E+01 6.41335E+01-4.38321E+00 7.64757E-02 7.15801E-01
 -1       295 2.27740E+01-3.31042E+01 6.41335E+01-4.38321E+00-7.64757E-02-7.15801E-01
 -1       296 2.68233E+01-1.29235E+01 7.05658E+01 3.63525E+00-6.34794E-02 7.63829E-01
 -1       297 2.68161E+01-1.29228E+01 7.05848E+01 3.63609E+00 6.05539E-13-2.09309E-12
 -1       298 2.68233E+01-1.29235E+01 7.05658E+01 3.63525E+00 6.34794E-02-7.63829E-01
 -1       299 2.67479E+01-6.59318E+00 6.97382E+01 2.92113E+00-5.10009E-02 7.44314E-01
 -1       301 2.67479E+01-6.59318E+00 6.97382E+01 2.92113E+00 5.10009E-02-7.44314E-01
 -1       302 2.38782E+01-8.13666E+00 6.38148E+01 2.28660E+00-3.99170E-02 6.97370E-01
 -1       303 2.38726E+01-8.13524E+00 6.38326E+01 2.28695E+00-9.80300E-13-5.57242E-12
 -1       304 2.38782E+01-8.13666E+00 6.38148E+01 2.28660E+00 3.99170E-02-6.97370E-01
 -1       305 1.95298E+01-1.76232E+01 5.31538E+01 4.13661E+00-7.21959E-02 5.80560E-01
 -1       307 1.95298E+01-1.76232E+01 5.31538E+01 4.13661E+00 7.21959E-02-5.80560E-01
 -1       308 8.23619E-01-4.49964E+01 3.08613E+01 8.99289E+00-1.56952E-01 5.24533E-01
 -1       309 8.14374E-01-4.49982E+01 3.08737E+01 8.99658E+00 4.91745E-13 6.16243E-12
 -1       310 8.23619E-01-4.49964E+01 3.08613E+01 8.99289E+00 1.56952E-01-5.24533E-01
 -1       311-4.29339E+00-5.34760E+01 1.14592E+01 3.66225E+00-6.38996E-02 2.64960E-01
 -1       313-4.29339E+00-5.34760E+01 1.14592E+01 3.66225E+00 6.38996E-02-2.64960E-01
 -1       314 1.55023E+00-2.38936E+01 3.75507E+00 1.42487E+00-2.48356E-02 3.85511E-02
 -1       315 1.53729E+00-2.39000E+01 3.75496E+00 1.42301E+00-1.10177E-12-1.05277E-11
 -1       316 1.55023E+00-2.38936E+01 3.75507E+00 1.42487E+00 2.48356E-02-3.85511E-02
 -1       317 2.43459E+00-6.22330E+00-1.31734E+01-1.28799E+00 2.25351E-02-2.89431E-01
 -1       319 2.43459E+00-6.22330E+00-1.31734E+01-1.28799E+00-2.25351E-02 2.89431E-01
 -1       320 1.82884E+01 9.20293E+00 2.04079E+02 8.24342E+00-1.43903E-01 3.24583E+00
 -1       322 1.82884E+01 9.20293E+00 2.04079E+02 8.24342E+00 1.43903E-01-3.24583E+00
 -1       323 2.13331E+01-1.56941E+00 1.57959E+02 1.01342E+01-1.76922E-01 2.38577E+00
 -1       324 2.12932E+01-1.56945E+00 1.58015E+02 1.01357E+01 5.07733E-14 2.91575E-12
 -1       325 2.13331E+01-1.56941E+00 1.57959E+02 1.01342E+01 1.76922E-01-2.38577E+00
 -1       326 2.26480E+01-1.20844E+01 1.12100E+02 7.49834E+00-1.30899E-01 1.56362E+00
 -1       328 2.26480E+01-1.20844E+01 1.12100E+02 7.49834E+00 1.30899E-01-1.56362E+00
 -1       329 1.96890E+01 2.66760E+01 1.87799E+02 2.46102E+00-4.29371E-02 2.93725E+00
 -1       331 1.96890E+01 2.66760E+01 1.87799E+02 2.46102E+00 4.29371E-02-2.93725E+00
 -1       332 1.17705E+01 3.49925E-01 1.33670E+02-4.06740E+00 7.10130E-02 2.12862E+00
 -1       333 1.17343E+01 3.50155E-01 1.33719E+02-4.06822E+00-4.99126E-13 2.50056E-12
 -1       334 1.17705E+01 3.49925E-01 1.33670E+02-4.06740E+00-7.10130E-02-2.12862E+00
 -1       335 2.61724E+00-2.70902E+01 7.94301E+01 4.51315E-01-7.85820E-03 1.34307E+00
 -1       337 2.61724E+00-2.70902E+01 7.94301E+01 4.51315E-01 7.85820E-03-1.34307E+00
 -1       338 3.88813E+00 1.36071E+01 1.45191E+02 7.51261E+00-1.31087E-01 2.46915E+00
 -1       340 3.88813E+00 1.36071E+01 1.45191E+02 7.51261E+00 1.31087E-01-2.46915E+00
 -1       341 2.27767E+00 1.20421E+00 9.72270E+01 1.38463E+01-2.41647E-01 1.65802E+00
 -1       342 2.24903E+00 1.20470E+00 9.72656E+01 1.38463E+01-1.22343E-13-1.97081E-12
 -1       343 2.27767E+00 1.20421E+00 9.72270E+01 1.38463E+01 2.41647E-01-1.65802E+00
 -1       344-3.15668E-01-1.17302E+01 4.94083E+01 7.76114E+00-1.35426E-01 8.70055E-01
 -1       346-3.15668E-01-1.17302E+01 4.94083E+01 7.76114E+00 1.35426E-01-8.70055E-01
 -1       347 1.05839E+00 4.15834E-01 7.38584E+01 3.77611E+00-6.58582E-02 1.25388E+00
 -1       349 1.05839E+00 4.15834E-01 7.38584E+01 3.77611E+00 6.58582E-02-1.25388E+00
 -1       350-5.27795E-02-1.89232E-01 1.14558E+02 3.81468E+00-6.65596E-02 1.99099E+00
 -1       352-5.27795E-02-1.89232E-01 1.14558E+02 3.81468E+00 6.65596E-02-1.99099E+00
 -1       353 1.85209E+01 3.35996E+00 1.95312E+02-3.17270E-01 5.53573E-03 3.08864E+00
 -1       355 1.85209E+01 3.35996E+00 1.95312E+02-3.17270E-01-5.53573E-03-3.08864E+00
 -1       356 2.09289E+01-2.01589E+00 1.50572E+02-1.39262E+00 2.43055E-02 2.26384E+00
 -1       357 2.08912E+01-2.01594E+00 1.50625E+02-1.39248E+00-6.51980E-13-8.35690E-13
 -1       358 2.09289E+01-2.01589E+00 1.50572E+02-1.39262E+00-2.43055E-02-2.26384E+00
 -1       359 2.20890E+01-6.54991E+00 1.06384E+02 4.01789E-01-7.01652E-03 1.47352E+00
 -1       361 2.20890E+01-6.54991E+00 1.06384E+02 4.01789E-01 7.01652E-03-1.47352E+00
 -1       362 1.99479E+01-3.85306E-01 1.44241E+02-5.84378E+00 1.02009E-01 2.16420E+00
 -1       364 1.99479E+01-3.85306E-01 1.44241E+02-5.84378E+00-1.02009E-01-2.16420E+00
 -1       365 2.22822E+01-2.10957E-01 1.56100E+02 3.26966E+00-5.70832E-02 2.32981E+00
 -1       367 2.22822E+01-2.10957E-01 1.56100E+02 3.26966E+00 5.70832E-02-2.32981E+00
 -1       368 5.22773E+00 8.81237E+01 2.22872E+02 2.57556E+00-4.49844E-02 3.80306E+00
 -1       370 5.22773E+00 8.81237E+01 2.22872E+02 2.57556E+00 4.49844E-02-3.80306E+00
 -1       371 2.41896E+00 3.13555E+00 1.52832E+02-2.89147E+00 5.04386E-02 2.62653E+00
 -1       372 2.37317E+00 3.13576E+00 1.52892E+02-2.89162E+00-5.44387E-13-3.88979E-12
 -1       373 2.41896E+00 3.13555E+00 1.52832E+02-2.89147E+00-5.04386E-02-2.62653E+00
 -1       374-2.22074E+00-8.36349E+01 8.24885E+01 1.30494E+00-2.28056E-02 1.48182E+00
 -1       376-2.22074E+00-8.36349E+01 8.24885E+01 1.30494E+00 2.28056E-02-1.48182E+00
 -1       377 3.05314E+01 5.96632E+01 2.22350E+02 1.18439E+01-2.06765E-01 3.35143E+00
 -1       379 3.05314E+01 5.96632E+01 2.22350E+02 1.18439E+01 2.06765E-01-3.35143E+00
 -1       380 1.33848E+01 2.34451E-01 1.55693E+02 3.55572E+01-6.20690E-01 2.48500E+00
 -1       381 1.33423E+01 2.34562E-01 1.55751E+02 3.55588E+01-3.23803E-13-4.61115E-12
 -1       382 1.33848E+01 2.34451E-01 1.55693E+02 3.55572E+01 6.20690E-01-2.48500E+00
 -1       383-4.75841E+00-5.87264E+01 8.94903E+01 1.44065E+01-2.51496E-01 1.64770E+00
 -1       385-4.75841E+00-5.87264E+01 8.94903E+01 1.44065E+01 2.51496E-01-1.64770E+00
 -1       386 2.04615E+01-2.96487E-01 1.58677E+02 2.36369E+01-4.12605E-01 2.40796E+00
 -1       388 2.04615E+01-2.96487E-01 1.58677E+02 2.36369E+01 4.12605E-01-2.40796E+00
 -1       389 1.25234E+00 4.37256E-01 1.51426E+02 1.04536E+01-1.82503E-01 2.62535E+00
 -1       391 1.25234E+00 4.37256E-01 1.51426E+02 1.04536E+01 1.82503E-01-2.62535E+00
 -1       392 1.41385E+00 8.91793E+01 2.24693E+02 1.16637E+00-2.03785E-02 3.90126E+00
 -1       394 1.41385E+00 8.91793E+01 2.24693E+02 1.16637E+00 2.03785E-02-3.90126E+00
 -1       395 1.97090E+00 1.33996E+00 1.54852E+02 2.09807E+00-3.66427E-02 2.66963E+00
 -1       396 1.92421E+00 1.33998E+00 1.54913E+02 2.09834E+00-4.97599E-13-2.44481E-12
 -1       397 1.97090E+00 1.33996E+00 1.54852E+02 2.09807E+00 3.66427E-02-2.66963E+00
 -1       398 2.97814E-01-8.70498E+01 8.50669E+01 9.81003E-01-1.71437E-02 1.48268E+00
 -1       400 2.97814E-01-8.70498E+01 8.50669E+01 9.81003E-01 1.71437E-02-1.48268E+00
 -1       401 1.58714E+00 9.89189E-01 1.52902E+02 8.58162E-02-1.52333E-03 2.64470E+00
 -1       403 1.58714E+00 9.89189E-01 1.52902E+02 8.58162E-02 1.52333E-03-2.64470E+00
 -1       404 1.05920E+00 9.08748E+01 2.31001E+02 6.36696E-01-1.11236E-02 4.01767E+00
 -1       406 1.05920E+00 9.08748E+01 2.31001E+02 6.36696E-01 1.11236E-02-4.01767E+00
 -1       407 1.48420E+00 1.09750E+00 1.60599E+02 1.02933E+00-1.79778E-02 2.77847E+00
 -1       408 1.43566E+00 1.09758E+00 1.60662E+02 1.02941E+00-3.60717E-13-7.21119E-12
 -1       409 1.48420E+00 1.09750E+00 1.60599E+02 1.02933E+00 1.79778E-02-2.77847E+00
 -1       410 9.07478E-01-8.79850E+01 9.09896E+01 8.70547E-01-1.52055E-02 1.57554E+00
 -1       412 9.07478E-01-8.79850E+01 9.09896E+01 8.70547E-01 1.52055E-02-1.57554E+00
 -1       413 1.78195E+00 1.19168E+00 1.57326E+02 1.30324E+00-2.27635E-02 2.71871E+00
 -1       415 1.78195E+00 1.19168E+00 1.57326E+02 1.30324E+00 2.27635E-02-2.71871E+00
 -1       416 9.73060E-01 1.49507E+00 1.64853E+02 4.17140E-01-7.28644E-03 2.86444E+00
 -1       418 9.73060E-01 1.49507E+00 1.64853E+02 4.17140E-01 7.28644E-03-2.86444E+00
 -1       419 1.78604E+00-3.27357E+00-2.56298E+02 1.07359E+00-1.87888E-02-4.50663E+00
 -1       420 1.84413E+00-3.28248E+00-2.56401E+02 1.06726E+00-1.47774E-13-1.41016E-12
 -1       421 1.78604E+00-3.27357E+00-2.56298E+02 1.07359E+00 1.87888E-02 4.50663E+00
 -1       422-2.22866E-01-1.52322E-02-2.55346E+02-2.94288E-01 5.09568E-03-4.46065E+00
 -1       424-2.22866E-01-1.52322E-02-2.55346E+02-2.94288E-01-5.09568E-03 4.46065E+00
 -1       425 1.23804E+00 1.95911E+00-2.55488E+02-1.05638E-01 1.81614E-03-4.48292E+00
 -1       426 1.29650E+00 1.95044E+00-2.55591E+02-1.05694E-01 6.73097E-13 2.90106E-12
 -1       427 1.23804E+00 1.95911E+00-2.55488E+02-1.05638E-01-1.81614E-03 4.48292E+00
 -1       428-1.60393E-01-5.07052E-01-2.59693E+02-4.69102E-02 8.01452E-04-4.53759E+00
 -1       430-1.60393E-01-5.07052E-01-2.59693E+02-4.69102E-02-8.01453E-04 4.53759E+00
 -1       431 1.19212E+00 1.07557E+00-2.63596E+02 3.08399E-01-5.38973E-03-4.62370E+00
 -1       432 1.25286E+00 1.06681E+00-2.63702E+02 3.08443E-01-7.87967E-14-4.16002E-12
 -1       433 1.19212E+00 1.07557E+00-2.63596E+02 3.08399E-01 5.38973E-03 4.62370E+00
 -1       434 5.16088E-02-5.77223E-02-2.70927E+02 1.42817E-01-2.48693E-03-4.73754E+00
 -1       436 5.16088E-02-5.77223E-02-2.70927E+02 1.42817E-01 2.48693E-03 4.73754E+00
 -1       437 1.36684E+00-1.83489E+00-2.79475E+02-6.77607E-01 1.18428E-02-4.90402E+00
 -1       438 1.43194E+00-1.84382E+00-2.79586E+02-6.71202E-01 1.25701E-12-5.84671E-12
 -1       439 1.36684E+00-1.83489E+00-2.79475E+02-6.77607E-01-1.18428E-02 4.90402E+00
 -1       440 7.68044E+00 1.76440E+00-1.98467E+02-7.32151E-01 1.27967E-02-3.59365E+00
 -1       442 7.68044E+00 1.76440E+00-1.98467E+02-7.32151E-01-1.27967E-02 3.59365E+00
 -1       443 1.18275E+01 3.05265E+00-1.16992E+02-1.38324E+00 2.41608E-02-2.24946E+00
 -1       444 1.18675E+01 3.05230E+00-1.17042E+02-1.37649E+00-2.69376E-13-2.97734E-12
 -1       445 1.18275E+01 3.05265E+00-1.16992E+02-1.38324E+00-2.41608E-02 2.24946E+00
 -1       446 8.37683E+00-7.31156E+00-3.93529E+01 6.39979E+00-1.11684E-01-8.27201E-01
 -1       448 8.37683E+00-7.31156E+00-3.93529E+01 6.39979E+00 1.11684E-01 8.27201E-01
 -1       449 5.66150E+00-1.39511E+01-1.97185E+01-1.10165E+01 1.92236E-01-4.37206E-01
 -1       451 5.66150E+00-1.39511E+01-1.97185E+01-1.10165E+01-1.92236E-01 4.37206E-01
 -1       452 1.07633E+01 6.04111E+00-9.36426E+01 3.00195E+00-5.24462E-02-1.82315E+00
 -1       453 1.07962E+01 6.04069E+00-9.36829E+01 2.99534E+00-8.27774E-13-7.30334E-12
 -1       454 1.07633E+01 6.04111E+00-9.36426E+01 3.00195E+00 5.24462E-02 1.82315E+00
 -1       455 8.11514E+00 3.08457E+00-1.74820E+02 1.40626E+00-2.45958E-02-3.18834E+00
 -1       457 8.11514E+00 3.08457E+00-1.74820E+02 1.40626E+00 2.45958E-02 3.18834E+00
 -1       458 1.82633E+01-6.02543E+00-2.09093E+01 2.68061E+00-4.67911E-02-6.78009E-01
 -1       460 1.82633E+01-6.02543E+00-2.09093E+01 2.68061E+00 4.67911E-02 6.78009E-01
 -1       461 1.24935E+01-5.16021E+00-1.04111E+02 2.54933E+00-4.45036E-02-2.03615E+00
 -1       462 1.25301E+01-5.16051E+00-1.04156E+02 2.54970E+00-7.73929E-13-2.10059E-12
 -1       463 1.24935E+01-5.16021E+00-1.04111E+02 2.54933E+00 4.45036E-02 2.03615E+00
 -1       464 6.96206E+00-1.67269E+00-1.84597E+02 5.64877E-01-9.86537E-03-3.33904E+00
 -1       466 6.96206E+00-1.67269E+00-1.84597E+02 5.64877E-01 9.86537E-03 3.33904E+00
 -1       467 1.19241E+01-2.03835E+00-1.09945E+02 8.09853E-01-1.41272E-02-2.13452E+00
 -1       469 1.19241E+01-2.03835E+00-1.09945E+02 8.09853E-01 1.41272E-02 2.13452E+00
 -1       470 1.93316E+01-6.32116E+00-1.32044E+01-1.45753E+00 2.54117E-02-5.62348E-01
 -1       472 1.93316E+01-6.32116E+00-1.32044E+01-1.45753E+00-2.54117E-02 5.62348E-01
 -1       473 1.05757E+01-7.86233E+00-9.79144E+01-3.48388E+00 6.07839E-02-1.89447E+00
 -1       474 1.06101E+01-7.86264E+00-9.79560E+01-3.48431E+00 4.94112E-13 3.89956E-12
 -1       475 1.05757E+01-7.86233E+00-9.79144E+01-3.48388E+00-6.07839E-02 1.89447E+00
 -1       476 7.14791E+00-1.99550E+00-1.76926E+02-5.04081E-01 8.77138E-03-3.20840E+00
 -1       478 7.14791E+00-1.99550E+00-1.76926E+02-5.04081E-01-8.77138E-03 3.20840E+00
 -1       479 1.40177E+01-1.77851E+00-9.79152E+01-1.55701E-01 2.70239E-03-1.96075E+00
 -1       481 1.40177E+01-1.77851E+00-9.79152E+01-1.55701E-01-2.70239E-03 1.96075E+00
 -1       482 1.02259E+01-3.02261E+00-9.55579E+01-3.86492E-01 6.70573E-03-1.85374E+00
 -1       484 1.02259E+01-3.02261E+00-9.55579E+01-3.86492E-01-6.70573E-03 1.85374E+00
 -3
    1PSTEP                         4           1           1          
  100CL  101 1.000000000         288                     0    1           1
 -4  ERROR       1    1
 -5  STR(%)      1    1    0    0
 -1       122 1.32425E+01
 -1       123 1.32425E+01
 -1       124 1.32425E+01
 -1       125 9.21014E+00
 -1       127 9.21014E+00
 -1       128 5.17773E+00
 -1       129 5.17773E+00
 -1       130 5.17773E+00
 -1       131 5.17773E+00
 -1       133 5.17773E+00
 -1       134 5.17773E+00
 -1       135 5.17773E+00
 -1       136 5.17773E+00
 -1       137 7.10833E+00
 -1       139 7.10833E+00
 -1       140 9.03892E+00
 -1       141 9.03892E+00
 -1       142 9.03892E+00
 -1       143 2.59689E+00
 -1       144 2.59689E+00
 -1       145 2.59689E+00
 -1       146 2.59689E+00
 -1       148 2.59689E+00
 -1       149 2.59689E+00
 -1       150 2.59689E+00
 -1       151 2.59689E+00
 -1       152 2.51918E+00
 -1       154 2.51918E+00
 -1       155 2.44147E+00
 -1       156 2.44147E+00
 -1       157 2.44147E+00
 -1       158 2.42729E+00
 -1       160 2.42729E+00
 -1       161 2.41311E+00
 -1       162 2.41311E+00
 -1       163 2.41311E+00
 -1       164 3.28543E+00
 -1       166 3.28543E+00
 -1       167 4.15776E+00
 -1       168 4.15776E+00
 -1       169 4.15776E+00
 -1       170 6.59834E+00
 -1       172 6.59834E+00
 -1       173 8.98693E+00
 -1       175 8.98693E+00
 -1       176 4.73131E+00
 -1       177 4.73131E+00
 -1       178 4.73131E+00
 -1       179 3.66410E+00
 -1       181 3.66410E+00
 -1       182 5.17773E+00
 -1       184 5.17773E+00
 -1       185 5.17773E+00
 -1       186 5.17773E+00
 -1       187 5.17773E+00
 -1       188 3.80960E+00
 -1       190 3.80960E+00
 -1       191 4.66774E+00
 -1       193 4.66774E+00
 -1       194 4.95452E+00
 -1       196 4.95452E+00
 -1       197 5.17773E+00
 -1       198 5.17773E+00
 -1       199 5.17773E+00
 -1       200 5.17773E+00
 -1       202 5.17773E+00
 -1       203 5.17773E+00
 -1       205 5.17773E+00
 -1       206 3.88731E+00
 -1       208 3.88731E+00
 -1       209 3.87449E+01
 -1       210 3.87449E+01
 -1       211 3.87449E+01
 -1       212 3.87449E+01
 -1       214 3.87449E+01
 -1       215 3.87449E+01
 -1       216 3.87449E+01
 -1       217 3.87449E+01
 -1       218 2.94474E+01
 -1       220 2.94474E+01
 -1       221 2.01499E+01
 -1       222 2.01499E+01
 -1       223 2.01499E+01
 -1       224 2.01499E+01
 -1       226 2.01499E+01
 -1       227 2.01499E+01
 -1       228 2.01499E+01
 -1       229 2.01499E+01
 -1       230 1.66962E+01
 -1       232 1.66962E+01
 -1       233 9.03892E+00
 -1       235 9.03892E+00
 -1       236 9.03892E+00
 -1       237 9.03892E+00
 -1       238 9.03892E+00
 -1       239 8.15375E+00
 -1       241 8.15375E+00
 -1       242 7.26858E+00
 -1       243 7.26858E+00
 -1       244 7.26858E+00
 -1       245 7.26858E+00
 -1       247 7.26858E+00
 -1       248 7.26858E+00
 -1       249 7.26858E+00
 -1       250 7.26858E+00
 -1       251 7.12568E+00
 -1       253 7.12568E+00
 -1       254 6.98279E+00
 -1       255 6.98279E+00
 -1       256 6.98279E+00
 -1       257 2.02552E+01
 -1       259 2.02552E+01
 -1       260 3.35276E+01
 -1       261 3.35276E+01
 -1       262 3.35276E+01
 -1       263 3.35276E+01
 -1       265 3.35276E+01
 -1       266 3.35276E+01
 -1       267 3.35276E+01
 -1       268 3.35276E+01
 -1       269 3.35276E+01
 -1       271 3.35276E+01
 -1       272 3.35276E+01
 -1       273 3.35276E+01
 -1       274 3.35276E+01
 -1       275 3.33373E+01
 -1       277 3.33373E+01
 -1       278 3.31470E+01
 -1       279 3.31470E+01
 -1       280 3.31470E+01
 -1       281 3.37760E+01
 -1       283 3.37760E+01
 -1       284 3.44050E+01
 -1       285 3.44050E+01
 -1       286 3.44050E+01
 -1       287 3.44050E+01
 -1       289 3.44050E+01
 -1       290 3.44050E+01
 -1       291 3.44050E+01
 -1       292 3.44050E+01
 -1       293 3.47741E+01
 -1       295 3.47741E+01
 -1       296 3.51432E+01
 -1       297 3.51432E+01
 -1       298 3.51432E+01
 -1       299 3.51432E+01
 -1       301 3.51432E+01
 -1       302 3.51432E+01
 -1       303 3.51432E+01
 -1       304 3.51432E+01
 -1       305 3.45435E+01
 -1       307 3.45435E+01
 -1       308 3.39439E+01
 -1       309 3.39439E+01
 -1       310 3.39439E+01
 -1       311 3.63444E+01
 -1       313 3.63444E+01
 -1       314 3.87449E+01
 -1       315 3.87449E+01
 -1       316 3.87449E+01
 -1       317 3.87449E+01
 -1       319 3.87449E+01
 -1       320 9.98229E+00
 -1       322 9.98229E+00
 -1       323 1.47868E+01
 -1       324 1.47868E+01
 -1       325 1.47868E+01
 -1       326 2.49650E+01
 -1       328 2.49650E+01
 -1       329 2.28823E+01
 -1       331 2.28823E+01
 -1       332 3.25220E+01
 -1       333 3.25220E+01
 -1       334 3.25220E+01
 -1       335 3.32330E+01
 -1       337 3.32330E+01
 -1       338 2.94474E+01
 -1       340 2.94474E+01
 -1       341 3.87449E+01
 -1       342 3.87449E+01
 -1       343 3.87449E+01
 -1       344 3.87449E+01
 -1       346 3.87449E+01
 -1       347 3.87449E+01
 -1       349 3.87449E+01
 -1       350 3.56335E+01
 -1       352 3.56335E+01
 -1       353 1.19804E+01
 -1       355 1.19804E+01
 -1       356 1.87831E+01
 -1       357 1.87831E+01
 -1       358 1.87831E+01
 -1       359 2.69631E+01
 -1       361 2.69631E+01
 -1       362 2.56526E+01
 -1       364 2.56526E+01
 -1       365 1.67850E+01
 -1       367 1.67850E+01
 -1       368 2.17220E+01
 -1       370 2.17220E+01
 -1       371 3.44050E+01
 -1       372 3.44050E+01
 -1       373 3.44050E+01
 -1       374 3.44050E+01
 -1       376 3.44050E+01
 -1       377 2.17220E+01
 -1       379 2.17220E+01
 -1       380 3.44050E+01
 -1       381 3.44050E+01
 -1       382 3.44050E+01
 -1       383 3.44050E+01
 -1       385 3.44050E+01
 -1       386 2.45959E+01
 -1       388 2.45959E+01
 -1       389 3.44050E+01
 -1       391 3.44050E+01
 -1       392 2.02078E+01
 -1       394 2.02078E+01
 -1       395 3.31470E+01
 -1       396 3.31470E+01
 -1       397 3.31470E+01
 -1       398 3.31470E+01
 -1       400 3.31470E+01
 -1       401 3.37760E+01
 -1       403 3.37760E+01
 -1       404 2.03981E+01
 -1       406 2.03981E+01
 -1       407 3.35276E+01
 -1       408 3.35276E+01
 -1       409 3.35276E+01
 -1       410 3.35276E+01
 -1       412 3.35276E+01
 -1       413 3.33373E+01
 -1       415 3.33373E+01
 -1       416 3.35276E+01
 -1       418 3.35276E+01
 -1       419 1.41698E+01
 -1       420 1.41698E+01
 -1       421 1.41698E+01
 -1       422 1.43060E+01
 -1       424 1.43060E+01
 -1       425 1.44422E+01
 -1       426 1.44422E+01
 -1       427 1.44422E+01
 -1       428 1.44422E+01
 -1       430 1.44422E+01
 -1       431 1.44422E+01
 -1       432 1.44422E+01
 -1       433 1.44422E+01
 -1       434 1.40270E+01
 -1       436 1.40270E+01
 -1       437 1.36119E+01
 -1       438 1.36119E+01
 -1       439 1.36119E+01
 -1       440 2.37779E+01
 -1       442 2.37779E+01
 -1       443 3.39439E+01
 -1       444 3.39439E+01
 -1       445 3.39439E+01
 -1       446 3.39439E+01
 -1       448 3.39439E+01
 -1       449 3.31962E+01
 -1       451 3.31962E+01
 -1       452 3.19873E+01
 -1       453 3.19873E+01
 -1       454 3.19873E+01
 -1       455 2.30785E+01
 -1       457 2.30785E+01
 -1       458 3.51432E+01
 -1       460 3.51432E+01
 -1       461 3.51432E+01
 -1       462 3.51432E+01
 -1       463 3.51432E+01
 -1       464 2.47927E+01
 -1       466 2.47927E+01
 -1       467 3.45435E+01
 -1       469 3.45435E+01
 -1       470 3.51432E+01
 -1       472 3.51432E+01
 -1       473 3.51432E+01
 -1       474 3.51432E+01
 -1       475 3.51432E+01
 -1       476 2.47927E+01
 -1       478 2.47927E+01
 -1       479 3.51432E+01
 -1       481 3.51432E+01
 -1       482 3.35652E+01
 -1       484 3.35652E+01
 -3
 9999
