
                        S T E P       1


                                INCREMENT     1


 stresses (elem, integ.pnt.,sxx,syy,szz,sxy,sxz,syz) for set EALL and time  0.1000000E+01

         1   1  1.861961E-12  1.086965E-12  1.476652E-12  9.194868E-14 -4.816360E-14 -3.853088E-13
         1   2 -1.883853E-12  1.154832E-12  2.280108E-12 -2.517643E-14 -3.426183E-13  1.751404E-13
         1   3  1.948436E-12 -1.396744E-12 -6.086127E-13  2.627105E-13 -2.451965E-13 -4.903930E-13
         1   4  4.481404E-12 -7.224539E-14  1.652887E-12 -1.479936E-12 -3.940658E-14  1.050842E-13
         1   5 -2.283392E-12 -1.188765E-12 -1.565317E-12 -1.138412E-13 -3.502807E-14 -1.576263E-13
         1   6 -1.609102E-12 -6.064235E-13 -1.114330E-12  8.319167E-14 -3.995389E-13 -4.115798E-13
         1   7  3.818060E-12  2.084170E-12  9.282439E-13  3.152526E-13 -7.180754E-13  7.005614E-14
         1   8  3.673569E-12  1.887137E-12  6.436408E-13 -8.100241E-13 -1.405501E-12 -2.364395E-13
