
                        S T E P       2


                                INCREMENT     1


 stresses (elem, integ.pnt.,sxx,syy,szz,sxy,sxz,syz) for set EALL and time  0.2000000E+01

         1   1  3.052324E+02 -4.806505E+02 -4.203831E+02 -2.655218E+02  1.570429E+02 -7.671105E+02
         1   2 -3.052324E+02  1.330349E+02  2.436901E+02 -1.285634E+02 -2.366169E+02  4.724482E+01
         1   3 -3.052324E+02  2.410437E+02  4.857881E+01  2.546236E+02  2.370422E+02 -7.978482E+00
         1   4  3.052324E+02  1.145500E+02  6.986210E+01  1.394616E+02 -1.574683E+02 -2.684211E+01
         1   5  9.684384E+02  1.538244E+03  1.718172E+03  1.210073E+02  2.838412E+02  2.409917E+03
         1   6 -9.684384E+02 -7.520608E+02 -7.617704E+02 -3.901281E+02  1.313279E+01 -6.292982E+02
         1   7 -9.684384E+02 -6.846919E+02 -3.201781E+01 -8.033484E+01 -1.472036E+01 -4.232020E+02
         1   8  9.684384E+02 -2.126110E+02 -1.130357E+02  3.494557E+02 -2.822536E+02 -3.528020E+02
