
                        S T E P       1


                                INCREMENT     1


 displacements (v(i),i=1..ndof) for set NALL and time  0.1000000E+01

         1 -9.891993E+00  2.231520E+01  0.000000E+00  0.000000E+00  0.000000E+00  8.666687E-01
         2 -1.143996E+00  5.287002E+00  0.000000E+00  0.000000E+00  0.000000E+00  3.835207E-01
         3  1.804067E+00  4.706545E+00  0.000000E+00  0.000000E+00  0.000000E+00  8.800262E-02
         4 -8.461818E+00  2.213036E+01  0.000000E+00  0.000000E+00  0.000000E+00  8.251640E-01
         5 -7.084771E+00  2.196699E+01  0.000000E+00  0.000000E+00  0.000000E+00  8.109545E-01
         6 -5.729629E+00  2.183510E+01  0.000000E+00  0.000000E+00  0.000000E+00  7.927958E-01
         7 -4.354502E+00  2.179876E+01  0.000000E+00  0.000000E+00  0.000000E+00  1.089955E+00
         8  0.000000E+00  0.000000E+00  0.000000E+00  0.000000E+00  0.000000E+00  0.000000E+00
         9 -7.915765E+00  5.801449E+00  0.000000E+00  0.000000E+00  0.000000E+00  4.325827E-01
        10  0.000000E+00  0.000000E+00  0.000000E+00  0.000000E+00  0.000000E+00  0.000000E+00
        11  0.000000E+00  0.000000E+00  0.000000E+00  0.000000E+00  0.000000E+00  0.000000E+00
        12 -1.140197E+01  2.250544E+01  0.000000E+00  0.000000E+00  0.000000E+00  9.180672E-01
        13 -1.301555E+01  2.268614E+01  0.000000E+00  0.000000E+00  0.000000E+00  9.823321E-01
        14 -1.475019E+01  2.283513E+01  0.000000E+00  0.000000E+00  0.000000E+00  1.028904E+00
        15 -1.667256E+01  2.297854E+01  0.000000E+00  0.000000E+00  0.000000E+00  1.456007E+00
        16 -7.104550E+00  1.686722E+01  0.000000E+00  0.000000E+00  0.000000E+00  7.474416E-01
        17 -4.645001E+00  1.217244E+01  0.000000E+00  0.000000E+00  0.000000E+00  6.433405E-01
        18 -2.641228E+00  8.314912E+00  0.000000E+00  0.000000E+00  0.000000E+00  5.093341E-01
        19 -3.674811E-02  5.171807E+00  0.000000E+00  0.000000E+00  0.000000E+00  3.431912E-01
        20  8.283534E-01  5.050529E+00  0.000000E+00  0.000000E+00  0.000000E+00  2.867256E-01
        21  1.445972E+00  4.904731E+00  0.000000E+00  0.000000E+00  0.000000E+00  2.654384E-01
        22  1.688477E+00  7.641442E+00  0.000000E+00  0.000000E+00  0.000000E+00  2.323771E-01
        23  7.675185E-01  1.150595E+01  0.000000E+00  0.000000E+00  0.000000E+00  3.761844E-01
        24 -1.172806E+00  1.626277E+01  0.000000E+00  0.000000E+00  0.000000E+00  4.957747E-01
        25  2.737878E-01  5.266599E-01  0.000000E+00  0.000000E+00  0.000000E+00  6.436449E-02
        26  2.797927E-01  1.469520E+00  0.000000E+00  0.000000E+00  0.000000E+00  1.515005E-01
        27 -1.678756E-01  3.027092E+00  0.000000E+00  0.000000E+00  0.000000E+00  2.679222E-01
        28 -2.489666E+00  5.406827E+00  0.000000E+00  0.000000E+00  0.000000E+00  4.191367E-01
        29 -4.066968E+00  5.532688E+00  0.000000E+00  0.000000E+00  0.000000E+00  4.538567E-01
        30 -5.874265E+00  5.663368E+00  0.000000E+00  0.000000E+00  0.000000E+00  4.983853E-01
        31 -5.870836E+00  3.495373E+00  0.000000E+00  0.000000E+00  0.000000E+00  3.041698E-01
        32 -3.958768E+00  1.827743E+00  0.000000E+00  0.000000E+00  0.000000E+00  2.011398E-01
        33 -2.109177E+00  7.123729E-01  0.000000E+00  0.000000E+00  0.000000E+00  1.518519E-01
        34  0.000000E+00  0.000000E+00  0.000000E+00  0.000000E+00  0.000000E+00  0.000000E+00
        35  0.000000E+00  0.000000E+00  0.000000E+00  0.000000E+00  0.000000E+00  0.000000E+00
        36  0.000000E+00  0.000000E+00  0.000000E+00  0.000000E+00  0.000000E+00  0.000000E+00
        37  0.000000E+00  0.000000E+00  0.000000E+00  0.000000E+00  0.000000E+00  0.000000E+00
        38  0.000000E+00  0.000000E+00  0.000000E+00  0.000000E+00  0.000000E+00  0.000000E+00
        39  0.000000E+00  0.000000E+00  0.000000E+00  0.000000E+00  0.000000E+00  0.000000E+00
        40  2.764030E-01  5.816829E-01  0.000000E+00  0.000000E+00  0.000000E+00 -2.420084E-02
        41  7.683310E-01  1.398162E+00  0.000000E+00  0.000000E+00  0.000000E+00 -8.736401E-02
        42  1.382011E+00  2.675266E+00  0.000000E+00  0.000000E+00  0.000000E+00 -3.248725E-02
        43 -1.454267E+01  1.727723E+01  0.000000E+00  0.000000E+00  0.000000E+00  7.870368E-01
        44 -1.232291E+01  1.264215E+01  0.000000E+00  0.000000E+00  0.000000E+00  7.167997E-01
        45 -1.008608E+01  8.830386E+00  0.000000E+00  0.000000E+00  0.000000E+00  5.704358E-01
        46 -5.535549E+00  1.671133E+01  0.000000E+00  0.000000E+00  0.000000E+00  7.490705E-01
        47 -3.084265E+00  1.201313E+01  0.000000E+00  0.000000E+00  0.000000E+00  6.079885E-01
        48 -1.248082E+00  8.165991E+00  0.000000E+00  0.000000E+00  0.000000E+00  4.721755E-01
        49 -4.022548E+00  1.655205E+01  0.000000E+00  0.000000E+00  0.000000E+00  7.603183E-01
        50 -1.650660E+00  1.184988E+01  0.000000E+00  0.000000E+00  0.000000E+00  5.866180E-01
        51 -5.160829E-02  8.010525E+00  0.000000E+00  0.000000E+00  0.000000E+00  4.206488E-01
        52 -2.555271E+00  1.640038E+01  0.000000E+00  0.000000E+00  0.000000E+00  6.921980E-01
        53 -3.550272E-01  1.168386E+01  0.000000E+00  0.000000E+00  0.000000E+00  5.936733E-01
        54  9.322592E-01  7.841513E+00  0.000000E+00  0.000000E+00  0.000000E+00  4.178211E-01
        55  2.910034E-02  4.386431E-01  0.000000E+00  0.000000E+00  0.000000E+00  8.576563E-02
        56 -3.201717E-01  1.446104E+00  0.000000E+00  0.000000E+00  0.000000E+00  2.031012E-01
        57 -1.173467E+00  3.094513E+00  0.000000E+00  0.000000E+00  0.000000E+00  3.170861E-01
        58 -3.379972E-01  3.861077E-01  0.000000E+00  0.000000E+00  0.000000E+00  1.213243E-01
        59 -1.170951E+00  1.487436E+00  0.000000E+00  0.000000E+00  0.000000E+00  2.727791E-01
        60 -2.461136E+00  3.199763E+00  0.000000E+00  0.000000E+00  0.000000E+00  3.452950E-01
        61 -9.088379E-01  4.298415E-01  0.000000E+00  0.000000E+00  0.000000E+00  2.863197E-01
        62 -2.385926E+00  1.632876E+00  0.000000E+00  0.000000E+00  0.000000E+00  2.801897E-01
        63 -4.029676E+00  3.335764E+00  0.000000E+00  0.000000E+00  0.000000E+00  3.851442E-01
        64  5.816419E-01  2.981441E+00  0.000000E+00  0.000000E+00  0.000000E+00  2.186563E-01
        65  6.791933E-01  1.514910E+00  0.000000E+00  0.000000E+00  0.000000E+00  1.130523E-01
        66  4.136982E-01  6.138523E-01  0.000000E+00  0.000000E+00  0.000000E+00  5.079294E-02
        67  1.091013E+00  2.930213E+00  0.000000E+00  0.000000E+00  0.000000E+00  1.629861E-01
        68  8.919272E-01  1.543164E+00  0.000000E+00  0.000000E+00  0.000000E+00  7.181419E-02
        69  4.534515E-01  6.702540E-01  0.000000E+00  0.000000E+00  0.000000E+00  3.634959E-02
        70  1.361419E+00  2.841109E+00  0.000000E+00  0.000000E+00  0.000000E+00  1.406096E-01
        71  9.200521E-01  1.516862E+00  0.000000E+00  0.000000E+00  0.000000E+00  6.827567E-02
        72  3.984156E-01  6.679253E-01  0.000000E+00  0.000000E+00  0.000000E+00  6.252818E-02
        73 -4.217526E+00  8.457784E+00  0.000000E+00  0.000000E+00  0.000000E+00  5.416166E-01
        74 -6.330855E+00  1.232054E+01  0.000000E+00  0.000000E+00  0.000000E+00  6.736780E-01
        75 -8.757798E+00  1.700907E+01  0.000000E+00  0.000000E+00  0.000000E+00  7.596964E-01
        76 -5.975600E+00  8.591906E+00  0.000000E+00  0.000000E+00  0.000000E+00  5.745160E-01
        77 -8.155628E+00  1.244997E+01  0.000000E+00  0.000000E+00  0.000000E+00  7.033149E-01
        78 -1.052744E+01  1.712859E+01  0.000000E+00  0.000000E+00  0.000000E+00  7.867525E-01
        79 -7.925689E+00  8.715195E+00  0.000000E+00  0.000000E+00  0.000000E+00  6.181613E-01
        80 -1.014382E+01  1.255664E+01  0.000000E+00  0.000000E+00  0.000000E+00  7.430227E-01
        81 -1.244621E+01  1.721933E+01  0.000000E+00  0.000000E+00  0.000000E+00  8.323778E-01

 stresses (elem, integ.pnt.,sxx,syy,szz,sxy,sxz,syz) for set EALL and time  0.1000000E+01

         1   1  1.134959E-02  9.360998E-02  0.000000E+00  5.311035E-02  0.000000E+00  0.000000E+00
         1   2  1.134959E-02  9.360998E-02  0.000000E+00  5.311035E-02  0.000000E+00  0.000000E+00
         1   3  1.134959E-02  9.360998E-02  0.000000E+00  5.311035E-02  0.000000E+00  0.000000E+00
         2   1 -1.755293E-02  5.801814E-02  0.000000E+00  7.939594E-02  0.000000E+00  0.000000E+00
         2   2 -1.755293E-02  5.801814E-02  0.000000E+00  7.939594E-02  0.000000E+00  0.000000E+00
         2   3 -1.755293E-02  5.801814E-02  0.000000E+00  7.939594E-02  0.000000E+00  0.000000E+00
         3   1  1.337498E-02  6.849450E-02  0.000000E+00  3.866302E-02  0.000000E+00  0.000000E+00
         3   2  1.337498E-02  6.849450E-02  0.000000E+00  3.866302E-02  0.000000E+00  0.000000E+00
         3   3  1.337498E-02  6.849450E-02  0.000000E+00  3.866302E-02  0.000000E+00  0.000000E+00
         4   1 -9.309826E-03  5.384456E-02  0.000000E+00  7.310474E-02  0.000000E+00  0.000000E+00
         4   2 -9.309826E-03  5.384456E-02  0.000000E+00  7.310474E-02  0.000000E+00  0.000000E+00
         4   3 -9.309826E-03  5.384456E-02  0.000000E+00  7.310474E-02  0.000000E+00  0.000000E+00
         5   1  2.413615E-02  6.191911E-02  0.000000E+00  2.679609E-02  0.000000E+00  0.000000E+00
         5   2  2.413615E-02  6.191911E-02  0.000000E+00  2.679609E-02  0.000000E+00  0.000000E+00
         5   3  2.413615E-02  6.191911E-02  0.000000E+00  2.679609E-02  0.000000E+00  0.000000E+00
         6   1  5.554020E-03  4.821094E-02  0.000000E+00  6.869000E-02  0.000000E+00  0.000000E+00
         6   2  5.554020E-03  4.821094E-02  0.000000E+00  6.869000E-02  0.000000E+00  0.000000E+00
         6   3  5.554020E-03  4.821094E-02  0.000000E+00  6.869000E-02  0.000000E+00  0.000000E+00
         7   1  2.973146E-02  5.346565E-02  0.000000E+00  2.303541E-02  0.000000E+00  0.000000E+00
         7   2  2.973146E-02  5.346565E-02  0.000000E+00  2.303541E-02  0.000000E+00  0.000000E+00
         7   3  2.973146E-02  5.346565E-02  0.000000E+00  2.303541E-02  0.000000E+00  0.000000E+00
         8   1  1.847596E-02  3.822159E-02  0.000000E+00  6.628323E-02  0.000000E+00  0.000000E+00
         8   2  1.847596E-02  3.822159E-02  0.000000E+00  6.628323E-02  0.000000E+00  0.000000E+00
         8   3  1.847596E-02  3.822159E-02  0.000000E+00  6.628323E-02  0.000000E+00  0.000000E+00
         9   1  2.030491E-02  8.756412E-02  0.000000E+00  6.054615E-02  0.000000E+00  0.000000E+00
         9   2  2.030491E-02  8.756412E-02  0.000000E+00  6.054615E-02  0.000000E+00  0.000000E+00
         9   3  2.030491E-02  8.756412E-02  0.000000E+00  6.054615E-02  0.000000E+00  0.000000E+00
        10   1 -1.022997E-02  6.136151E-02  0.000000E+00  8.614131E-02  0.000000E+00  0.000000E+00
        10   2 -1.022997E-02  6.136151E-02  0.000000E+00  8.614131E-02  0.000000E+00  0.000000E+00
        10   3 -1.022997E-02  6.136151E-02  0.000000E+00  8.614131E-02  0.000000E+00  0.000000E+00
        11   1  4.914305E-02  8.230611E-02  0.000000E+00  4.584360E-02  0.000000E+00  0.000000E+00
        11   2  4.914305E-02  8.230611E-02  0.000000E+00  4.584360E-02  0.000000E+00  0.000000E+00
        11   3  4.914305E-02  8.230611E-02  0.000000E+00  4.584360E-02  0.000000E+00  0.000000E+00
        12   1  1.350600E-02  6.221266E-02  0.000000E+00  8.756240E-02  0.000000E+00  0.000000E+00
        12   2  1.350600E-02  6.221266E-02  0.000000E+00  8.756240E-02  0.000000E+00  0.000000E+00
        12   3  1.350600E-02  6.221266E-02  0.000000E+00  8.756240E-02  0.000000E+00  0.000000E+00
        13   1  6.544699E-02  7.766801E-02  0.000000E+00  4.086795E-02  0.000000E+00  0.000000E+00
        13   2  6.544699E-02  7.766801E-02  0.000000E+00  4.086795E-02  0.000000E+00  0.000000E+00
        13   3  6.544699E-02  7.766801E-02  0.000000E+00  4.086795E-02  0.000000E+00  0.000000E+00
        14   1  3.502208E-02  6.055150E-02  0.000000E+00  8.803122E-02  0.000000E+00  0.000000E+00
        14   2  3.502208E-02  6.055150E-02  0.000000E+00  8.803122E-02  0.000000E+00  0.000000E+00
        14   3  3.502208E-02  6.055150E-02  0.000000E+00  8.803122E-02  0.000000E+00  0.000000E+00
        15   1  7.141325E-02  6.879307E-02  0.000000E+00  4.163142E-02  0.000000E+00  0.000000E+00
        15   2  7.141325E-02  6.879307E-02  0.000000E+00  4.163142E-02  0.000000E+00  0.000000E+00
        15   3  7.141325E-02  6.879307E-02  0.000000E+00  4.163142E-02  0.000000E+00  0.000000E+00
        16   1  4.999061E-02  5.088639E-02  0.000000E+00  8.684271E-02  0.000000E+00  0.000000E+00
        16   2  4.999061E-02  5.088639E-02  0.000000E+00  8.684271E-02  0.000000E+00  0.000000E+00
        16   3  4.999061E-02  5.088639E-02  0.000000E+00  8.684271E-02  0.000000E+00  0.000000E+00
        17   1  3.618149E-02  7.687114E-02  0.000000E+00  6.644606E-02  0.000000E+00  0.000000E+00
        17   2  3.618149E-02  7.687114E-02  0.000000E+00  6.644606E-02  0.000000E+00  0.000000E+00
        17   3  3.618149E-02  7.687114E-02  0.000000E+00  6.644606E-02  0.000000E+00  0.000000E+00
        18   1  3.967865E-03  6.704005E-02  0.000000E+00  9.152903E-02  0.000000E+00  0.000000E+00
        18   2  3.967865E-03  6.704005E-02  0.000000E+00  9.152903E-02  0.000000E+00  0.000000E+00
        18   3  3.967865E-03  6.704005E-02  0.000000E+00  9.152903E-02  0.000000E+00  0.000000E+00
        19   1  9.481083E-02  9.033431E-02  0.000000E+00  5.383284E-02  0.000000E+00  0.000000E+00
        19   2  9.481083E-02  9.033431E-02  0.000000E+00  5.383284E-02  0.000000E+00  0.000000E+00
        19   3  9.481083E-02  9.033431E-02  0.000000E+00  5.383284E-02  0.000000E+00  0.000000E+00
        20   1  3.958843E-02  7.063760E-02  0.000000E+00  1.060594E-01  0.000000E+00  0.000000E+00
        20   2  3.958843E-02  7.063760E-02  0.000000E+00  1.060594E-01  0.000000E+00  0.000000E+00
        20   3  3.958843E-02  7.063760E-02  0.000000E+00  1.060594E-01  0.000000E+00  0.000000E+00
        21   1  1.085677E-01  9.424418E-02  0.000000E+00  5.679774E-02  0.000000E+00  0.000000E+00
        21   2  1.085677E-01  9.424418E-02  0.000000E+00  5.679774E-02  0.000000E+00  0.000000E+00
        21   3  1.085677E-01  9.424418E-02  0.000000E+00  5.679774E-02  0.000000E+00  0.000000E+00
        22   1  6.439421E-02  7.259385E-02  0.000000E+00  1.098505E-01  0.000000E+00  0.000000E+00
        22   2  6.439421E-02  7.259385E-02  0.000000E+00  1.098505E-01  0.000000E+00  0.000000E+00
        22   3  6.439421E-02  7.259385E-02  0.000000E+00  1.098505E-01  0.000000E+00  0.000000E+00
        23   1  1.085943E-01  8.711379E-02  0.000000E+00  6.097991E-02  0.000000E+00  0.000000E+00
        23   2  1.085943E-01  8.711379E-02  0.000000E+00  6.097991E-02  0.000000E+00  0.000000E+00
        23   3  1.085943E-01  8.711379E-02  0.000000E+00  6.097991E-02  0.000000E+00  0.000000E+00
        24   1  7.838053E-02  6.571597E-02  0.000000E+00  1.069879E-01  0.000000E+00  0.000000E+00
        24   2  7.838053E-02  6.571597E-02  0.000000E+00  1.069879E-01  0.000000E+00  0.000000E+00
        24   3  7.838053E-02  6.571597E-02  0.000000E+00  1.069879E-01  0.000000E+00  0.000000E+00
        25   1  7.116303E-02  6.046238E-02  0.000000E+00  7.054712E-02  0.000000E+00  0.000000E+00
        25   2  7.116303E-02  6.046238E-02  0.000000E+00  7.054712E-02  0.000000E+00  0.000000E+00
        25   3  7.116303E-02  6.046238E-02  0.000000E+00  7.054712E-02  0.000000E+00  0.000000E+00
        26   1  3.422388E-02  7.793419E-02  0.000000E+00  1.007666E-01  0.000000E+00  0.000000E+00
        26   2  3.422388E-02  7.793419E-02  0.000000E+00  1.007666E-01  0.000000E+00  0.000000E+00
        26   3  3.422388E-02  7.793419E-02  0.000000E+00  1.007666E-01  0.000000E+00  0.000000E+00
        27   1  1.399530E-01  9.303122E-02  0.000000E+00  6.907800E-02  0.000000E+00  0.000000E+00
        27   2  1.399530E-01  9.303122E-02  0.000000E+00  6.907800E-02  0.000000E+00  0.000000E+00
        27   3  1.399530E-01  9.303122E-02  0.000000E+00  6.907800E-02  0.000000E+00  0.000000E+00
        28   1  6.898199E-02  9.433103E-02  0.000000E+00  1.246393E-01  0.000000E+00  0.000000E+00
        28   2  6.898199E-02  9.433103E-02  0.000000E+00  1.246393E-01  0.000000E+00  0.000000E+00
        28   3  6.898199E-02  9.433103E-02  0.000000E+00  1.246393E-01  0.000000E+00  0.000000E+00
        29   1  1.449645E-01  1.007464E-01  0.000000E+00  7.948135E-02  0.000000E+00  0.000000E+00
        29   2  1.449645E-01  1.007464E-01  0.000000E+00  7.948135E-02  0.000000E+00  0.000000E+00
        29   3  1.449645E-01  1.007464E-01  0.000000E+00  7.948135E-02  0.000000E+00  0.000000E+00
        30   1  9.098566E-02  9.772527E-02  0.000000E+00  1.309996E-01  0.000000E+00  0.000000E+00
        30   2  9.098566E-02  9.772527E-02  0.000000E+00  1.309996E-01  0.000000E+00  0.000000E+00
        30   3  9.098566E-02  9.772527E-02  0.000000E+00  1.309996E-01  0.000000E+00  0.000000E+00
        31   1  1.380781E-01  9.942696E-02  0.000000E+00  8.274053E-02  0.000000E+00  0.000000E+00
        31   2  1.380781E-01  9.942696E-02  0.000000E+00  8.274053E-02  0.000000E+00  0.000000E+00
        31   3  1.380781E-01  9.942696E-02  0.000000E+00  8.274053E-02  0.000000E+00  0.000000E+00
        32   1  1.008951E-01  9.239572E-02  0.000000E+00  1.259049E-01  0.000000E+00  0.000000E+00
        32   2  1.008951E-01  9.239572E-02  0.000000E+00  1.259049E-01  0.000000E+00  0.000000E+00
        32   3  1.008951E-01  9.239572E-02  0.000000E+00  1.259049E-01  0.000000E+00  0.000000E+00
        33   1  5.183804E-02  1.727933E-02  0.000000E+00  3.191056E-02  0.000000E+00  0.000000E+00
        33   2  5.183804E-02  1.727933E-02  0.000000E+00  3.191056E-02  0.000000E+00  0.000000E+00
        33   3  5.183804E-02  1.727933E-02  0.000000E+00  3.191056E-02  0.000000E+00  0.000000E+00
        34   1  2.860709E-02 -8.378768E-03  0.000000E+00  1.411415E-02  0.000000E+00  0.000000E+00
        34   2  2.860709E-02 -8.378768E-03  0.000000E+00  1.411415E-02  0.000000E+00  0.000000E+00
        34   3  2.860709E-02 -8.378768E-03  0.000000E+00  1.411415E-02  0.000000E+00  0.000000E+00
        35   1  2.922359E-02 -7.116422E-03  0.000000E+00  4.360382E-02  0.000000E+00  0.000000E+00
        35   2  2.922359E-02 -7.116422E-03  0.000000E+00  4.360382E-02  0.000000E+00  0.000000E+00
        35   3  2.922359E-02 -7.116422E-03  0.000000E+00  4.360382E-02  0.000000E+00  0.000000E+00
        36   1  1.259993E-02 -2.257601E-03  0.000000E+00  1.697329E-02  0.000000E+00  0.000000E+00
        36   2  1.259993E-02 -2.257601E-03  0.000000E+00  1.697329E-02  0.000000E+00  0.000000E+00
        36   3  1.259993E-02 -2.257601E-03  0.000000E+00  1.697329E-02  0.000000E+00  0.000000E+00
        37   1  6.305960E-03 -1.566360E-03  0.000000E+00  4.822258E-02  0.000000E+00  0.000000E+00
        37   2  6.305960E-03 -1.566360E-03  0.000000E+00  4.822258E-02  0.000000E+00  0.000000E+00
        37   3  6.305960E-03 -1.566360E-03  0.000000E+00  4.822258E-02  0.000000E+00  0.000000E+00
        38   1 -5.671597E-03  1.274227E-02  0.000000E+00  1.125977E-02  0.000000E+00  0.000000E+00
        38   2 -5.671597E-03  1.274227E-02  0.000000E+00  1.125977E-02  0.000000E+00  0.000000E+00
        38   3 -5.671597E-03  1.274227E-02  0.000000E+00  1.125977E-02  0.000000E+00  0.000000E+00
        39   1 -6.884822E-03  1.527302E-02  0.000000E+00  4.569189E-02  0.000000E+00  0.000000E+00
        39   2 -6.884822E-03  1.527302E-02  0.000000E+00  4.569189E-02  0.000000E+00  0.000000E+00
        39   3 -6.884822E-03  1.527302E-02  0.000000E+00  4.569189E-02  0.000000E+00  0.000000E+00
        40   1 -1.300473E-02  2.643134E-02  0.000000E+00  4.866916E-03  0.000000E+00  0.000000E+00
        40   2 -1.300473E-02  2.643134E-02  0.000000E+00  4.866916E-03  0.000000E+00  0.000000E+00
        40   3 -1.300473E-02  2.643134E-02  0.000000E+00  4.866916E-03  0.000000E+00  0.000000E+00
        41   1  5.833212E-03  1.944402E-03  0.000000E+00  2.607511E-02  0.000000E+00  0.000000E+00
        41   2  5.833212E-03  1.944402E-03  0.000000E+00  2.607511E-02  0.000000E+00  0.000000E+00
        41   3  5.833212E-03  1.944402E-03  0.000000E+00  2.607511E-02  0.000000E+00  0.000000E+00
        42   1 -2.826006E-02 -2.067537E-02  0.000000E+00  4.596214E-04  0.000000E+00  0.000000E+00
        42   2 -2.826006E-02 -2.067537E-02  0.000000E+00  4.596214E-04  0.000000E+00  0.000000E+00
        42   3 -2.826006E-02 -2.067537E-02  0.000000E+00  4.596214E-04  0.000000E+00  0.000000E+00
        43   1 -2.391633E-02 -1.747147E-02  0.000000E+00  3.628103E-02  0.000000E+00  0.000000E+00
        43   2 -2.391633E-02 -1.747147E-02  0.000000E+00  3.628103E-02  0.000000E+00  0.000000E+00
        43   3 -2.391633E-02 -1.747147E-02  0.000000E+00  3.628103E-02  0.000000E+00  0.000000E+00
        44   1 -5.395900E-02 -1.093292E-02  0.000000E+00  1.996170E-04  0.000000E+00  0.000000E+00
        44   2 -5.395900E-02 -1.093292E-02  0.000000E+00  1.996170E-04  0.000000E+00  0.000000E+00
        44   3 -5.395900E-02 -1.093292E-02  0.000000E+00  1.996170E-04  0.000000E+00  0.000000E+00
        45   1 -4.195082E-02 -3.163821E-03  0.000000E+00  3.072122E-02  0.000000E+00  0.000000E+00
        45   2 -4.195082E-02 -3.163821E-03  0.000000E+00  3.072122E-02  0.000000E+00  0.000000E+00
        45   3 -4.195082E-02 -3.163821E-03  0.000000E+00  3.072122E-02  0.000000E+00  0.000000E+00
        46   1 -6.706321E-02  1.937942E-03  0.000000E+00 -1.181458E-02  0.000000E+00  0.000000E+00
        46   2 -6.706321E-02  1.937942E-03  0.000000E+00 -1.181458E-02  0.000000E+00  0.000000E+00
        46   3 -6.706321E-02  1.937942E-03  0.000000E+00 -1.181458E-02  0.000000E+00  0.000000E+00
        47   1 -4.552752E-02  1.080061E-02  0.000000E+00  2.250004E-02  0.000000E+00  0.000000E+00
        47   2 -4.552752E-02  1.080061E-02  0.000000E+00  2.250004E-02  0.000000E+00  0.000000E+00
        47   3 -4.552752E-02  1.080061E-02  0.000000E+00  2.250004E-02  0.000000E+00  0.000000E+00
        48   1 -6.257149E-02  1.154842E-02  0.000000E+00 -1.638352E-02  0.000000E+00  0.000000E+00
        48   2 -6.257149E-02  1.154842E-02  0.000000E+00 -1.638352E-02  0.000000E+00  0.000000E+00
        48   3 -6.257149E-02  1.154842E-02  0.000000E+00 -1.638352E-02  0.000000E+00  0.000000E+00
        49   1 -6.325598E-02 -2.108531E-02  0.000000E+00  2.223605E-02  0.000000E+00  0.000000E+00
        49   2 -6.325598E-02 -2.108531E-02  0.000000E+00  2.223605E-02  0.000000E+00  0.000000E+00
        49   3 -6.325598E-02 -2.108531E-02  0.000000E+00  2.223605E-02  0.000000E+00  0.000000E+00
        50   1 -1.145657E-01 -3.362372E-02  0.000000E+00 -1.359849E-02  0.000000E+00  0.000000E+00
        50   2 -1.145657E-01 -3.362372E-02  0.000000E+00 -1.359849E-02  0.000000E+00  0.000000E+00
        50   3 -1.145657E-01 -3.362372E-02  0.000000E+00 -1.359849E-02  0.000000E+00  0.000000E+00
        51   1 -9.287451E-02 -1.824540E-02  0.000000E+00  2.374372E-02  0.000000E+00  0.000000E+00
        51   2 -9.287451E-02 -1.824540E-02  0.000000E+00  2.374372E-02  0.000000E+00  0.000000E+00
        51   3 -9.287451E-02 -1.824540E-02  0.000000E+00  2.374372E-02  0.000000E+00  0.000000E+00
        52   1 -1.450658E-01 -1.710893E-02  0.000000E+00 -2.826304E-02  0.000000E+00  0.000000E+00
        52   2 -1.450658E-01 -1.710893E-02  0.000000E+00 -2.826304E-02  0.000000E+00  0.000000E+00
        52   3 -1.450658E-01 -1.710893E-02  0.000000E+00 -2.826304E-02  0.000000E+00  0.000000E+00
        53   1 -8.822787E-02  2.237606E-03  0.000000E+00  1.769188E-03  0.000000E+00  0.000000E+00
        53   2 -8.822787E-02  2.237606E-03  0.000000E+00  1.769188E-03  0.000000E+00  0.000000E+00
        53   3 -8.822787E-02  2.237606E-03  0.000000E+00  1.769188E-03  0.000000E+00  0.000000E+00
        54   1 -1.250206E-01 -1.038501E-02  0.000000E+00 -3.760393E-02  0.000000E+00  0.000000E+00
        54   2 -1.250206E-01 -1.038501E-02  0.000000E+00 -3.760393E-02  0.000000E+00  0.000000E+00
        54   3 -1.250206E-01 -1.038501E-02  0.000000E+00 -3.760393E-02  0.000000E+00  0.000000E+00
        55   1 -8.647303E-02  4.843228E-03  0.000000E+00 -1.995502E-03  0.000000E+00  0.000000E+00
        55   2 -8.647303E-02  4.843228E-03  0.000000E+00 -1.995502E-03  0.000000E+00  0.000000E+00
        55   3 -8.647303E-02  4.843228E-03  0.000000E+00 -1.995502E-03  0.000000E+00  0.000000E+00
        56   1 -1.130099E-01 -4.306139E-03  0.000000E+00 -3.903748E-02  0.000000E+00  0.000000E+00
        56   2 -1.130099E-01 -4.306139E-03  0.000000E+00 -3.903748E-02  0.000000E+00  0.000000E+00
        56   3 -1.130099E-01 -4.306139E-03  0.000000E+00 -3.903748E-02  0.000000E+00  0.000000E+00
        57   1 -1.711061E-01 -5.703530E-02  0.000000E+00  2.239136E-02  0.000000E+00  0.000000E+00
        57   2 -1.711061E-01 -5.703530E-02  0.000000E+00  2.239136E-02  0.000000E+00  0.000000E+00
        57   3 -1.711061E-01 -5.703530E-02  0.000000E+00  2.239136E-02  0.000000E+00  0.000000E+00
        58   1 -2.854391E-01 -3.601740E-02  0.000000E+00 -4.772310E-02  0.000000E+00  0.000000E+00
        58   2 -2.854391E-01 -3.601740E-02  0.000000E+00 -4.772310E-02  0.000000E+00  0.000000E+00
        58   3 -2.854391E-01 -3.601740E-02  0.000000E+00 -4.772310E-02  0.000000E+00  0.000000E+00
        59   1 -1.469581E-01  3.502490E-03  0.000000E+00 -2.322011E-02  0.000000E+00  0.000000E+00
        59   2 -1.469581E-01  3.502490E-03  0.000000E+00 -2.322011E-02  0.000000E+00  0.000000E+00
        59   3 -1.469581E-01  3.502490E-03  0.000000E+00 -2.322011E-02  0.000000E+00  0.000000E+00
        60   1 -2.035172E-01 -2.356914E-02  0.000000E+00 -6.161270E-02  0.000000E+00  0.000000E+00
        60   2 -2.035172E-01 -2.356914E-02  0.000000E+00 -6.161270E-02  0.000000E+00  0.000000E+00
        60   3 -2.035172E-01 -2.356914E-02  0.000000E+00 -6.161270E-02  0.000000E+00  0.000000E+00
        61   1 -1.365688E-01 -5.526002E-03  0.000000E+00 -2.974014E-02  0.000000E+00  0.000000E+00
        61   2 -1.365688E-01 -5.526002E-03  0.000000E+00 -2.974014E-02  0.000000E+00  0.000000E+00
        61   3 -1.365688E-01 -5.526002E-03  0.000000E+00 -2.974014E-02  0.000000E+00  0.000000E+00
        62   1 -1.793206E-01 -1.924091E-02  0.000000E+00 -6.314678E-02  0.000000E+00  0.000000E+00
        62   2 -1.793206E-01 -1.924091E-02  0.000000E+00 -6.314678E-02  0.000000E+00  0.000000E+00
        62   3 -1.793206E-01 -1.924091E-02  0.000000E+00 -6.314678E-02  0.000000E+00  0.000000E+00
        63   1 -1.301287E-01 -7.677918E-03  0.000000E+00 -2.750953E-02  0.000000E+00  0.000000E+00
        63   2 -1.301287E-01 -7.677918E-03  0.000000E+00 -2.750953E-02  0.000000E+00  0.000000E+00
        63   3 -1.301287E-01 -7.677918E-03  0.000000E+00 -2.750953E-02  0.000000E+00  0.000000E+00
        64   1 -1.655229E-01 -1.615935E-02  0.000000E+00 -6.213667E-02  0.000000E+00  0.000000E+00
        64   2 -1.655229E-01 -1.615935E-02  0.000000E+00 -6.213667E-02  0.000000E+00  0.000000E+00
        64   3 -1.655229E-01 -1.615935E-02  0.000000E+00 -6.213667E-02  0.000000E+00  0.000000E+00
        65   1  3.449918E-02  4.087402E-02  0.000000E+00  2.512615E-02  0.000000E+00  0.000000E+00
        65   2  3.449918E-02  4.087402E-02  0.000000E+00  2.512615E-02  0.000000E+00  0.000000E+00
        65   3  3.449918E-02  4.087402E-02  0.000000E+00  2.512615E-02  0.000000E+00  0.000000E+00
        66   1  3.045728E-02  2.252489E-02  0.000000E+00  6.497787E-02  0.000000E+00  0.000000E+00
        66   2  3.045728E-02  2.252489E-02  0.000000E+00  6.497787E-02  0.000000E+00  0.000000E+00
        66   3  3.045728E-02  2.252489E-02  0.000000E+00  6.497787E-02  0.000000E+00  0.000000E+00
        67   1  4.474133E-02  2.434499E-02  0.000000E+00  2.941084E-02  0.000000E+00  0.000000E+00
        67   2  4.474133E-02  2.434499E-02  0.000000E+00  2.941084E-02  0.000000E+00  0.000000E+00
        67   3  4.474133E-02  2.434499E-02  0.000000E+00  2.941084E-02  0.000000E+00  0.000000E+00
        68   1  4.708070E-02  6.918680E-03  0.000000E+00  6.024963E-02  0.000000E+00  0.000000E+00
        68   2  4.708070E-02  6.918680E-03  0.000000E+00  6.024963E-02  0.000000E+00  0.000000E+00
        68   3  4.708070E-02  6.918680E-03  0.000000E+00  6.024963E-02  0.000000E+00  0.000000E+00
        69   1  5.746686E-02  8.302449E-03  0.000000E+00  3.009294E-02  0.000000E+00  0.000000E+00
        69   2  5.746686E-02  8.302449E-03  0.000000E+00  3.009294E-02  0.000000E+00  0.000000E+00
        69   3  5.746686E-02  8.302449E-03  0.000000E+00  3.009294E-02  0.000000E+00  0.000000E+00
        70   1  6.569160E-02  5.009092E-03  0.000000E+00  4.952385E-02  0.000000E+00  0.000000E+00
        70   2  6.569160E-02  5.009092E-03  0.000000E+00  4.952385E-02  0.000000E+00  0.000000E+00
        70   3  6.569160E-02  5.009092E-03  0.000000E+00  4.952385E-02  0.000000E+00  0.000000E+00
        71   1  6.382034E-02  3.715138E-03  0.000000E+00  2.753992E-02  0.000000E+00  0.000000E+00
        71   2  6.382034E-02  3.715138E-03  0.000000E+00  2.753992E-02  0.000000E+00  0.000000E+00
        71   3  6.382034E-02  3.715138E-03  0.000000E+00  2.753992E-02  0.000000E+00  0.000000E+00
        72   1  7.813882E-02  2.604625E-02  0.000000E+00  3.757214E-02  0.000000E+00  0.000000E+00
        72   2  7.813882E-02  2.604625E-02  0.000000E+00  3.757214E-02  0.000000E+00  0.000000E+00
        72   3  7.813882E-02  2.604625E-02  0.000000E+00  3.757214E-02  0.000000E+00  0.000000E+00
        73   1  7.517039E-02  5.551527E-02  0.000000E+00  4.397239E-02  0.000000E+00  0.000000E+00
        73   2  7.517039E-02  5.551527E-02  0.000000E+00  4.397239E-02  0.000000E+00  0.000000E+00
        73   3  7.517039E-02  5.551527E-02  0.000000E+00  4.397239E-02  0.000000E+00  0.000000E+00
        74   1  6.299379E-02  3.489318E-02  0.000000E+00  8.134392E-02  0.000000E+00  0.000000E+00
        74   2  6.299379E-02  3.489318E-02  0.000000E+00  8.134392E-02  0.000000E+00  0.000000E+00
        74   3  6.299379E-02  3.489318E-02  0.000000E+00  8.134392E-02  0.000000E+00  0.000000E+00
        75   1  8.036377E-02  3.735957E-02  0.000000E+00  4.449119E-02  0.000000E+00  0.000000E+00
        75   2  8.036377E-02  3.735957E-02  0.000000E+00  4.449119E-02  0.000000E+00  0.000000E+00
        75   3  8.036377E-02  3.735957E-02  0.000000E+00  4.449119E-02  0.000000E+00  0.000000E+00
        76   1  7.624542E-02  2.042073E-02  0.000000E+00  6.978320E-02  0.000000E+00  0.000000E+00
        76   2  7.624542E-02  2.042073E-02  0.000000E+00  6.978320E-02  0.000000E+00  0.000000E+00
        76   3  7.624542E-02  2.042073E-02  0.000000E+00  6.978320E-02  0.000000E+00  0.000000E+00
        77   1  8.301233E-02  2.044728E-02  0.000000E+00  4.157808E-02  0.000000E+00  0.000000E+00
        77   2  8.301233E-02  2.044728E-02  0.000000E+00  4.157808E-02  0.000000E+00  0.000000E+00
        77   3  8.301233E-02  2.044728E-02  0.000000E+00  4.157808E-02  0.000000E+00  0.000000E+00
        78   1  8.527623E-02  1.764092E-02  0.000000E+00  5.429801E-02  0.000000E+00  0.000000E+00
        78   2  8.527623E-02  1.764092E-02  0.000000E+00  5.429801E-02  0.000000E+00  0.000000E+00
        78   3  8.527623E-02  1.764092E-02  0.000000E+00  5.429801E-02  0.000000E+00  0.000000E+00
        79   1  7.904205E-02  1.484961E-02  0.000000E+00  3.909155E-02  0.000000E+00  0.000000E+00
        79   2  7.904205E-02  1.484961E-02  0.000000E+00  3.909155E-02  0.000000E+00  0.000000E+00
        79   3  7.904205E-02  1.484961E-02  0.000000E+00  3.909155E-02  0.000000E+00  0.000000E+00
        80   1  8.555460E-02  2.851817E-02  0.000000E+00  4.132293E-02  0.000000E+00  0.000000E+00
        80   2  8.555460E-02  2.851817E-02  0.000000E+00  4.132293E-02  0.000000E+00  0.000000E+00
        80   3  8.555460E-02  2.851817E-02  0.000000E+00  4.132293E-02  0.000000E+00  0.000000E+00
        81   1  1.055257E-01  7.334521E-02  0.000000E+00  6.153033E-02  0.000000E+00  0.000000E+00
        81   2  1.055257E-01  7.334521E-02  0.000000E+00  6.153033E-02  0.000000E+00  0.000000E+00
        81   3  1.055257E-01  7.334521E-02  0.000000E+00  6.153033E-02  0.000000E+00  0.000000E+00
        82   1  8.792418E-02  5.125457E-02  0.000000E+00  9.600473E-02  0.000000E+00  0.000000E+00
        82   2  8.792418E-02  5.125457E-02  0.000000E+00  9.600473E-02  0.000000E+00  0.000000E+00
        82   3  8.792418E-02  5.125457E-02  0.000000E+00  9.600473E-02  0.000000E+00  0.000000E+00
        83   1  9.961494E-02  5.381558E-02  0.000000E+00  5.778535E-02  0.000000E+00  0.000000E+00
        83   2  9.961494E-02  5.381558E-02  0.000000E+00  5.778535E-02  0.000000E+00  0.000000E+00
        83   3  9.961494E-02  5.381558E-02  0.000000E+00  5.778535E-02  0.000000E+00  0.000000E+00
        84   1  9.218771E-02  3.651168E-02  0.000000E+00  7.755026E-02  0.000000E+00  0.000000E+00
        84   2  9.218771E-02  3.651168E-02  0.000000E+00  7.755026E-02  0.000000E+00  0.000000E+00
        84   3  9.218771E-02  3.651168E-02  0.000000E+00  7.755026E-02  0.000000E+00  0.000000E+00
        85   1  8.900749E-02  3.526033E-02  0.000000E+00  5.118676E-02  0.000000E+00  0.000000E+00
        85   2  8.900749E-02  3.526033E-02  0.000000E+00  5.118676E-02  0.000000E+00  0.000000E+00
        85   3  8.900749E-02  3.526033E-02  0.000000E+00  5.118676E-02  0.000000E+00  0.000000E+00
        86   1  8.804903E-02  2.916325E-02  0.000000E+00  5.689994E-02  0.000000E+00  0.000000E+00
        86   2  8.804903E-02  2.916325E-02  0.000000E+00  5.689994E-02  0.000000E+00  0.000000E+00
        86   3  8.804903E-02  2.916325E-02  0.000000E+00  5.689994E-02  0.000000E+00  0.000000E+00
        87   1  7.490118E-02  2.607341E-02  0.000000E+00  4.643796E-02  0.000000E+00  0.000000E+00
        87   2  7.490118E-02  2.607341E-02  0.000000E+00  4.643796E-02  0.000000E+00  0.000000E+00
        87   3  7.490118E-02  2.607341E-02  0.000000E+00  4.643796E-02  0.000000E+00  0.000000E+00
        88   1  7.583257E-02  2.527750E-02  0.000000E+00  4.076834E-02  0.000000E+00  0.000000E+00
        88   2  7.583257E-02  2.527750E-02  0.000000E+00  4.076834E-02  0.000000E+00  0.000000E+00
        88   3  7.583257E-02  2.527750E-02  0.000000E+00  4.076834E-02  0.000000E+00  0.000000E+00
        89   1  1.232692E-01  8.802469E-02  0.000000E+00  7.936582E-02  0.000000E+00  0.000000E+00
        89   2  1.232692E-01  8.802469E-02  0.000000E+00  7.936582E-02  0.000000E+00  0.000000E+00
        89   3  1.232692E-01  8.802469E-02  0.000000E+00  7.936582E-02  0.000000E+00  0.000000E+00
        90   1  1.016489E-01  7.865426E-02  0.000000E+00  1.087666E-01  0.000000E+00  0.000000E+00
        90   2  1.016489E-01  7.865426E-02  0.000000E+00  1.087666E-01  0.000000E+00  0.000000E+00
        90   3  1.016489E-01  7.865426E-02  0.000000E+00  1.087666E-01  0.000000E+00  0.000000E+00
        91   1  1.013681E-01  6.822653E-02  0.000000E+00  7.008575E-02  0.000000E+00  0.000000E+00
        91   2  1.013681E-01  6.822653E-02  0.000000E+00  7.008575E-02  0.000000E+00  0.000000E+00
        91   3  1.013681E-01  6.822653E-02  0.000000E+00  7.008575E-02  0.000000E+00  0.000000E+00
        92   1  9.109237E-02  6.023539E-02  0.000000E+00  8.198089E-02  0.000000E+00  0.000000E+00
        92   2  9.109237E-02  6.023539E-02  0.000000E+00  8.198089E-02  0.000000E+00  0.000000E+00
        92   3  9.109237E-02  6.023539E-02  0.000000E+00  8.198089E-02  0.000000E+00  0.000000E+00
        93   1  7.737820E-02  4.725105E-02  0.000000E+00  5.755960E-02  0.000000E+00  0.000000E+00
        93   2  7.737820E-02  4.725105E-02  0.000000E+00  5.755960E-02  0.000000E+00  0.000000E+00
        93   3  7.737820E-02  4.725105E-02  0.000000E+00  5.755960E-02  0.000000E+00  0.000000E+00
        94   1  7.140617E-02  4.297905E-02  0.000000E+00  5.508179E-02  0.000000E+00  0.000000E+00
        94   2  7.140617E-02  4.297905E-02  0.000000E+00  5.508179E-02  0.000000E+00  0.000000E+00
        94   3  7.140617E-02  4.297905E-02  0.000000E+00  5.508179E-02  0.000000E+00  0.000000E+00
        95   1  5.788941E-02  3.419055E-02  0.000000E+00  4.637017E-02  0.000000E+00  0.000000E+00
        95   2  5.788941E-02  3.419055E-02  0.000000E+00  4.637017E-02  0.000000E+00  0.000000E+00
        95   3  5.788941E-02  3.419055E-02  0.000000E+00  4.637017E-02  0.000000E+00  0.000000E+00
        96   1  5.130561E-02  1.710185E-02  0.000000E+00  3.673333E-02  0.000000E+00  0.000000E+00
        96   2  5.130561E-02  1.710185E-02  0.000000E+00  3.673333E-02  0.000000E+00  0.000000E+00
        96   3  5.130561E-02  1.710185E-02  0.000000E+00  3.673333E-02  0.000000E+00  0.000000E+00
        97   1 -1.466897E-02  2.825099E-02  0.000000E+00  4.522249E-02  0.000000E+00  0.000000E+00
        97   2 -1.466897E-02  2.825099E-02  0.000000E+00  4.522249E-02  0.000000E+00  0.000000E+00
        97   3 -1.466897E-02  2.825099E-02  0.000000E+00  4.522249E-02  0.000000E+00  0.000000E+00
        98   1 -1.386777E-02  3.729022E-02  0.000000E+00  5.220241E-03  0.000000E+00  0.000000E+00
        98   2 -1.386777E-02  3.729022E-02  0.000000E+00  5.220241E-03  0.000000E+00  0.000000E+00
        98   3 -1.386777E-02  3.729022E-02  0.000000E+00  5.220241E-03  0.000000E+00  0.000000E+00
        99   1 -2.270342E-02  3.678142E-02  0.000000E+00  5.037718E-02  0.000000E+00  0.000000E+00
        99   2 -2.270342E-02  3.678142E-02  0.000000E+00  5.037718E-02  0.000000E+00  0.000000E+00
        99   3 -2.270342E-02  3.678142E-02  0.000000E+00  5.037718E-02  0.000000E+00  0.000000E+00
       100   1 -1.482824E-02  4.525265E-02  0.000000E+00  1.299891E-02  0.000000E+00  0.000000E+00
       100   2 -1.482824E-02  4.525265E-02  0.000000E+00  1.299891E-02  0.000000E+00  0.000000E+00
       100   3 -1.482824E-02  4.525265E-02  0.000000E+00  1.299891E-02  0.000000E+00  0.000000E+00
       101   1 -2.748010E-02  4.367341E-02  0.000000E+00  5.968534E-02  0.000000E+00  0.000000E+00
       101   2 -2.748010E-02  4.367341E-02  0.000000E+00  5.968534E-02  0.000000E+00  0.000000E+00
       101   3 -2.748010E-02  4.367341E-02  0.000000E+00  5.968534E-02  0.000000E+00  0.000000E+00
       102   1 -1.350970E-02  5.306262E-02  0.000000E+00  2.805169E-02  0.000000E+00  0.000000E+00
       102   2 -1.350970E-02  5.306262E-02  0.000000E+00  2.805169E-02  0.000000E+00  0.000000E+00
       102   3 -1.350970E-02  5.306262E-02  0.000000E+00  2.805169E-02  0.000000E+00  0.000000E+00
       103   1 -2.141360E-02  5.168489E-02  0.000000E+00  7.054761E-02  0.000000E+00  0.000000E+00
       103   2 -2.141360E-02  5.168489E-02  0.000000E+00  7.054761E-02  0.000000E+00  0.000000E+00
       103   3 -2.141360E-02  5.168489E-02  0.000000E+00  7.054761E-02  0.000000E+00  0.000000E+00
       104   1  4.970077E-03  9.356645E-02  0.000000E+00  4.371103E-02  0.000000E+00  0.000000E+00
       104   2  4.970077E-03  9.356645E-02  0.000000E+00  4.371103E-02  0.000000E+00  0.000000E+00
       104   3  4.970077E-03  9.356645E-02  0.000000E+00  4.371103E-02  0.000000E+00  0.000000E+00
       105   1 -4.883923E-02  1.844051E-02  0.000000E+00  2.415555E-02  0.000000E+00  0.000000E+00
       105   2 -4.883923E-02  1.844051E-02  0.000000E+00  2.415555E-02  0.000000E+00  0.000000E+00
       105   3 -4.883923E-02  1.844051E-02  0.000000E+00  2.415555E-02  0.000000E+00  0.000000E+00
       106   1 -5.777935E-02  1.998855E-02  0.000000E+00 -1.328421E-02  0.000000E+00  0.000000E+00
       106   2 -5.777935E-02  1.998855E-02  0.000000E+00 -1.328421E-02  0.000000E+00  0.000000E+00
       106   3 -5.777935E-02  1.998855E-02  0.000000E+00 -1.328421E-02  0.000000E+00  0.000000E+00
       107   1 -4.967793E-02  2.517199E-02  0.000000E+00  3.194899E-02  0.000000E+00  0.000000E+00
       107   2 -4.967793E-02  2.517199E-02  0.000000E+00  3.194899E-02  0.000000E+00  0.000000E+00
       107   3 -4.967793E-02  2.517199E-02  0.000000E+00  3.194899E-02  0.000000E+00  0.000000E+00
       108   1 -5.132465E-02  2.662315E-02  0.000000E+00 -2.961757E-03  0.000000E+00  0.000000E+00
       108   2 -5.132465E-02  2.662315E-02  0.000000E+00 -2.961757E-03  0.000000E+00  0.000000E+00
       108   3 -5.132465E-02  2.662315E-02  0.000000E+00 -2.961757E-03  0.000000E+00  0.000000E+00
       109   1 -4.254073E-02  3.212824E-02  0.000000E+00  4.428389E-02  0.000000E+00  0.000000E+00
       109   2 -4.254073E-02  3.212824E-02  0.000000E+00  4.428389E-02  0.000000E+00  0.000000E+00
       109   3 -4.254073E-02  3.212824E-02  0.000000E+00  4.428389E-02  0.000000E+00  0.000000E+00
       110   1 -3.631382E-02  3.554360E-02  0.000000E+00  1.272934E-02  0.000000E+00  0.000000E+00
       110   2 -3.631382E-02  3.554360E-02  0.000000E+00  1.272934E-02  0.000000E+00  0.000000E+00
       110   3 -3.631382E-02  3.554360E-02  0.000000E+00  1.272934E-02  0.000000E+00  0.000000E+00
       111   1 -2.358891E-02  4.256022E-02  0.000000E+00  5.849257E-02  0.000000E+00  0.000000E+00
       111   2 -2.358891E-02  4.256022E-02  0.000000E+00  5.849257E-02  0.000000E+00  0.000000E+00
       111   3 -2.358891E-02  4.256022E-02  0.000000E+00  5.849257E-02  0.000000E+00  0.000000E+00
       112   1 -1.694117E-03  8.576892E-02  0.000000E+00  3.206105E-02  0.000000E+00  0.000000E+00
       112   2 -1.694117E-03  8.576892E-02  0.000000E+00  3.206105E-02  0.000000E+00  0.000000E+00
       112   3 -1.694117E-03  8.576892E-02  0.000000E+00  3.206105E-02  0.000000E+00  0.000000E+00
       113   1 -8.411904E-02  8.292701E-03  0.000000E+00  2.486704E-03  0.000000E+00  0.000000E+00
       113   2 -8.411904E-02  8.292701E-03  0.000000E+00  2.486704E-03  0.000000E+00  0.000000E+00
       113   3 -8.411904E-02  8.292701E-03  0.000000E+00  2.486704E-03  0.000000E+00  0.000000E+00
       114   1 -1.024510E-01  1.421990E-03  0.000000E+00 -3.400439E-02  0.000000E+00  0.000000E+00
       114   2 -1.024510E-01  1.421990E-03  0.000000E+00 -3.400439E-02  0.000000E+00  0.000000E+00
       114   3 -1.024510E-01  1.421990E-03  0.000000E+00 -3.400439E-02  0.000000E+00  0.000000E+00
       115   1 -7.615956E-02  1.347978E-02  0.000000E+00  1.175415E-02  0.000000E+00  0.000000E+00
       115   2 -7.615956E-02  1.347978E-02  0.000000E+00  1.175415E-02  0.000000E+00  0.000000E+00
       115   3 -7.615956E-02  1.347978E-02  0.000000E+00  1.175415E-02  0.000000E+00  0.000000E+00
       116   1 -8.711609E-02  6.336297E-03  0.000000E+00 -2.303452E-02  0.000000E+00  0.000000E+00
       116   2 -8.711609E-02  6.336297E-03  0.000000E+00 -2.303452E-02  0.000000E+00  0.000000E+00
       116   3 -8.711609E-02  6.336297E-03  0.000000E+00 -2.303452E-02  0.000000E+00  0.000000E+00
       117   1 -5.687764E-02  1.986862E-02  0.000000E+00  2.511404E-02  0.000000E+00  0.000000E+00
       117   2 -5.687764E-02  1.986862E-02  0.000000E+00  2.511404E-02  0.000000E+00  0.000000E+00
       117   3 -5.687764E-02  1.986862E-02  0.000000E+00  2.511404E-02  0.000000E+00  0.000000E+00
       118   1 -5.926292E-02  1.513273E-02  0.000000E+00 -8.052081E-03  0.000000E+00  0.000000E+00
       118   2 -5.926292E-02  1.513273E-02  0.000000E+00 -8.052081E-03  0.000000E+00  0.000000E+00
       118   3 -5.926292E-02  1.513273E-02  0.000000E+00 -8.052081E-03  0.000000E+00  0.000000E+00
       119   1 -2.522991E-02  3.115658E-02  0.000000E+00  4.227876E-02  0.000000E+00  0.000000E+00
       119   2 -2.522991E-02  3.115658E-02  0.000000E+00  4.227876E-02  0.000000E+00  0.000000E+00
       119   3 -2.522991E-02  3.115658E-02  0.000000E+00  4.227876E-02  0.000000E+00  0.000000E+00
       120   1 -1.062182E-02  6.804089E-02  0.000000E+00  1.762369E-02  0.000000E+00  0.000000E+00
       120   2 -1.062182E-02  6.804089E-02  0.000000E+00  1.762369E-02  0.000000E+00  0.000000E+00
       120   3 -1.062182E-02  6.804089E-02  0.000000E+00  1.762369E-02  0.000000E+00  0.000000E+00
       121   1 -1.214765E-01 -5.864055E-03  0.000000E+00 -2.125170E-02  0.000000E+00  0.000000E+00
       121   2 -1.214765E-01 -5.864055E-03  0.000000E+00 -2.125170E-02  0.000000E+00  0.000000E+00
       121   3 -1.214765E-01 -5.864055E-03  0.000000E+00 -2.125170E-02  0.000000E+00  0.000000E+00
       122   1 -1.495361E-01 -1.326967E-02  0.000000E+00 -5.716094E-02  0.000000E+00  0.000000E+00
       122   2 -1.495361E-01 -1.326967E-02  0.000000E+00 -5.716094E-02  0.000000E+00  0.000000E+00
       122   3 -1.495361E-01 -1.326967E-02  0.000000E+00 -5.716094E-02  0.000000E+00  0.000000E+00
       123   1 -1.041253E-01 -1.734686E-03  0.000000E+00 -1.192746E-02  0.000000E+00  0.000000E+00
       123   2 -1.041253E-01 -1.734686E-03  0.000000E+00 -1.192746E-02  0.000000E+00  0.000000E+00
       123   3 -1.041253E-01 -1.734686E-03  0.000000E+00 -1.192746E-02  0.000000E+00  0.000000E+00
       124   1 -1.245063E-01 -1.061836E-02  0.000000E+00 -4.730073E-02  0.000000E+00  0.000000E+00
       124   2 -1.245063E-01 -1.061836E-02  0.000000E+00 -4.730073E-02  0.000000E+00  0.000000E+00
       124   3 -1.245063E-01 -1.061836E-02  0.000000E+00 -4.730073E-02  0.000000E+00  0.000000E+00
       125   1 -7.358119E-02  4.076408E-03  0.000000E+00  1.198633E-03  0.000000E+00  0.000000E+00
       125   2 -7.358119E-02  4.076408E-03  0.000000E+00  1.198633E-03  0.000000E+00  0.000000E+00
       125   3 -7.358119E-02  4.076408E-03  0.000000E+00  1.198633E-03  0.000000E+00  0.000000E+00
       126   1 -8.473902E-02 -2.167959E-03  0.000000E+00 -3.458449E-02  0.000000E+00  0.000000E+00
       126   2 -8.473902E-02 -2.167959E-03  0.000000E+00 -3.458449E-02  0.000000E+00  0.000000E+00
       126   3 -8.473902E-02 -2.167959E-03  0.000000E+00 -3.458449E-02  0.000000E+00  0.000000E+00
       127   1 -2.857202E-02  1.190400E-02  0.000000E+00  2.176566E-02  0.000000E+00  0.000000E+00
       127   2 -2.857202E-02  1.190400E-02  0.000000E+00  2.176566E-02  0.000000E+00  0.000000E+00
       127   3 -2.857202E-02  1.190400E-02  0.000000E+00  2.176566E-02  0.000000E+00  0.000000E+00
       128   1 -2.392104E-02  3.703700E-02  0.000000E+00 -2.623415E-03  0.000000E+00  0.000000E+00
       128   2 -2.392104E-02  3.703700E-02  0.000000E+00 -2.623415E-03  0.000000E+00  0.000000E+00
       128   3 -2.392104E-02  3.703700E-02  0.000000E+00 -2.623415E-03  0.000000E+00  0.000000E+00
