
                        S T E P       1


                                INCREMENT     1


 total force (fx,fy,fz) for set NFIX and time  0.1000000E+01

       -5.165021E-10  6.585664E-10  2.499554E+01

 strains (elem, integ.pnt.,exx,eyy,ezz,exy,exz,eyz) for set ESOLID and time  0.1000000E+01

         1   1  2.578082E-05  2.578082E-05 -1.190422E-04 -1.256679E-09  2.577865E-05  2.577865E-05
         1   2  2.578082E-05  2.578082E-05 -1.190422E-04  1.256680E-09  2.577865E-05 -2.577865E-05
         1   3 -2.577573E-05 -2.577573E-05 -1.190468E-04  7.579910E-10  2.577444E-05  2.577444E-05
         1   4 -2.577573E-05 -2.577573E-05 -1.190468E-04 -7.579900E-10  2.577444E-05 -2.577444E-05
         1   5  2.578082E-05  2.578082E-05 -1.190422E-04  1.256679E-09 -2.577865E-05  2.577865E-05
         1   6  2.578082E-05  2.578082E-05 -1.190422E-04 -1.256679E-09 -2.577865E-05 -2.577865E-05
         1   7 -2.577573E-05 -2.577573E-05 -1.190468E-04 -7.579929E-10 -2.577444E-05  2.577444E-05
         1   8 -2.577573E-05 -2.577573E-05 -1.190468E-04  7.579909E-10 -2.577444E-05 -2.577444E-05

 stresses (elem, integ.pnt.,sxx,syy,szz,sxy,sxz,syz) for set ESHELL and time  0.1000000E+01

         2   1 -1.876170E+01 -1.876168E+01 -1.000006E+02 -3.291004E-04 -8.377585E-03  8.421846E-03
         2   2 -1.876283E+01 -1.876127E+01 -1.000005E+02 -2.829318E-09  2.518559E-05  8.375284E-03
         2   3 -1.876170E+01 -1.876168E+01 -1.000006E+02  3.290960E-04  8.428338E-03  8.409443E-03
         2   4 -1.876131E+01 -1.876281E+01 -9.999968E+01 -1.493135E-09 -8.438597E-03 -1.221009E-05
         2   5 -1.876244E+01 -1.876240E+01 -9.999927E+01 -1.046368E-10  2.442240E-05 -3.051136E-06
         2   6 -1.876131E+01 -1.876281E+01 -1.000004E+02 -4.565614E-10  8.421839E-03  4.581276E-06
         2   7 -1.876170E+01 -1.876168E+01 -1.000005E+02  3.291058E-04 -8.383684E-03 -8.359249E-03
         2   8 -1.876283E+01 -1.876127E+01 -9.999948E+01  2.542787E-09  2.442243E-05 -8.420261E-03
         2   9 -1.876170E+01 -1.876168E+01 -9.999998E+01 -3.290982E-04  8.383654E-03 -8.432494E-03
         2  10 -1.876170E+01 -1.876168E+01 -9.999959E+01 -3.290837E-04 -8.476979E-03  8.483586E-03
         2  11 -1.876283E+01 -1.876127E+01 -9.999961E+01  9.139004E-10 -1.088442E-05  8.454580E-03
         2  12 -1.876170E+01 -1.876168E+01 -9.999944E+01  3.290848E-04  8.466452E-03  8.478780E-03
         2  13 -1.876131E+01 -1.876281E+01 -9.999982E+01 -1.132406E-09 -8.435552E-03 -8.733861E-06
         2  14 -1.876245E+01 -1.876240E+01 -1.000003E+02 -1.046347E-10 -3.054518E-06  1.023115E-05
         2  15 -1.876131E+01 -1.876281E+01 -9.999959E+01  2.239581E-09  8.427464E-03 -2.139899E-05
         2  16 -1.876170E+01 -1.876168E+01 -9.999946E+01  3.290808E-04 -8.499417E-03 -8.484088E-03
         2  17 -1.876283E+01 -1.876127E+01 -9.999991E+01 -1.754869E-09 -1.699032E-05 -8.414572E-03
         2  18 -1.876170E+01 -1.876168E+01 -9.999961E+01 -3.290842E-04  8.470149E-03 -8.480349E-03
         2  19 -1.876170E+01 -1.876168E+01 -1.000004E+02 -3.291025E-04 -8.383679E-03  8.395884E-03
         2  20 -1.876283E+01 -1.876127E+01 -9.999978E+01 -3.738717E-10  1.524916E-06  8.430966E-03
         2  21 -1.876170E+01 -1.876168E+01 -1.000009E+02  3.290970E-04  8.415374E-03  8.413080E-03
         2  22 -1.876131E+01 -1.876281E+01 -1.000004E+02  1.675116E-09 -8.389785E-03  1.831982E-05
         2  23 -1.876245E+01 -1.876240E+01 -1.000007E+02 -1.046417E-10 -2.747844E-05  1.526681E-05
         2  24 -1.876131E+01 -1.876281E+01 -9.999973E+01  4.939481E-10  8.440886E-03 -4.577695E-06
         2  25 -1.876170E+01 -1.876168E+01 -1.000004E+02  3.291096E-04 -8.359255E-03 -8.347032E-03
         2  26 -1.876283E+01 -1.876127E+01 -9.999934E+01 -1.259139E-09 -1.221346E-05 -8.475208E-03
         2  27 -1.876170E+01 -1.876168E+01 -1.000006E+02 -3.291066E-04  8.383686E-03 -8.351622E-03
