
                        S T E P       1


                                INCREMENT     1


 displacements (vx,vy,vz) for set NALL and time  0.1000000E+01

         1  1.506828E-04  0.000000E+00  0.000000E+00
         2  1.506828E-04  8.048775E-06  0.000000E+00
         3  3.156383E-04  6.009370E-06  0.000000E+00
         4  3.156383E-04  2.039352E-06  0.000000E+00
         5  1.542920E-04  4.024387E-06  0.000000E+00
         6  2.056995E-04  3.634138E-05  0.000000E+00
         7  3.091240E-04  4.024361E-06  0.000000E+00
         8  2.056995E-04 -2.829263E-05  0.000000E+00
         9  5.346492E-04  2.452943E-06  0.000000E+00
        10  5.346493E-04  5.595667E-06  0.000000E+00
        11  4.257249E-04  3.904029E-05  0.000000E+00
        12  5.513203E-04  4.024305E-06  0.000000E+00
        13  4.257249E-04 -3.099161E-05  0.000000E+00

 stresses (elem, integ.pnt.,sxx,syy,szz,sxy,sxz,syz) for set EALL and time  0.1000000E+01

         1   1  1.080283E+02 -7.792784E-01  2.132634E+02 -9.579972E+00  1.132740E+00  9.653873E-02
         1   2  1.080283E+02 -7.792784E-01  2.132634E+02  9.579972E+00  1.132740E+00 -9.653873E-02
         1   3  1.551427E+02  4.654851E+00  1.677787E+02  1.533329E+01  1.652541E-01 -1.545186E-01
         1   4  1.551427E+02  4.654851E+00  1.677787E+02 -1.533329E+01  1.652541E-01  1.545186E-01
         1   5  1.080283E+02 -7.792784E-01  2.132634E+02 -9.579972E+00 -1.132740E+00 -9.653873E-02
         1   6  1.080283E+02 -7.792784E-01  2.132634E+02  9.579972E+00 -1.132740E+00  9.653873E-02
         1   7  1.551427E+02  4.654851E+00  1.677787E+02  1.533329E+01 -1.652541E-01  1.545186E-01
         1   8  1.551427E+02  4.654851E+00  1.677787E+02 -1.533329E+01 -1.652541E-01 -1.545186E-01
         2   1  1.568537E+02 -6.800597E+00  1.626313E+02 -5.018154E+00  5.902444E-02  5.056527E-02
         2   2  1.568537E+02 -6.800597E+00  1.626313E+02  5.018154E+00  5.902444E-02 -5.056527E-02
         2   3  1.586612E+02  2.676046E+00  1.636667E+02 -1.335101E+01  4.297773E-02  1.345540E-01
         2   4  1.586612E+02  2.676046E+00  1.636667E+02  1.335101E+01  4.297772E-02 -1.345540E-01
         2   5  1.568537E+02 -6.800597E+00  1.626313E+02 -5.018154E+00 -5.902444E-02 -5.056527E-02
         2   6  1.568537E+02 -6.800597E+00  1.626313E+02  5.018154E+00 -5.902444E-02  5.056527E-02
         2   7  1.586612E+02  2.676046E+00  1.636667E+02 -1.335101E+01 -4.297773E-02 -1.345540E-01
         2   8  1.586612E+02  2.676046E+00  1.636667E+02  1.335101E+01 -4.297772E-02  1.345540E-01
