    1C
    1UUSER                                                              
    1UDATE              28.january.2021                                 
    1UTIME              19:41:41                                        
    1UHOST                                                              
    1UPGM               CalculiX                                        
    1UVERSION           Version DEVELOPMENT                             
    1UCOMPILETIME       Wed Jan 27 21:54:28 CET 2021                    
    1UDIR                                                               
    1UDBN                                                               
    1UMAT    1CT3D_BENCHMARK                                            
    2C                         10017                                     0
 -1   56 1.00000e+00 4.00000e+00 0.00000e+00
 -1   57 1.00000e+00 3.50000e+00 0.00000e+00
 -1   58 1.00000e+00 3.50000e+00 1.25000e-01
 -1   59 1.00000e+00 4.00000e+00 1.25000e-01
 -1   60 8.75000e-01 4.00000e+00 0.00000e+00
 -1   61 8.75000e-01 3.50000e+00-2.22045e-16
 -1   62 8.75000e-01 3.50000e+00 1.25000e-01
 -1   63 8.75000e-01 4.00000e+00 1.25000e-01
 -1   64 1.00000e+00 3.75000e+00 0.00000e+00
 -1   65 1.00000e+00 3.50000e+00 6.25000e-02
 -1   66 1.00000e+00 3.75000e+00 1.25000e-01
 -1   67 1.00000e+00 4.00000e+00 6.25000e-02
 -1   68 9.37500e-01 4.00000e+00 0.00000e+00
 -1   69 9.37500e-01 3.50000e+00 4.44089e-16
 -1   70 9.37500e-01 3.50000e+00 1.25000e-01
 -1   71 9.37500e-01 4.00000e+00 1.25000e-01
 -1   72 8.75000e-01 3.75000e+00-2.22045e-16
 -1   73 8.75000e-01 3.50000e+00 6.25000e-02
 -1   74 8.75000e-01 3.75000e+00 1.25000e-01
 -1   75 8.75000e-01 4.00000e+00 6.25000e-02
 -1   76 1.00000e+00 3.50000e+00 2.50000e-01
 -1   77 1.00000e+00 4.00000e+00 2.50000e-01
 -1   78 8.75000e-01 3.50000e+00 2.50000e-01
 -1   79 8.75000e-01 4.00000e+00 2.50000e-01
 -1   80 1.00000e+00 3.50000e+00 1.87500e-01
 -1   81 1.00000e+00 3.75000e+00 2.50000e-01
 -1   82 1.00000e+00 4.00000e+00 1.87500e-01
 -1   83 9.37500e-01 3.50000e+00 2.50000e-01
 -1   84 9.37500e-01 4.00000e+00 2.50000e-01
 -1   85 8.75000e-01 3.50000e+00 1.87500e-01
 -1   86 8.75000e-01 3.75000e+00 2.50000e-01
 -1   87 8.75000e-01 4.00000e+00 1.87500e-01
 -1   88 1.00000e+00 3.50000e+00 3.75000e-01
 -1   89 1.00000e+00 4.00000e+00 3.75000e-01
 -1   90 8.75000e-01 3.50000e+00 3.75000e-01
 -1   91 8.75000e-01 4.00000e+00 3.75000e-01
 -1   92 1.00000e+00 3.50000e+00 3.12500e-01
 -1   93 1.00000e+00 3.75000e+00 3.75000e-01
 -1   94 1.00000e+00 4.00000e+00 3.12500e-01
 -1   95 9.37500e-01 3.50000e+00 3.75000e-01
 -1   96 9.37500e-01 4.00000e+00 3.75000e-01
 -1   97 8.75000e-01 3.50000e+00 3.12500e-01
 -1   98 8.75000e-01 3.75000e+00 3.75000e-01
 -1   99 8.75000e-01 4.00000e+00 3.12500e-01
 -1  100 1.00000e+00 3.50000e+00 5.00000e-01
 -1  101 1.00000e+00 4.00000e+00 5.00000e-01
 -1  102 8.75000e-01 3.50000e+00 5.00000e-01
 -1  103 8.75000e-01 4.00000e+00 5.00000e-01
 -1  104 1.00000e+00 3.50000e+00 4.37500e-01
 -1  105 1.00000e+00 3.75000e+00 5.00000e-01
 -1  106 1.00000e+00 4.00000e+00 4.37500e-01
 -1  107 9.37500e-01 3.50000e+00 5.00000e-01
 -1  108 9.37500e-01 4.00000e+00 5.00000e-01
 -1  109 8.75000e-01 3.50000e+00 4.37500e-01
 -1  110 8.75000e-01 3.75000e+00 5.00000e-01
 -1  111 8.75000e-01 4.00000e+00 4.37500e-01
 -1  112 1.00000e+00 3.50000e+00 6.25000e-01
 -1  113 1.00000e+00 4.00000e+00 6.25000e-01
 -1  114 8.75000e-01 3.50000e+00 6.25000e-01
 -1  115 8.75000e-01 4.00000e+00 6.25000e-01
 -1  116 1.00000e+00 3.50000e+00 5.62500e-01
 -1  117 1.00000e+00 3.75000e+00 6.25000e-01
 -1  118 1.00000e+00 4.00000e+00 5.62500e-01
 -1  119 9.37500e-01 3.50000e+00 6.25000e-01
 -1  120 9.37500e-01 4.00000e+00 6.25000e-01
 -1  121 8.75000e-01 3.50000e+00 5.62500e-01
 -1  122 8.75000e-01 3.75000e+00 6.25000e-01
 -1  123 8.75000e-01 4.00000e+00 5.62500e-01
 -1  124 1.00000e+00 3.50000e+00 7.50000e-01
 -1  125 1.00000e+00 4.00000e+00 7.50000e-01
 -1  126 8.75000e-01 3.50000e+00 7.50000e-01
 -1  127 8.75000e-01 4.00000e+00 7.50000e-01
 -1  128 1.00000e+00 3.50000e+00 6.87500e-01
 -1  129 1.00000e+00 3.75000e+00 7.50000e-01
 -1  130 1.00000e+00 4.00000e+00 6.87500e-01
 -1  131 9.37500e-01 3.50000e+00 7.50000e-01
 -1  132 9.37500e-01 4.00000e+00 7.50000e-01
 -1  133 8.75000e-01 3.50000e+00 6.87500e-01
 -1  134 8.75000e-01 3.75000e+00 7.50000e-01
 -1  135 8.75000e-01 4.00000e+00 6.87500e-01
 -1  136 1.00000e+00 3.50000e+00 8.75000e-01
 -1  137 1.00000e+00 4.00000e+00 8.75000e-01
 -1  138 8.75000e-01 3.50000e+00 8.75000e-01
 -1  139 8.75000e-01 4.00000e+00 8.75000e-01
 -1  140 1.00000e+00 3.50000e+00 8.12500e-01
 -1  141 1.00000e+00 3.75000e+00 8.75000e-01
 -1  142 1.00000e+00 4.00000e+00 8.12500e-01
 -1  143 9.37500e-01 3.50000e+00 8.75000e-01
 -1  144 9.37500e-01 4.00000e+00 8.75000e-01
 -1  145 8.75000e-01 3.50000e+00 8.12500e-01
 -1  146 8.75000e-01 3.75000e+00 8.75000e-01
 -1  147 8.75000e-01 4.00000e+00 8.12500e-01
 -1  148 1.00000e+00 3.50000e+00 1.00000e+00
 -1  149 1.00000e+00 4.00000e+00 1.00000e+00
 -1  150 8.75000e-01 3.50000e+00 1.00000e+00
 -1  151 8.75000e-01 4.00000e+00 1.00000e+00
 -1  152 1.00000e+00 3.50000e+00 9.37500e-01
 -1  153 1.00000e+00 3.75000e+00 1.00000e+00
 -1  154 1.00000e+00 4.00000e+00 9.37500e-01
 -1  155 9.37500e-01 3.50000e+00 1.00000e+00
 -1  156 9.37500e-01 4.00000e+00 1.00000e+00
 -1  157 8.75000e-01 3.50000e+00 9.37500e-01
 -1  158 8.75000e-01 3.75000e+00 1.00000e+00
 -1  159 8.75000e-01 4.00000e+00 9.37500e-01
 -1  160 1.00000e+00 3.50000e+00 1.12500e+00
 -1  161 1.00000e+00 4.00000e+00 1.12500e+00
 -1  162 8.75000e-01 3.50000e+00 1.12500e+00
 -1  163 8.75000e-01 4.00000e+00 1.12500e+00
 -1  164 1.00000e+00 3.50000e+00 1.06250e+00
 -1  165 1.00000e+00 3.75000e+00 1.12500e+00
 -1  166 1.00000e+00 4.00000e+00 1.06250e+00
 -1  167 9.37500e-01 3.50000e+00 1.12500e+00
 -1  168 9.37500e-01 4.00000e+00 1.12500e+00
 -1  169 8.75000e-01 3.50000e+00 1.06250e+00
 -1  170 8.75000e-01 3.75000e+00 1.12500e+00
 -1  171 8.75000e-01 4.00000e+00 1.06250e+00
 -1  172 1.00000e+00 3.50000e+00 1.25000e+00
 -1  173 1.00000e+00 4.00000e+00 1.25000e+00
 -1  174 8.75000e-01 3.50000e+00 1.25000e+00
 -1  175 8.75000e-01 4.00000e+00 1.25000e+00
 -1  176 1.00000e+00 3.50000e+00 1.18750e+00
 -1  177 1.00000e+00 3.75000e+00 1.25000e+00
 -1  178 1.00000e+00 4.00000e+00 1.18750e+00
 -1  179 9.37500e-01 3.50000e+00 1.25000e+00
 -1  180 9.37500e-01 4.00000e+00 1.25000e+00
 -1  181 8.75000e-01 3.50000e+00 1.18750e+00
 -1  182 8.75000e-01 3.75000e+00 1.25000e+00
 -1  183 8.75000e-01 4.00000e+00 1.18750e+00
 -1  184 1.00000e+00 3.50000e+00 1.37500e+00
 -1  185 1.00000e+00 4.00000e+00 1.37500e+00
 -1  186 8.75000e-01 3.50000e+00 1.37500e+00
 -1  187 8.75000e-01 4.00000e+00 1.37500e+00
 -1  188 1.00000e+00 3.50000e+00 1.31250e+00
 -1  189 1.00000e+00 3.75000e+00 1.37500e+00
 -1  190 1.00000e+00 4.00000e+00 1.31250e+00
 -1  191 9.37500e-01 3.50000e+00 1.37500e+00
 -1  192 9.37500e-01 4.00000e+00 1.37500e+00
 -1  193 8.75000e-01 3.50000e+00 1.31250e+00
 -1  194 8.75000e-01 3.75000e+00 1.37500e+00
 -1  195 8.75000e-01 4.00000e+00 1.31250e+00
 -1  196 1.00000e+00 3.50000e+00 1.50000e+00
 -1  197 1.00000e+00 4.00000e+00 1.50000e+00
 -1  198 8.75000e-01 3.50000e+00 1.50000e+00
 -1  199 8.75000e-01 4.00000e+00 1.50000e+00
 -1  200 1.00000e+00 3.50000e+00 1.43750e+00
 -1  201 1.00000e+00 3.75000e+00 1.50000e+00
 -1  202 1.00000e+00 4.00000e+00 1.43750e+00
 -1  203 9.37500e-01 3.50000e+00 1.50000e+00
 -1  204 9.37500e-01 4.00000e+00 1.50000e+00
 -1  205 8.75000e-01 3.50000e+00 1.43750e+00
 -1  206 8.75000e-01 3.75000e+00 1.50000e+00
 -1  207 8.75000e-01 4.00000e+00 1.43750e+00
 -1  208 1.00000e+00 3.50000e+00 1.62500e+00
 -1  209 1.00000e+00 4.00000e+00 1.62500e+00
 -1  210 8.75000e-01 3.50000e+00 1.62500e+00
 -1  211 8.75000e-01 4.00000e+00 1.62500e+00
 -1  212 1.00000e+00 3.50000e+00 1.56250e+00
 -1  213 1.00000e+00 3.75000e+00 1.62500e+00
 -1  214 1.00000e+00 4.00000e+00 1.56250e+00
 -1  215 9.37500e-01 3.50000e+00 1.62500e+00
 -1  216 9.37500e-01 4.00000e+00 1.62500e+00
 -1  217 8.75000e-01 3.50000e+00 1.56250e+00
 -1  218 8.75000e-01 3.75000e+00 1.62500e+00
 -1  219 8.75000e-01 4.00000e+00 1.56250e+00
 -1  220 1.00000e+00 3.50000e+00 1.75000e+00
 -1  221 1.00000e+00 4.00000e+00 1.75000e+00
 -1  222 8.75000e-01 3.50000e+00 1.75000e+00
 -1  223 8.75000e-01 4.00000e+00 1.75000e+00
 -1  224 1.00000e+00 3.50000e+00 1.68750e+00
 -1  225 1.00000e+00 3.75000e+00 1.75000e+00
 -1  226 1.00000e+00 4.00000e+00 1.68750e+00
 -1  227 9.37500e-01 3.50000e+00 1.75000e+00
 -1  228 9.37500e-01 4.00000e+00 1.75000e+00
 -1  229 8.75000e-01 3.50000e+00 1.68750e+00
 -1  230 8.75000e-01 3.75000e+00 1.75000e+00
 -1  231 8.75000e-01 4.00000e+00 1.68750e+00
 -1  232 1.00000e+00 3.50000e+00 1.87500e+00
 -1  233 1.00000e+00 4.00000e+00 1.87500e+00
 -1  234 8.75000e-01 3.50000e+00 1.87500e+00
 -1  235 8.75000e-01 4.00000e+00 1.87500e+00
 -1  236 1.00000e+00 3.50000e+00 1.81250e+00
 -1  237 1.00000e+00 3.75000e+00 1.87500e+00
 -1  238 1.00000e+00 4.00000e+00 1.81250e+00
 -1  239 9.37500e-01 3.50000e+00 1.87500e+00
 -1  240 9.37500e-01 4.00000e+00 1.87500e+00
 -1  241 8.75000e-01 3.50000e+00 1.81250e+00
 -1  242 8.75000e-01 3.75000e+00 1.87500e+00
 -1  243 8.75000e-01 4.00000e+00 1.81250e+00
 -1  244 1.00000e+00 3.50000e+00 2.00000e+00
 -1  245 1.00000e+00 4.00000e+00 2.00000e+00
 -1  246 8.75000e-01 3.50000e+00 2.00000e+00
 -1  247 8.75000e-01 4.00000e+00 2.00000e+00
 -1  248 1.00000e+00 3.50000e+00 1.93750e+00
 -1  249 1.00000e+00 3.75000e+00 2.00000e+00
 -1  250 1.00000e+00 4.00000e+00 1.93750e+00
 -1  251 9.37500e-01 3.50000e+00 2.00000e+00
 -1  252 9.37500e-01 4.00000e+00 2.00000e+00
 -1  253 8.75000e-01 3.50000e+00 1.93750e+00
 -1  254 8.75000e-01 3.75000e+00 2.00000e+00
 -1  255 8.75000e-01 4.00000e+00 1.93750e+00
 -1  256 1.00000e+00 3.50000e+00 2.12500e+00
 -1  257 1.00000e+00 4.00000e+00 2.12500e+00
 -1  258 8.75000e-01 3.50000e+00 2.12500e+00
 -1  259 8.75000e-01 4.00000e+00 2.12500e+00
 -1  260 1.00000e+00 3.50000e+00 2.06250e+00
 -1  261 1.00000e+00 3.75000e+00 2.12500e+00
 -1  262 1.00000e+00 4.00000e+00 2.06250e+00
 -1  263 9.37500e-01 3.50000e+00 2.12500e+00
 -1  264 9.37500e-01 4.00000e+00 2.12500e+00
 -1  265 8.75000e-01 3.50000e+00 2.06250e+00
 -1  266 8.75000e-01 3.75000e+00 2.12500e+00
 -1  267 8.75000e-01 4.00000e+00 2.06250e+00
 -1  268 1.00000e+00 3.50000e+00 2.25000e+00
 -1  269 1.00000e+00 4.00000e+00 2.25000e+00
 -1  270 8.75000e-01 3.50000e+00 2.25000e+00
 -1  271 8.75000e-01 4.00000e+00 2.25000e+00
 -1  272 1.00000e+00 3.50000e+00 2.18750e+00
 -1  273 1.00000e+00 3.75000e+00 2.25000e+00
 -1  274 1.00000e+00 4.00000e+00 2.18750e+00
 -1  275 9.37500e-01 3.50000e+00 2.25000e+00
 -1  276 9.37500e-01 4.00000e+00 2.25000e+00
 -1  277 8.75000e-01 3.50000e+00 2.18750e+00
 -1  278 8.75000e-01 3.75000e+00 2.25000e+00
 -1  279 8.75000e-01 4.00000e+00 2.18750e+00
 -1  280 1.00000e+00 3.50000e+00 2.37500e+00
 -1  281 1.00000e+00 4.00000e+00 2.37500e+00
 -1  282 8.75000e-01 3.50000e+00 2.37500e+00
 -1  283 8.75000e-01 4.00000e+00 2.37500e+00
 -1  284 1.00000e+00 3.50000e+00 2.31250e+00
 -1  285 1.00000e+00 3.75000e+00 2.37500e+00
 -1  286 1.00000e+00 4.00000e+00 2.31250e+00
 -1  287 9.37500e-01 3.50000e+00 2.37500e+00
 -1  288 9.37500e-01 4.00000e+00 2.37500e+00
 -1  289 8.75000e-01 3.50000e+00 2.31250e+00
 -1  290 8.75000e-01 3.75000e+00 2.37500e+00
 -1  291 8.75000e-01 4.00000e+00 2.31250e+00
 -1  292 1.00000e+00 3.50000e+00 2.50000e+00
 -1  293 1.00000e+00 4.00000e+00 2.50000e+00
 -1  294 8.75000e-01 3.50000e+00 2.50000e+00
 -1  295 8.75000e-01 4.00000e+00 2.50000e+00
 -1  296 1.00000e+00 3.50000e+00 2.43750e+00
 -1  297 1.00000e+00 3.75000e+00 2.50000e+00
 -1  298 1.00000e+00 4.00000e+00 2.43750e+00
 -1  299 9.37500e-01 3.50000e+00 2.50000e+00
 -1  300 9.37500e-01 4.00000e+00 2.50000e+00
 -1  301 8.75000e-01 3.50000e+00 2.43750e+00
 -1  302 8.75000e-01 3.75000e+00 2.50000e+00
 -1  303 8.75000e-01 4.00000e+00 2.43750e+00
 -1  304 1.00000e+00 3.50000e+00 2.62500e+00
 -1  305 1.00000e+00 4.00000e+00 2.62500e+00
 -1  306 8.75000e-01 3.50000e+00 2.62500e+00
 -1  307 8.75000e-01 4.00000e+00 2.62500e+00
 -1  308 1.00000e+00 3.50000e+00 2.56250e+00
 -1  309 1.00000e+00 3.75000e+00 2.62500e+00
 -1  310 1.00000e+00 4.00000e+00 2.56250e+00
 -1  311 9.37500e-01 3.50000e+00 2.62500e+00
 -1  312 9.37500e-01 4.00000e+00 2.62500e+00
 -1  313 8.75000e-01 3.50000e+00 2.56250e+00
 -1  314 8.75000e-01 3.75000e+00 2.62500e+00
 -1  315 8.75000e-01 4.00000e+00 2.56250e+00
 -1  316 1.00000e+00 3.50000e+00 2.75000e+00
 -1  317 1.00000e+00 4.00000e+00 2.75000e+00
 -1  318 8.75000e-01 3.50000e+00 2.75000e+00
 -1  319 8.75000e-01 4.00000e+00 2.75000e+00
 -1  320 1.00000e+00 3.50000e+00 2.68750e+00
 -1  321 1.00000e+00 3.75000e+00 2.75000e+00
 -1  322 1.00000e+00 4.00000e+00 2.68750e+00
 -1  323 9.37500e-01 3.50000e+00 2.75000e+00
 -1  324 9.37500e-01 4.00000e+00 2.75000e+00
 -1  325 8.75000e-01 3.50000e+00 2.68750e+00
 -1  326 8.75000e-01 3.75000e+00 2.75000e+00
 -1  327 8.75000e-01 4.00000e+00 2.68750e+00
 -1  328 1.00000e+00 3.50000e+00 2.87500e+00
 -1  329 1.00000e+00 4.00000e+00 2.87500e+00
 -1  330 8.75000e-01 3.50000e+00 2.87500e+00
 -1  331 8.75000e-01 4.00000e+00 2.87500e+00
 -1  332 1.00000e+00 3.50000e+00 2.81250e+00
 -1  333 1.00000e+00 3.75000e+00 2.87500e+00
 -1  334 1.00000e+00 4.00000e+00 2.81250e+00
 -1  335 9.37500e-01 3.50000e+00 2.87500e+00
 -1  336 9.37500e-01 4.00000e+00 2.87500e+00
 -1  337 8.75000e-01 3.50000e+00 2.81250e+00
 -1  338 8.75000e-01 3.75000e+00 2.87500e+00
 -1  339 8.75000e-01 4.00000e+00 2.81250e+00
 -1  340 1.00000e+00 3.50000e+00 3.00000e+00
 -1  341 1.00000e+00 4.00000e+00 3.00000e+00
 -1  342 8.75000e-01 3.50000e+00 3.00000e+00
 -1  343 8.75000e-01 4.00000e+00 3.00000e+00
 -1  344 1.00000e+00 3.50000e+00 2.93750e+00
 -1  345 1.00000e+00 3.75000e+00 3.00000e+00
 -1  346 1.00000e+00 4.00000e+00 2.93750e+00
 -1  347 9.37500e-01 3.50000e+00 3.00000e+00
 -1  348 9.37500e-01 4.00000e+00 3.00000e+00
 -1  349 8.75000e-01 3.50000e+00 2.93750e+00
 -1  350 8.75000e-01 3.75000e+00 3.00000e+00
 -1  351 8.75000e-01 4.00000e+00 2.93750e+00
 -1  352 1.00000e+00 3.50000e+00 3.12500e+00
 -1  353 1.00000e+00 4.00000e+00 3.12500e+00
 -1  354 8.75000e-01 3.50000e+00 3.12500e+00
 -1  355 8.75000e-01 4.00000e+00 3.12500e+00
 -1  356 1.00000e+00 3.50000e+00 3.06250e+00
 -1  357 1.00000e+00 3.75000e+00 3.12500e+00
 -1  358 1.00000e+00 4.00000e+00 3.06250e+00
 -1  359 9.37500e-01 3.50000e+00 3.12500e+00
 -1  360 9.37500e-01 4.00000e+00 3.12500e+00
 -1  361 8.75000e-01 3.50000e+00 3.06250e+00
 -1  362 8.75000e-01 3.75000e+00 3.12500e+00
 -1  363 8.75000e-01 4.00000e+00 3.06250e+00
 -1  364 1.00000e+00 3.50000e+00 3.25000e+00
 -1  365 1.00000e+00 4.00000e+00 3.25000e+00
 -1  366 8.75000e-01 3.50000e+00 3.25000e+00
 -1  367 8.75000e-01 4.00000e+00 3.25000e+00
 -1  368 1.00000e+00 3.50000e+00 3.18750e+00
 -1  369 1.00000e+00 3.75000e+00 3.25000e+00
 -1  370 1.00000e+00 4.00000e+00 3.18750e+00
 -1  371 9.37500e-01 3.50000e+00 3.25000e+00
 -1  372 9.37500e-01 4.00000e+00 3.25000e+00
 -1  373 8.75000e-01 3.50000e+00 3.18750e+00
 -1  374 8.75000e-01 3.75000e+00 3.25000e+00
 -1  375 8.75000e-01 4.00000e+00 3.18750e+00
 -1  376 1.00000e+00 3.50000e+00 3.37500e+00
 -1  377 1.00000e+00 4.00000e+00 3.37500e+00
 -1  378 8.75000e-01 3.50000e+00 3.37500e+00
 -1  379 8.75000e-01 4.00000e+00 3.37500e+00
 -1  380 1.00000e+00 3.50000e+00 3.31250e+00
 -1  381 1.00000e+00 3.75000e+00 3.37500e+00
 -1  382 1.00000e+00 4.00000e+00 3.31250e+00
 -1  383 9.37500e-01 3.50000e+00 3.37500e+00
 -1  384 9.37500e-01 4.00000e+00 3.37500e+00
 -1  385 8.75000e-01 3.50000e+00 3.31250e+00
 -1  386 8.75000e-01 3.75000e+00 3.37500e+00
 -1  387 8.75000e-01 4.00000e+00 3.31250e+00
 -1  388 1.00000e+00 3.50000e+00 3.50000e+00
 -1  389 1.00000e+00 4.00000e+00 3.50000e+00
 -1  390 8.75000e-01 3.50000e+00 3.50000e+00
 -1  391 8.75000e-01 4.00000e+00 3.50000e+00
 -1  392 1.00000e+00 3.50000e+00 3.43750e+00
 -1  393 1.00000e+00 3.75000e+00 3.50000e+00
 -1  394 1.00000e+00 4.00000e+00 3.43750e+00
 -1  395 9.37500e-01 3.50000e+00 3.50000e+00
 -1  396 9.37500e-01 4.00000e+00 3.50000e+00
 -1  397 8.75000e-01 3.50000e+00 3.43750e+00
 -1  398 8.75000e-01 3.75000e+00 3.50000e+00
 -1  399 8.75000e-01 4.00000e+00 3.43750e+00
 -1  400 1.00000e+00 3.50000e+00 3.62500e+00
 -1  401 1.00000e+00 4.00000e+00 3.62500e+00
 -1  402 8.75000e-01 3.50000e+00 3.62500e+00
 -1  403 8.75000e-01 4.00000e+00 3.62500e+00
 -1  404 1.00000e+00 3.50000e+00 3.56250e+00
 -1  405 1.00000e+00 3.75000e+00 3.62500e+00
 -1  406 1.00000e+00 4.00000e+00 3.56250e+00
 -1  407 9.37500e-01 3.50000e+00 3.62500e+00
 -1  408 9.37500e-01 4.00000e+00 3.62500e+00
 -1  409 8.75000e-01 3.50000e+00 3.56250e+00
 -1  410 8.75000e-01 3.75000e+00 3.62500e+00
 -1  411 8.75000e-01 4.00000e+00 3.56250e+00
 -1  412 1.00000e+00 3.50000e+00 3.75000e+00
 -1  413 1.00000e+00 4.00000e+00 3.75000e+00
 -1  414 8.75000e-01 3.50000e+00 3.75000e+00
 -1  415 8.75000e-01 4.00000e+00 3.75000e+00
 -1  416 1.00000e+00 3.50000e+00 3.68750e+00
 -1  417 1.00000e+00 3.75000e+00 3.75000e+00
 -1  418 1.00000e+00 4.00000e+00 3.68750e+00
 -1  419 9.37500e-01 3.50000e+00 3.75000e+00
 -1  420 9.37500e-01 4.00000e+00 3.75000e+00
 -1  421 8.75000e-01 3.50000e+00 3.68750e+00
 -1  422 8.75000e-01 3.75000e+00 3.75000e+00
 -1  423 8.75000e-01 4.00000e+00 3.68750e+00
 -1  424 1.00000e+00 3.50000e+00 3.87500e+00
 -1  425 1.00000e+00 4.00000e+00 3.87500e+00
 -1  426 8.75000e-01 3.50000e+00 3.87500e+00
 -1  427 8.75000e-01 4.00000e+00 3.87500e+00
 -1  428 1.00000e+00 3.50000e+00 3.81250e+00
 -1  429 1.00000e+00 3.75000e+00 3.87500e+00
 -1  430 1.00000e+00 4.00000e+00 3.81250e+00
 -1  431 9.37500e-01 3.50000e+00 3.87500e+00
 -1  432 9.37500e-01 4.00000e+00 3.87500e+00
 -1  433 8.75000e-01 3.50000e+00 3.81250e+00
 -1  434 8.75000e-01 3.75000e+00 3.87500e+00
 -1  435 8.75000e-01 4.00000e+00 3.81250e+00
 -1  436 1.00000e+00 3.50000e+00 4.00000e+00
 -1  437 1.00000e+00 4.00000e+00 4.00000e+00
 -1  438 8.75000e-01 3.50000e+00 4.00000e+00
 -1  439 8.75000e-01 4.00000e+00 4.00000e+00
 -1  440 1.00000e+00 3.50000e+00 3.93750e+00
 -1  441 1.00000e+00 3.75000e+00 4.00000e+00
 -1  442 1.00000e+00 4.00000e+00 3.93750e+00
 -1  443 9.37500e-01 3.50000e+00 4.00000e+00
 -1  444 9.37500e-01 4.00000e+00 4.00000e+00
 -1  445 8.75000e-01 3.50000e+00 3.93750e+00
 -1  446 8.75000e-01 3.75000e+00 4.00000e+00
 -1  447 8.75000e-01 4.00000e+00 3.93750e+00
 -1  448 7.50000e-01 4.00000e+00 0.00000e+00
 -1  449 7.50000e-01 3.50000e+00-2.22045e-16
 -1  450 7.50000e-01 3.50000e+00 1.25000e-01
 -1  451 7.50000e-01 4.00000e+00 1.25000e-01
 -1  452 8.12500e-01 4.00000e+00 0.00000e+00
 -1  453 8.12500e-01 3.50000e+00 4.44089e-16
 -1  454 8.12500e-01 3.50000e+00 1.25000e-01
 -1  455 8.12500e-01 4.00000e+00 1.25000e-01
 -1  456 7.50000e-01 3.75000e+00-2.22045e-16
 -1  457 7.50000e-01 3.50000e+00 6.25000e-02
 -1  458 7.50000e-01 3.75000e+00 1.25000e-01
 -1  459 7.50000e-01 4.00000e+00 6.25000e-02
 -1  460 7.50000e-01 3.50000e+00 2.50000e-01
 -1  461 7.50000e-01 4.00000e+00 2.50000e-01
 -1  462 8.12500e-01 3.50000e+00 2.50000e-01
 -1  463 8.12500e-01 4.00000e+00 2.50000e-01
 -1  464 7.50000e-01 3.50000e+00 1.87500e-01
 -1  465 7.50000e-01 3.75000e+00 2.50000e-01
 -1  466 7.50000e-01 4.00000e+00 1.87500e-01
 -1  467 7.50000e-01 3.50000e+00 3.75000e-01
 -1  468 7.50000e-01 4.00000e+00 3.75000e-01
 -1  469 8.12500e-01 3.50000e+00 3.75000e-01
 -1  470 8.12500e-01 4.00000e+00 3.75000e-01
 -1  471 7.50000e-01 3.50000e+00 3.12500e-01
 -1  472 7.50000e-01 3.75000e+00 3.75000e-01
 -1  473 7.50000e-01 4.00000e+00 3.12500e-01
 -1  474 7.50000e-01 3.50000e+00 5.00000e-01
 -1  475 7.50000e-01 4.00000e+00 5.00000e-01
 -1  476 8.12500e-01 3.50000e+00 5.00000e-01
 -1  477 8.12500e-01 4.00000e+00 5.00000e-01
 -1  478 7.50000e-01 3.50000e+00 4.37500e-01
 -1  479 7.50000e-01 3.75000e+00 5.00000e-01
 -1  480 7.50000e-01 4.00000e+00 4.37500e-01
 -1  481 7.50000e-01 3.50000e+00 6.25000e-01
 -1  482 7.50000e-01 4.00000e+00 6.25000e-01
 -1  483 8.12500e-01 3.50000e+00 6.25000e-01
 -1  484 8.12500e-01 4.00000e+00 6.25000e-01
 -1  485 7.50000e-01 3.50000e+00 5.62500e-01
 -1  486 7.50000e-01 3.75000e+00 6.25000e-01
 -1  487 7.50000e-01 4.00000e+00 5.62500e-01
 -1  488 7.50000e-01 3.50000e+00 7.50000e-01
 -1  489 7.50000e-01 4.00000e+00 7.50000e-01
 -1  490 8.12500e-01 3.50000e+00 7.50000e-01
 -1  491 8.12500e-01 4.00000e+00 7.50000e-01
 -1  492 7.50000e-01 3.50000e+00 6.87500e-01
 -1  493 7.50000e-01 3.75000e+00 7.50000e-01
 -1  494 7.50000e-01 4.00000e+00 6.87500e-01
 -1  495 7.50000e-01 3.50000e+00 8.75000e-01
 -1  496 7.50000e-01 4.00000e+00 8.75000e-01
 -1  497 8.12500e-01 3.50000e+00 8.75000e-01
 -1  498 8.12500e-01 4.00000e+00 8.75000e-01
 -1  499 7.50000e-01 3.50000e+00 8.12500e-01
 -1  500 7.50000e-01 3.75000e+00 8.75000e-01
 -1  501 7.50000e-01 4.00000e+00 8.12500e-01
 -1  502 7.50000e-01 3.50000e+00 1.00000e+00
 -1  503 7.50000e-01 4.00000e+00 1.00000e+00
 -1  504 8.12500e-01 3.50000e+00 1.00000e+00
 -1  505 8.12500e-01 4.00000e+00 1.00000e+00
 -1  506 7.50000e-01 3.50000e+00 9.37500e-01
 -1  507 7.50000e-01 3.75000e+00 1.00000e+00
 -1  508 7.50000e-01 4.00000e+00 9.37500e-01
 -1  509 7.50000e-01 3.50000e+00 1.12500e+00
 -1  510 7.50000e-01 4.00000e+00 1.12500e+00
 -1  511 8.12500e-01 3.50000e+00 1.12500e+00
 -1  512 8.12500e-01 4.00000e+00 1.12500e+00
 -1  513 7.50000e-01 3.50000e+00 1.06250e+00
 -1  514 7.50000e-01 3.75000e+00 1.12500e+00
 -1  515 7.50000e-01 4.00000e+00 1.06250e+00
 -1  516 7.50000e-01 3.50000e+00 1.25000e+00
 -1  517 7.50000e-01 4.00000e+00 1.25000e+00
 -1  518 8.12500e-01 3.50000e+00 1.25000e+00
 -1  519 8.12500e-01 4.00000e+00 1.25000e+00
 -1  520 7.50000e-01 3.50000e+00 1.18750e+00
 -1  521 7.50000e-01 3.75000e+00 1.25000e+00
 -1  522 7.50000e-01 4.00000e+00 1.18750e+00
 -1  523 7.50000e-01 3.50000e+00 1.37500e+00
 -1  524 7.50000e-01 4.00000e+00 1.37500e+00
 -1  525 8.12500e-01 3.50000e+00 1.37500e+00
 -1  526 8.12500e-01 4.00000e+00 1.37500e+00
 -1  527 7.50000e-01 3.50000e+00 1.31250e+00
 -1  528 7.50000e-01 3.75000e+00 1.37500e+00
 -1  529 7.50000e-01 4.00000e+00 1.31250e+00
 -1  530 7.50000e-01 3.50000e+00 1.50000e+00
 -1  531 7.50000e-01 4.00000e+00 1.50000e+00
 -1  532 8.12500e-01 3.50000e+00 1.50000e+00
 -1  533 8.12500e-01 4.00000e+00 1.50000e+00
 -1  534 7.50000e-01 3.50000e+00 1.43750e+00
 -1  535 7.50000e-01 3.75000e+00 1.50000e+00
 -1  536 7.50000e-01 4.00000e+00 1.43750e+00
 -1  537 7.50000e-01 3.50000e+00 1.62500e+00
 -1  538 7.50000e-01 4.00000e+00 1.62500e+00
 -1  539 8.12500e-01 3.50000e+00 1.62500e+00
 -1  540 8.12500e-01 4.00000e+00 1.62500e+00
 -1  541 7.50000e-01 3.50000e+00 1.56250e+00
 -1  542 7.50000e-01 3.75000e+00 1.62500e+00
 -1  543 7.50000e-01 4.00000e+00 1.56250e+00
 -1  544 7.50000e-01 3.50000e+00 1.75000e+00
 -1  545 7.50000e-01 4.00000e+00 1.75000e+00
 -1  546 8.12500e-01 3.50000e+00 1.75000e+00
 -1  547 8.12500e-01 4.00000e+00 1.75000e+00
 -1  548 7.50000e-01 3.50000e+00 1.68750e+00
 -1  549 7.50000e-01 3.75000e+00 1.75000e+00
 -1  550 7.50000e-01 4.00000e+00 1.68750e+00
 -1  551 7.50000e-01 3.50000e+00 1.87500e+00
 -1  552 7.50000e-01 4.00000e+00 1.87500e+00
 -1  553 8.12500e-01 3.50000e+00 1.87500e+00
 -1  554 8.12500e-01 4.00000e+00 1.87500e+00
 -1  555 7.50000e-01 3.50000e+00 1.81250e+00
 -1  556 7.50000e-01 3.75000e+00 1.87500e+00
 -1  557 7.50000e-01 4.00000e+00 1.81250e+00
 -1  558 7.50000e-01 3.50000e+00 2.00000e+00
 -1  559 7.50000e-01 4.00000e+00 2.00000e+00
 -1  560 8.12500e-01 3.50000e+00 2.00000e+00
 -1  561 8.12500e-01 4.00000e+00 2.00000e+00
 -1  562 7.50000e-01 3.50000e+00 1.93750e+00
 -1  563 7.50000e-01 3.75000e+00 2.00000e+00
 -1  564 7.50000e-01 4.00000e+00 1.93750e+00
 -1  565 7.50000e-01 3.50000e+00 2.12500e+00
 -1  566 7.50000e-01 4.00000e+00 2.12500e+00
 -1  567 8.12500e-01 3.50000e+00 2.12500e+00
 -1  568 8.12500e-01 4.00000e+00 2.12500e+00
 -1  569 7.50000e-01 3.50000e+00 2.06250e+00
 -1  570 7.50000e-01 3.75000e+00 2.12500e+00
 -1  571 7.50000e-01 4.00000e+00 2.06250e+00
 -1  572 7.50000e-01 3.50000e+00 2.25000e+00
 -1  573 7.50000e-01 4.00000e+00 2.25000e+00
 -1  574 8.12500e-01 3.50000e+00 2.25000e+00
 -1  575 8.12500e-01 4.00000e+00 2.25000e+00
 -1  576 7.50000e-01 3.50000e+00 2.18750e+00
 -1  577 7.50000e-01 3.75000e+00 2.25000e+00
 -1  578 7.50000e-01 4.00000e+00 2.18750e+00
 -1  579 7.50000e-01 3.50000e+00 2.37500e+00
 -1  580 7.50000e-01 4.00000e+00 2.37500e+00
 -1  581 8.12500e-01 3.50000e+00 2.37500e+00
 -1  582 8.12500e-01 4.00000e+00 2.37500e+00
 -1  583 7.50000e-01 3.50000e+00 2.31250e+00
 -1  584 7.50000e-01 3.75000e+00 2.37500e+00
 -1  585 7.50000e-01 4.00000e+00 2.31250e+00
 -1  586 7.50000e-01 3.50000e+00 2.50000e+00
 -1  587 7.50000e-01 4.00000e+00 2.50000e+00
 -1  588 8.12500e-01 3.50000e+00 2.50000e+00
 -1  589 8.12500e-01 4.00000e+00 2.50000e+00
 -1  590 7.50000e-01 3.50000e+00 2.43750e+00
 -1  591 7.50000e-01 3.75000e+00 2.50000e+00
 -1  592 7.50000e-01 4.00000e+00 2.43750e+00
 -1  593 7.50000e-01 3.50000e+00 2.62500e+00
 -1  594 7.50000e-01 4.00000e+00 2.62500e+00
 -1  595 8.12500e-01 3.50000e+00 2.62500e+00
 -1  596 8.12500e-01 4.00000e+00 2.62500e+00
 -1  597 7.50000e-01 3.50000e+00 2.56250e+00
 -1  598 7.50000e-01 3.75000e+00 2.62500e+00
 -1  599 7.50000e-01 4.00000e+00 2.56250e+00
 -1  600 7.50000e-01 3.50000e+00 2.75000e+00
 -1  601 7.50000e-01 4.00000e+00 2.75000e+00
 -1  602 8.12500e-01 3.50000e+00 2.75000e+00
 -1  603 8.12500e-01 4.00000e+00 2.75000e+00
 -1  604 7.50000e-01 3.50000e+00 2.68750e+00
 -1  605 7.50000e-01 3.75000e+00 2.75000e+00
 -1  606 7.50000e-01 4.00000e+00 2.68750e+00
 -1  607 7.50000e-01 3.50000e+00 2.87500e+00
 -1  608 7.50000e-01 4.00000e+00 2.87500e+00
 -1  609 8.12500e-01 3.50000e+00 2.87500e+00
 -1  610 8.12500e-01 4.00000e+00 2.87500e+00
 -1  611 7.50000e-01 3.50000e+00 2.81250e+00
 -1  612 7.50000e-01 3.75000e+00 2.87500e+00
 -1  613 7.50000e-01 4.00000e+00 2.81250e+00
 -1  614 7.50000e-01 3.50000e+00 3.00000e+00
 -1  615 7.50000e-01 4.00000e+00 3.00000e+00
 -1  616 8.12500e-01 3.50000e+00 3.00000e+00
 -1  617 8.12500e-01 4.00000e+00 3.00000e+00
 -1  618 7.50000e-01 3.50000e+00 2.93750e+00
 -1  619 7.50000e-01 3.75000e+00 3.00000e+00
 -1  620 7.50000e-01 4.00000e+00 2.93750e+00
 -1  621 7.50000e-01 3.50000e+00 3.12500e+00
 -1  622 7.50000e-01 4.00000e+00 3.12500e+00
 -1  623 8.12500e-01 3.50000e+00 3.12500e+00
 -1  624 8.12500e-01 4.00000e+00 3.12500e+00
 -1  625 7.50000e-01 3.50000e+00 3.06250e+00
 -1  626 7.50000e-01 3.75000e+00 3.12500e+00
 -1  627 7.50000e-01 4.00000e+00 3.06250e+00
 -1  628 7.50000e-01 3.50000e+00 3.25000e+00
 -1  629 7.50000e-01 4.00000e+00 3.25000e+00
 -1  630 8.12500e-01 3.50000e+00 3.25000e+00
 -1  631 8.12500e-01 4.00000e+00 3.25000e+00
 -1  632 7.50000e-01 3.50000e+00 3.18750e+00
 -1  633 7.50000e-01 3.75000e+00 3.25000e+00
 -1  634 7.50000e-01 4.00000e+00 3.18750e+00
 -1  635 7.50000e-01 3.50000e+00 3.37500e+00
 -1  636 7.50000e-01 4.00000e+00 3.37500e+00
 -1  637 8.12500e-01 3.50000e+00 3.37500e+00
 -1  638 8.12500e-01 4.00000e+00 3.37500e+00
 -1  639 7.50000e-01 3.50000e+00 3.31250e+00
 -1  640 7.50000e-01 3.75000e+00 3.37500e+00
 -1  641 7.50000e-01 4.00000e+00 3.31250e+00
 -1  642 7.50000e-01 3.50000e+00 3.50000e+00
 -1  643 7.50000e-01 4.00000e+00 3.50000e+00
 -1  644 8.12500e-01 3.50000e+00 3.50000e+00
 -1  645 8.12500e-01 4.00000e+00 3.50000e+00
 -1  646 7.50000e-01 3.50000e+00 3.43750e+00
 -1  647 7.50000e-01 3.75000e+00 3.50000e+00
 -1  648 7.50000e-01 4.00000e+00 3.43750e+00
 -1  649 7.50000e-01 3.50000e+00 3.62500e+00
 -1  650 7.50000e-01 4.00000e+00 3.62500e+00
 -1  651 8.12500e-01 3.50000e+00 3.62500e+00
 -1  652 8.12500e-01 4.00000e+00 3.62500e+00
 -1  653 7.50000e-01 3.50000e+00 3.56250e+00
 -1  654 7.50000e-01 3.75000e+00 3.62500e+00
 -1  655 7.50000e-01 4.00000e+00 3.56250e+00
 -1  656 7.50000e-01 3.50000e+00 3.75000e+00
 -1  657 7.50000e-01 4.00000e+00 3.75000e+00
 -1  658 8.12500e-01 3.50000e+00 3.75000e+00
 -1  659 8.12500e-01 4.00000e+00 3.75000e+00
 -1  660 7.50000e-01 3.50000e+00 3.68750e+00
 -1  661 7.50000e-01 3.75000e+00 3.75000e+00
 -1  662 7.50000e-01 4.00000e+00 3.68750e+00
 -1  663 7.50000e-01 3.50000e+00 3.87500e+00
 -1  664 7.50000e-01 4.00000e+00 3.87500e+00
 -1  665 8.12500e-01 3.50000e+00 3.87500e+00
 -1  666 8.12500e-01 4.00000e+00 3.87500e+00
 -1  667 7.50000e-01 3.50000e+00 3.81250e+00
 -1  668 7.50000e-01 3.75000e+00 3.87500e+00
 -1  669 7.50000e-01 4.00000e+00 3.81250e+00
 -1  670 7.50000e-01 3.50000e+00 4.00000e+00
 -1  671 7.50000e-01 4.00000e+00 4.00000e+00
 -1  672 8.12500e-01 3.50000e+00 4.00000e+00
 -1  673 8.12500e-01 4.00000e+00 4.00000e+00
 -1  674 7.50000e-01 3.50000e+00 3.93750e+00
 -1  675 7.50000e-01 3.75000e+00 4.00000e+00
 -1  676 7.50000e-01 4.00000e+00 3.93750e+00
 -1  677 6.25000e-01 4.00000e+00 0.00000e+00
 -1  678 6.25000e-01 3.50000e+00 4.44089e-16
 -1  679 6.25000e-01 3.50000e+00 1.25000e-01
 -1  680 6.25000e-01 4.00000e+00 1.25000e-01
 -1  681 6.87500e-01 4.00000e+00 0.00000e+00
 -1  682 6.87500e-01 3.50000e+00 4.44089e-16
 -1  683 6.87500e-01 3.50000e+00 1.25000e-01
 -1  684 6.87500e-01 4.00000e+00 1.25000e-01
 -1  685 6.25000e-01 3.75000e+00 0.00000e+00
 -1  686 6.25000e-01 3.50000e+00 6.25000e-02
 -1  687 6.25000e-01 3.75000e+00 1.25000e-01
 -1  688 6.25000e-01 4.00000e+00 6.25000e-02
 -1  689 6.25000e-01 3.50000e+00 2.50000e-01
 -1  690 6.25000e-01 4.00000e+00 2.50000e-01
 -1  691 6.87500e-01 3.50000e+00 2.50000e-01
 -1  692 6.87500e-01 4.00000e+00 2.50000e-01
 -1  693 6.25000e-01 3.50000e+00 1.87500e-01
 -1  694 6.25000e-01 3.75000e+00 2.50000e-01
 -1  695 6.25000e-01 4.00000e+00 1.87500e-01
 -1  696 6.25000e-01 3.50000e+00 3.75000e-01
 -1  697 6.25000e-01 4.00000e+00 3.75000e-01
 -1  698 6.87500e-01 3.50000e+00 3.75000e-01
 -1  699 6.87500e-01 4.00000e+00 3.75000e-01
 -1  700 6.25000e-01 3.50000e+00 3.12500e-01
 -1  701 6.25000e-01 3.75000e+00 3.75000e-01
 -1  702 6.25000e-01 4.00000e+00 3.12500e-01
 -1  703 6.25000e-01 3.50000e+00 5.00000e-01
 -1  704 6.25000e-01 4.00000e+00 5.00000e-01
 -1  705 6.87500e-01 3.50000e+00 5.00000e-01
 -1  706 6.87500e-01 4.00000e+00 5.00000e-01
 -1  707 6.25000e-01 3.50000e+00 4.37500e-01
 -1  708 6.25000e-01 3.75000e+00 5.00000e-01
 -1  709 6.25000e-01 4.00000e+00 4.37500e-01
 -1  710 6.25000e-01 3.50000e+00 6.25000e-01
 -1  711 6.25000e-01 4.00000e+00 6.25000e-01
 -1  712 6.87500e-01 3.50000e+00 6.25000e-01
 -1  713 6.87500e-01 4.00000e+00 6.25000e-01
 -1  714 6.25000e-01 3.50000e+00 5.62500e-01
 -1  715 6.25000e-01 3.75000e+00 6.25000e-01
 -1  716 6.25000e-01 4.00000e+00 5.62500e-01
 -1  717 6.25000e-01 3.50000e+00 7.50000e-01
 -1  718 6.25000e-01 4.00000e+00 7.50000e-01
 -1  719 6.87500e-01 3.50000e+00 7.50000e-01
 -1  720 6.87500e-01 4.00000e+00 7.50000e-01
 -1  721 6.25000e-01 3.50000e+00 6.87500e-01
 -1  722 6.25000e-01 3.75000e+00 7.50000e-01
 -1  723 6.25000e-01 4.00000e+00 6.87500e-01
 -1  724 6.25000e-01 3.50000e+00 8.75000e-01
 -1  725 6.25000e-01 4.00000e+00 8.75000e-01
 -1  726 6.87500e-01 3.50000e+00 8.75000e-01
 -1  727 6.87500e-01 4.00000e+00 8.75000e-01
 -1  728 6.25000e-01 3.50000e+00 8.12500e-01
 -1  729 6.25000e-01 3.75000e+00 8.75000e-01
 -1  730 6.25000e-01 4.00000e+00 8.12500e-01
 -1  731 6.25000e-01 3.50000e+00 1.00000e+00
 -1  732 6.25000e-01 4.00000e+00 1.00000e+00
 -1  733 6.87500e-01 3.50000e+00 1.00000e+00
 -1  734 6.87500e-01 4.00000e+00 1.00000e+00
 -1  735 6.25000e-01 3.50000e+00 9.37500e-01
 -1  736 6.25000e-01 3.75000e+00 1.00000e+00
 -1  737 6.25000e-01 4.00000e+00 9.37500e-01
 -1  738 6.25000e-01 3.50000e+00 1.12500e+00
 -1  739 6.25000e-01 4.00000e+00 1.12500e+00
 -1  740 6.87500e-01 3.50000e+00 1.12500e+00
 -1  741 6.87500e-01 4.00000e+00 1.12500e+00
 -1  742 6.25000e-01 3.50000e+00 1.06250e+00
 -1  743 6.25000e-01 3.75000e+00 1.12500e+00
 -1  744 6.25000e-01 4.00000e+00 1.06250e+00
 -1  745 6.25000e-01 3.50000e+00 1.25000e+00
 -1  746 6.25000e-01 4.00000e+00 1.25000e+00
 -1  747 6.87500e-01 3.50000e+00 1.25000e+00
 -1  748 6.87500e-01 4.00000e+00 1.25000e+00
 -1  749 6.25000e-01 3.50000e+00 1.18750e+00
 -1  750 6.25000e-01 3.75000e+00 1.25000e+00
 -1  751 6.25000e-01 4.00000e+00 1.18750e+00
 -1  752 6.25000e-01 3.50000e+00 1.37500e+00
 -1  753 6.25000e-01 4.00000e+00 1.37500e+00
 -1  754 6.87500e-01 3.50000e+00 1.37500e+00
 -1  755 6.87500e-01 4.00000e+00 1.37500e+00
 -1  756 6.25000e-01 3.50000e+00 1.31250e+00
 -1  757 6.25000e-01 3.75000e+00 1.37500e+00
 -1  758 6.25000e-01 4.00000e+00 1.31250e+00
 -1  759 6.25000e-01 3.50000e+00 1.50000e+00
 -1  760 6.25000e-01 4.00000e+00 1.50000e+00
 -1  761 6.87500e-01 3.50000e+00 1.50000e+00
 -1  762 6.87500e-01 4.00000e+00 1.50000e+00
 -1  763 6.25000e-01 3.50000e+00 1.43750e+00
 -1  764 6.25000e-01 3.75000e+00 1.50000e+00
 -1  765 6.25000e-01 4.00000e+00 1.43750e+00
 -1  766 6.25000e-01 3.50000e+00 1.62500e+00
 -1  767 6.25000e-01 4.00000e+00 1.62500e+00
 -1  768 6.87500e-01 3.50000e+00 1.62500e+00
 -1  769 6.87500e-01 4.00000e+00 1.62500e+00
 -1  770 6.25000e-01 3.50000e+00 1.56250e+00
 -1  771 6.25000e-01 3.75000e+00 1.62500e+00
 -1  772 6.25000e-01 4.00000e+00 1.56250e+00
 -1  773 6.25000e-01 3.50000e+00 1.75000e+00
 -1  774 6.25000e-01 4.00000e+00 1.75000e+00
 -1  775 6.87500e-01 3.50000e+00 1.75000e+00
 -1  776 6.87500e-01 4.00000e+00 1.75000e+00
 -1  777 6.25000e-01 3.50000e+00 1.68750e+00
 -1  778 6.25000e-01 3.75000e+00 1.75000e+00
 -1  779 6.25000e-01 4.00000e+00 1.68750e+00
 -1  780 6.25000e-01 3.50000e+00 1.87500e+00
 -1  781 6.25000e-01 4.00000e+00 1.87500e+00
 -1  782 6.87500e-01 3.50000e+00 1.87500e+00
 -1  783 6.87500e-01 4.00000e+00 1.87500e+00
 -1  784 6.25000e-01 3.50000e+00 1.81250e+00
 -1  785 6.25000e-01 3.75000e+00 1.87500e+00
 -1  786 6.25000e-01 4.00000e+00 1.81250e+00
 -1  787 6.25000e-01 3.50000e+00 2.00000e+00
 -1  788 6.25000e-01 4.00000e+00 2.00000e+00
 -1  789 6.87500e-01 3.50000e+00 2.00000e+00
 -1  790 6.87500e-01 4.00000e+00 2.00000e+00
 -1  791 6.25000e-01 3.50000e+00 1.93750e+00
 -1  792 6.25000e-01 3.75000e+00 2.00000e+00
 -1  793 6.25000e-01 4.00000e+00 1.93750e+00
 -1  794 6.25000e-01 3.50000e+00 2.12500e+00
 -1  795 6.25000e-01 4.00000e+00 2.12500e+00
 -1  796 6.87500e-01 3.50000e+00 2.12500e+00
 -1  797 6.87500e-01 4.00000e+00 2.12500e+00
 -1  798 6.25000e-01 3.50000e+00 2.06250e+00
 -1  799 6.25000e-01 3.75000e+00 2.12500e+00
 -1  800 6.25000e-01 4.00000e+00 2.06250e+00
 -1  801 6.25000e-01 3.50000e+00 2.25000e+00
 -1  802 6.25000e-01 4.00000e+00 2.25000e+00
 -1  803 6.87500e-01 3.50000e+00 2.25000e+00
 -1  804 6.87500e-01 4.00000e+00 2.25000e+00
 -1  805 6.25000e-01 3.50000e+00 2.18750e+00
 -1  806 6.25000e-01 3.75000e+00 2.25000e+00
 -1  807 6.25000e-01 4.00000e+00 2.18750e+00
 -1  808 6.25000e-01 3.50000e+00 2.37500e+00
 -1  809 6.25000e-01 4.00000e+00 2.37500e+00
 -1  810 6.87500e-01 3.50000e+00 2.37500e+00
 -1  811 6.87500e-01 4.00000e+00 2.37500e+00
 -1  812 6.25000e-01 3.50000e+00 2.31250e+00
 -1  813 6.25000e-01 3.75000e+00 2.37500e+00
 -1  814 6.25000e-01 4.00000e+00 2.31250e+00
 -1  815 6.25000e-01 3.50000e+00 2.50000e+00
 -1  816 6.25000e-01 4.00000e+00 2.50000e+00
 -1  817 6.87500e-01 3.50000e+00 2.50000e+00
 -1  818 6.87500e-01 4.00000e+00 2.50000e+00
 -1  819 6.25000e-01 3.50000e+00 2.43750e+00
 -1  820 6.25000e-01 3.75000e+00 2.50000e+00
 -1  821 6.25000e-01 4.00000e+00 2.43750e+00
 -1  822 6.25000e-01 3.50000e+00 2.62500e+00
 -1  823 6.25000e-01 4.00000e+00 2.62500e+00
 -1  824 6.87500e-01 3.50000e+00 2.62500e+00
 -1  825 6.87500e-01 4.00000e+00 2.62500e+00
 -1  826 6.25000e-01 3.50000e+00 2.56250e+00
 -1  827 6.25000e-01 3.75000e+00 2.62500e+00
 -1  828 6.25000e-01 4.00000e+00 2.56250e+00
 -1  829 6.25000e-01 3.50000e+00 2.75000e+00
 -1  830 6.25000e-01 4.00000e+00 2.75000e+00
 -1  831 6.87500e-01 3.50000e+00 2.75000e+00
 -1  832 6.87500e-01 4.00000e+00 2.75000e+00
 -1  833 6.25000e-01 3.50000e+00 2.68750e+00
 -1  834 6.25000e-01 3.75000e+00 2.75000e+00
 -1  835 6.25000e-01 4.00000e+00 2.68750e+00
 -1  836 6.25000e-01 3.50000e+00 2.87500e+00
 -1  837 6.25000e-01 4.00000e+00 2.87500e+00
 -1  838 6.87500e-01 3.50000e+00 2.87500e+00
 -1  839 6.87500e-01 4.00000e+00 2.87500e+00
 -1  840 6.25000e-01 3.50000e+00 2.81250e+00
 -1  841 6.25000e-01 3.75000e+00 2.87500e+00
 -1  842 6.25000e-01 4.00000e+00 2.81250e+00
 -1  843 6.25000e-01 3.50000e+00 3.00000e+00
 -1  844 6.25000e-01 4.00000e+00 3.00000e+00
 -1  845 6.87500e-01 3.50000e+00 3.00000e+00
 -1  846 6.87500e-01 4.00000e+00 3.00000e+00
 -1  847 6.25000e-01 3.50000e+00 2.93750e+00
 -1  848 6.25000e-01 3.75000e+00 3.00000e+00
 -1  849 6.25000e-01 4.00000e+00 2.93750e+00
 -1  850 6.25000e-01 3.50000e+00 3.12500e+00
 -1  851 6.25000e-01 4.00000e+00 3.12500e+00
 -1  852 6.87500e-01 3.50000e+00 3.12500e+00
 -1  853 6.87500e-01 4.00000e+00 3.12500e+00
 -1  854 6.25000e-01 3.50000e+00 3.06250e+00
 -1  855 6.25000e-01 3.75000e+00 3.12500e+00
 -1  856 6.25000e-01 4.00000e+00 3.06250e+00
 -1  857 6.25000e-01 3.50000e+00 3.25000e+00
 -1  858 6.25000e-01 4.00000e+00 3.25000e+00
 -1  859 6.87500e-01 3.50000e+00 3.25000e+00
 -1  860 6.87500e-01 4.00000e+00 3.25000e+00
 -1  861 6.25000e-01 3.50000e+00 3.18750e+00
 -1  862 6.25000e-01 3.75000e+00 3.25000e+00
 -1  863 6.25000e-01 4.00000e+00 3.18750e+00
 -1  864 6.25000e-01 3.50000e+00 3.37500e+00
 -1  865 6.25000e-01 4.00000e+00 3.37500e+00
 -1  866 6.87500e-01 3.50000e+00 3.37500e+00
 -1  867 6.87500e-01 4.00000e+00 3.37500e+00
 -1  868 6.25000e-01 3.50000e+00 3.31250e+00
 -1  869 6.25000e-01 3.75000e+00 3.37500e+00
 -1  870 6.25000e-01 4.00000e+00 3.31250e+00
 -1  871 6.25000e-01 3.50000e+00 3.50000e+00
 -1  872 6.25000e-01 4.00000e+00 3.50000e+00
 -1  873 6.87500e-01 3.50000e+00 3.50000e+00
 -1  874 6.87500e-01 4.00000e+00 3.50000e+00
 -1  875 6.25000e-01 3.50000e+00 3.43750e+00
 -1  876 6.25000e-01 3.75000e+00 3.50000e+00
 -1  877 6.25000e-01 4.00000e+00 3.43750e+00
 -1  878 6.25000e-01 3.50000e+00 3.62500e+00
 -1  879 6.25000e-01 4.00000e+00 3.62500e+00
 -1  880 6.87500e-01 3.50000e+00 3.62500e+00
 -1  881 6.87500e-01 4.00000e+00 3.62500e+00
 -1  882 6.25000e-01 3.50000e+00 3.56250e+00
 -1  883 6.25000e-01 3.75000e+00 3.62500e+00
 -1  884 6.25000e-01 4.00000e+00 3.56250e+00
 -1  885 6.25000e-01 3.50000e+00 3.75000e+00
 -1  886 6.25000e-01 4.00000e+00 3.75000e+00
 -1  887 6.87500e-01 3.50000e+00 3.75000e+00
 -1  888 6.87500e-01 4.00000e+00 3.75000e+00
 -1  889 6.25000e-01 3.50000e+00 3.68750e+00
 -1  890 6.25000e-01 3.75000e+00 3.75000e+00
 -1  891 6.25000e-01 4.00000e+00 3.68750e+00
 -1  892 6.25000e-01 3.50000e+00 3.87500e+00
 -1  893 6.25000e-01 4.00000e+00 3.87500e+00
 -1  894 6.87500e-01 3.50000e+00 3.87500e+00
 -1  895 6.87500e-01 4.00000e+00 3.87500e+00
 -1  896 6.25000e-01 3.50000e+00 3.81250e+00
 -1  897 6.25000e-01 3.75000e+00 3.87500e+00
 -1  898 6.25000e-01 4.00000e+00 3.81250e+00
 -1  899 6.25000e-01 3.50000e+00 4.00000e+00
 -1  900 6.25000e-01 4.00000e+00 4.00000e+00
 -1  901 6.87500e-01 3.50000e+00 4.00000e+00
 -1  902 6.87500e-01 4.00000e+00 4.00000e+00
 -1  903 6.25000e-01 3.50000e+00 3.93750e+00
 -1  904 6.25000e-01 3.75000e+00 4.00000e+00
 -1  905 6.25000e-01 4.00000e+00 3.93750e+00
 -1  906 5.00000e-01 4.00000e+00 0.00000e+00
 -1  907 5.00000e-01 3.50000e+00 4.44089e-16
 -1  908 5.00000e-01 3.50000e+00 1.25000e-01
 -1  909 5.00000e-01 4.00000e+00 1.25000e-01
 -1  910 5.62500e-01 4.00000e+00 0.00000e+00
 -1  911 5.62500e-01 3.50000e+00-8.88178e-16
 -1  912 5.62500e-01 3.50000e+00 1.25000e-01
 -1  913 5.62500e-01 4.00000e+00 1.25000e-01
 -1  914 5.00000e-01 3.75000e+00-8.88178e-16
 -1  915 5.00000e-01 3.50000e+00 6.25000e-02
 -1  916 5.00000e-01 3.75000e+00 1.25000e-01
 -1  917 5.00000e-01 4.00000e+00 6.25000e-02
 -1  918 5.00000e-01 3.50000e+00 2.50000e-01
 -1  919 5.00000e-01 4.00000e+00 2.50000e-01
 -1  920 5.62500e-01 3.50000e+00 2.50000e-01
 -1  921 5.62500e-01 4.00000e+00 2.50000e-01
 -1  922 5.00000e-01 3.50000e+00 1.87500e-01
 -1  923 5.00000e-01 3.75000e+00 2.50000e-01
 -1  924 5.00000e-01 4.00000e+00 1.87500e-01
 -1  925 5.00000e-01 3.50000e+00 3.75000e-01
 -1  926 5.00000e-01 4.00000e+00 3.75000e-01
 -1  927 5.62500e-01 3.50000e+00 3.75000e-01
 -1  928 5.62500e-01 4.00000e+00 3.75000e-01
 -1  929 5.00000e-01 3.50000e+00 3.12500e-01
 -1  930 5.00000e-01 3.75000e+00 3.75000e-01
 -1  931 5.00000e-01 4.00000e+00 3.12500e-01
 -1  932 5.00000e-01 3.50000e+00 5.00000e-01
 -1  933 5.00000e-01 4.00000e+00 5.00000e-01
 -1  934 5.62500e-01 3.50000e+00 5.00000e-01
 -1  935 5.62500e-01 4.00000e+00 5.00000e-01
 -1  936 5.00000e-01 3.50000e+00 4.37500e-01
 -1  937 5.00000e-01 3.75000e+00 5.00000e-01
 -1  938 5.00000e-01 4.00000e+00 4.37500e-01
 -1  939 5.00000e-01 3.50000e+00 6.25000e-01
 -1  940 5.00000e-01 4.00000e+00 6.25000e-01
 -1  941 5.62500e-01 3.50000e+00 6.25000e-01
 -1  942 5.62500e-01 4.00000e+00 6.25000e-01
 -1  943 5.00000e-01 3.50000e+00 5.62500e-01
 -1  944 5.00000e-01 3.75000e+00 6.25000e-01
 -1  945 5.00000e-01 4.00000e+00 5.62500e-01
 -1  946 5.00000e-01 3.50000e+00 7.50000e-01
 -1  947 5.00000e-01 4.00000e+00 7.50000e-01
 -1  948 5.62500e-01 3.50000e+00 7.50000e-01
 -1  949 5.62500e-01 4.00000e+00 7.50000e-01
 -1  950 5.00000e-01 3.50000e+00 6.87500e-01
 -1  951 5.00000e-01 3.75000e+00 7.50000e-01
 -1  952 5.00000e-01 4.00000e+00 6.87500e-01
 -1  953 5.00000e-01 3.50000e+00 8.75000e-01
 -1  954 5.00000e-01 4.00000e+00 8.75000e-01
 -1  955 5.62500e-01 3.50000e+00 8.75000e-01
 -1  956 5.62500e-01 4.00000e+00 8.75000e-01
 -1  957 5.00000e-01 3.50000e+00 8.12500e-01
 -1  958 5.00000e-01 3.75000e+00 8.75000e-01
 -1  959 5.00000e-01 4.00000e+00 8.12500e-01
 -1  960 5.00000e-01 3.50000e+00 1.00000e+00
 -1  961 5.00000e-01 4.00000e+00 1.00000e+00
 -1  962 5.62500e-01 3.50000e+00 1.00000e+00
 -1  963 5.62500e-01 4.00000e+00 1.00000e+00
 -1  964 5.00000e-01 3.50000e+00 9.37500e-01
 -1  965 5.00000e-01 3.75000e+00 1.00000e+00
 -1  966 5.00000e-01 4.00000e+00 9.37500e-01
 -1  967 5.00000e-01 3.50000e+00 1.12500e+00
 -1  968 5.00000e-01 4.00000e+00 1.12500e+00
 -1  969 5.62500e-01 3.50000e+00 1.12500e+00
 -1  970 5.62500e-01 4.00000e+00 1.12500e+00
 -1  971 5.00000e-01 3.50000e+00 1.06250e+00
 -1  972 5.00000e-01 3.75000e+00 1.12500e+00
 -1  973 5.00000e-01 4.00000e+00 1.06250e+00
 -1  974 5.00000e-01 3.50000e+00 1.25000e+00
 -1  975 5.00000e-01 4.00000e+00 1.25000e+00
 -1  976 5.62500e-01 3.50000e+00 1.25000e+00
 -1  977 5.62500e-01 4.00000e+00 1.25000e+00
 -1  978 5.00000e-01 3.50000e+00 1.18750e+00
 -1  979 5.00000e-01 3.75000e+00 1.25000e+00
 -1  980 5.00000e-01 4.00000e+00 1.18750e+00
 -1  981 5.00000e-01 3.50000e+00 1.37500e+00
 -1  982 5.00000e-01 4.00000e+00 1.37500e+00
 -1  983 5.62500e-01 3.50000e+00 1.37500e+00
 -1  984 5.62500e-01 4.00000e+00 1.37500e+00
 -1  985 5.00000e-01 3.50000e+00 1.31250e+00
 -1  986 5.00000e-01 3.75000e+00 1.37500e+00
 -1  987 5.00000e-01 4.00000e+00 1.31250e+00
 -1  988 5.00000e-01 3.50000e+00 1.50000e+00
 -1  989 5.00000e-01 4.00000e+00 1.50000e+00
 -1  990 5.62500e-01 3.50000e+00 1.50000e+00
 -1  991 5.62500e-01 4.00000e+00 1.50000e+00
 -1  992 5.00000e-01 3.50000e+00 1.43750e+00
 -1  993 5.00000e-01 3.75000e+00 1.50000e+00
 -1  994 5.00000e-01 4.00000e+00 1.43750e+00
 -1  995 5.00000e-01 3.50000e+00 1.62500e+00
 -1  996 5.00000e-01 4.00000e+00 1.62500e+00
 -1  997 5.62500e-01 3.50000e+00 1.62500e+00
 -1  998 5.62500e-01 4.00000e+00 1.62500e+00
 -1  999 5.00000e-01 3.50000e+00 1.56250e+00
 -1 1000 5.00000e-01 3.75000e+00 1.62500e+00
 -1 1001 5.00000e-01 4.00000e+00 1.56250e+00
 -1 1002 5.00000e-01 3.50000e+00 1.75000e+00
 -1 1003 5.00000e-01 4.00000e+00 1.75000e+00
 -1 1004 5.62500e-01 3.50000e+00 1.75000e+00
 -1 1005 5.62500e-01 4.00000e+00 1.75000e+00
 -1 1006 5.00000e-01 3.50000e+00 1.68750e+00
 -1 1007 5.00000e-01 3.75000e+00 1.75000e+00
 -1 1008 5.00000e-01 4.00000e+00 1.68750e+00
 -1 1009 5.00000e-01 3.50000e+00 1.87500e+00
 -1 1010 5.00000e-01 4.00000e+00 1.87500e+00
 -1 1011 5.62500e-01 3.50000e+00 1.87500e+00
 -1 1012 5.62500e-01 4.00000e+00 1.87500e+00
 -1 1013 5.00000e-01 3.50000e+00 1.81250e+00
 -1 1014 5.00000e-01 3.75000e+00 1.87500e+00
 -1 1015 5.00000e-01 4.00000e+00 1.81250e+00
 -1 1016 5.00000e-01 3.50000e+00 2.00000e+00
 -1 1017 5.00000e-01 4.00000e+00 2.00000e+00
 -1 1018 5.62500e-01 3.50000e+00 2.00000e+00
 -1 1019 5.62500e-01 4.00000e+00 2.00000e+00
 -1 1020 5.00000e-01 3.50000e+00 1.93750e+00
 -1 1021 5.00000e-01 3.75000e+00 2.00000e+00
 -1 1022 5.00000e-01 4.00000e+00 1.93750e+00
 -1 1023 5.00000e-01 3.50000e+00 2.12500e+00
 -1 1024 5.00000e-01 4.00000e+00 2.12500e+00
 -1 1025 5.62500e-01 3.50000e+00 2.12500e+00
 -1 1026 5.62500e-01 4.00000e+00 2.12500e+00
 -1 1027 5.00000e-01 3.50000e+00 2.06250e+00
 -1 1028 5.00000e-01 3.75000e+00 2.12500e+00
 -1 1029 5.00000e-01 4.00000e+00 2.06250e+00
 -1 1030 5.00000e-01 3.50000e+00 2.25000e+00
 -1 1031 5.00000e-01 4.00000e+00 2.25000e+00
 -1 1032 5.62500e-01 3.50000e+00 2.25000e+00
 -1 1033 5.62500e-01 4.00000e+00 2.25000e+00
 -1 1034 5.00000e-01 3.50000e+00 2.18750e+00
 -1 1035 5.00000e-01 3.75000e+00 2.25000e+00
 -1 1036 5.00000e-01 4.00000e+00 2.18750e+00
 -1 1037 5.00000e-01 3.50000e+00 2.37500e+00
 -1 1038 5.00000e-01 4.00000e+00 2.37500e+00
 -1 1039 5.62500e-01 3.50000e+00 2.37500e+00
 -1 1040 5.62500e-01 4.00000e+00 2.37500e+00
 -1 1041 5.00000e-01 3.50000e+00 2.31250e+00
 -1 1042 5.00000e-01 3.75000e+00 2.37500e+00
 -1 1043 5.00000e-01 4.00000e+00 2.31250e+00
 -1 1044 5.00000e-01 3.50000e+00 2.50000e+00
 -1 1045 5.00000e-01 4.00000e+00 2.50000e+00
 -1 1046 5.62500e-01 3.50000e+00 2.50000e+00
 -1 1047 5.62500e-01 4.00000e+00 2.50000e+00
 -1 1048 5.00000e-01 3.50000e+00 2.43750e+00
 -1 1049 5.00000e-01 3.75000e+00 2.50000e+00
 -1 1050 5.00000e-01 4.00000e+00 2.43750e+00
 -1 1051 5.00000e-01 3.50000e+00 2.62500e+00
 -1 1052 5.00000e-01 4.00000e+00 2.62500e+00
 -1 1053 5.62500e-01 3.50000e+00 2.62500e+00
 -1 1054 5.62500e-01 4.00000e+00 2.62500e+00
 -1 1055 5.00000e-01 3.50000e+00 2.56250e+00
 -1 1056 5.00000e-01 3.75000e+00 2.62500e+00
 -1 1057 5.00000e-01 4.00000e+00 2.56250e+00
 -1 1058 5.00000e-01 3.50000e+00 2.75000e+00
 -1 1059 5.00000e-01 4.00000e+00 2.75000e+00
 -1 1060 5.62500e-01 3.50000e+00 2.75000e+00
 -1 1061 5.62500e-01 4.00000e+00 2.75000e+00
 -1 1062 5.00000e-01 3.50000e+00 2.68750e+00
 -1 1063 5.00000e-01 3.75000e+00 2.75000e+00
 -1 1064 5.00000e-01 4.00000e+00 2.68750e+00
 -1 1065 5.00000e-01 3.50000e+00 2.87500e+00
 -1 1066 5.00000e-01 4.00000e+00 2.87500e+00
 -1 1067 5.62500e-01 3.50000e+00 2.87500e+00
 -1 1068 5.62500e-01 4.00000e+00 2.87500e+00
 -1 1069 5.00000e-01 3.50000e+00 2.81250e+00
 -1 1070 5.00000e-01 3.75000e+00 2.87500e+00
 -1 1071 5.00000e-01 4.00000e+00 2.81250e+00
 -1 1072 5.00000e-01 3.50000e+00 3.00000e+00
 -1 1073 5.00000e-01 4.00000e+00 3.00000e+00
 -1 1074 5.62500e-01 3.50000e+00 3.00000e+00
 -1 1075 5.62500e-01 4.00000e+00 3.00000e+00
 -1 1076 5.00000e-01 3.50000e+00 2.93750e+00
 -1 1077 5.00000e-01 3.75000e+00 3.00000e+00
 -1 1078 5.00000e-01 4.00000e+00 2.93750e+00
 -1 1079 5.00000e-01 3.50000e+00 3.12500e+00
 -1 1080 5.00000e-01 4.00000e+00 3.12500e+00
 -1 1081 5.62500e-01 3.50000e+00 3.12500e+00
 -1 1082 5.62500e-01 4.00000e+00 3.12500e+00
 -1 1083 5.00000e-01 3.50000e+00 3.06250e+00
 -1 1084 5.00000e-01 3.75000e+00 3.12500e+00
 -1 1085 5.00000e-01 4.00000e+00 3.06250e+00
 -1 1086 5.00000e-01 3.50000e+00 3.25000e+00
 -1 1087 5.00000e-01 4.00000e+00 3.25000e+00
 -1 1088 5.62500e-01 3.50000e+00 3.25000e+00
 -1 1089 5.62500e-01 4.00000e+00 3.25000e+00
 -1 1090 5.00000e-01 3.50000e+00 3.18750e+00
 -1 1091 5.00000e-01 3.75000e+00 3.25000e+00
 -1 1092 5.00000e-01 4.00000e+00 3.18750e+00
 -1 1093 5.00000e-01 3.50000e+00 3.37500e+00
 -1 1094 5.00000e-01 4.00000e+00 3.37500e+00
 -1 1095 5.62500e-01 3.50000e+00 3.37500e+00
 -1 1096 5.62500e-01 4.00000e+00 3.37500e+00
 -1 1097 5.00000e-01 3.50000e+00 3.31250e+00
 -1 1098 5.00000e-01 3.75000e+00 3.37500e+00
 -1 1099 5.00000e-01 4.00000e+00 3.31250e+00
 -1 1100 5.00000e-01 3.50000e+00 3.50000e+00
 -1 1101 5.00000e-01 4.00000e+00 3.50000e+00
 -1 1102 5.62500e-01 3.50000e+00 3.50000e+00
 -1 1103 5.62500e-01 4.00000e+00 3.50000e+00
 -1 1104 5.00000e-01 3.50000e+00 3.43750e+00
 -1 1105 5.00000e-01 3.75000e+00 3.50000e+00
 -1 1106 5.00000e-01 4.00000e+00 3.43750e+00
 -1 1107 5.00000e-01 3.50000e+00 3.62500e+00
 -1 1108 5.00000e-01 4.00000e+00 3.62500e+00
 -1 1109 5.62500e-01 3.50000e+00 3.62500e+00
 -1 1110 5.62500e-01 4.00000e+00 3.62500e+00
 -1 1111 5.00000e-01 3.50000e+00 3.56250e+00
 -1 1112 5.00000e-01 3.75000e+00 3.62500e+00
 -1 1113 5.00000e-01 4.00000e+00 3.56250e+00
 -1 1114 5.00000e-01 3.50000e+00 3.75000e+00
 -1 1115 5.00000e-01 4.00000e+00 3.75000e+00
 -1 1116 5.62500e-01 3.50000e+00 3.75000e+00
 -1 1117 5.62500e-01 4.00000e+00 3.75000e+00
 -1 1118 5.00000e-01 3.50000e+00 3.68750e+00
 -1 1119 5.00000e-01 3.75000e+00 3.75000e+00
 -1 1120 5.00000e-01 4.00000e+00 3.68750e+00
 -1 1121 5.00000e-01 3.50000e+00 3.87500e+00
 -1 1122 5.00000e-01 4.00000e+00 3.87500e+00
 -1 1123 5.62500e-01 3.50000e+00 3.87500e+00
 -1 1124 5.62500e-01 4.00000e+00 3.87500e+00
 -1 1125 5.00000e-01 3.50000e+00 3.81250e+00
 -1 1126 5.00000e-01 3.75000e+00 3.87500e+00
 -1 1127 5.00000e-01 4.00000e+00 3.81250e+00
 -1 1128 5.00000e-01 3.50000e+00 4.00000e+00
 -1 1129 5.00000e-01 4.00000e+00 4.00000e+00
 -1 1130 5.62500e-01 3.50000e+00 4.00000e+00
 -1 1131 5.62500e-01 4.00000e+00 4.00000e+00
 -1 1132 5.00000e-01 3.50000e+00 3.93750e+00
 -1 1133 5.00000e-01 3.75000e+00 4.00000e+00
 -1 1134 5.00000e-01 4.00000e+00 3.93750e+00
 -1 1135 3.75000e-01 4.00000e+00 0.00000e+00
 -1 1136 3.75000e-01 3.50000e+00 0.00000e+00
 -1 1137 3.75000e-01 3.50000e+00 1.25000e-01
 -1 1138 3.75000e-01 4.00000e+00 1.25000e-01
 -1 1139 4.37500e-01 4.00000e+00 0.00000e+00
 -1 1140 4.37500e-01 3.50000e+00 0.00000e+00
 -1 1141 4.37500e-01 3.50000e+00 1.25000e-01
 -1 1142 4.37500e-01 4.00000e+00 1.25000e-01
 -1 1143 3.75000e-01 3.75000e+00 0.00000e+00
 -1 1144 3.75000e-01 3.50000e+00 6.25000e-02
 -1 1145 3.75000e-01 3.75000e+00 1.25000e-01
 -1 1146 3.75000e-01 4.00000e+00 6.25000e-02
 -1 1147 3.75000e-01 3.50000e+00 2.50000e-01
 -1 1148 3.75000e-01 4.00000e+00 2.50000e-01
 -1 1149 4.37500e-01 3.50000e+00 2.50000e-01
 -1 1150 4.37500e-01 4.00000e+00 2.50000e-01
 -1 1151 3.75000e-01 3.50000e+00 1.87500e-01
 -1 1152 3.75000e-01 3.75000e+00 2.50000e-01
 -1 1153 3.75000e-01 4.00000e+00 1.87500e-01
 -1 1154 3.75000e-01 3.50000e+00 3.75000e-01
 -1 1155 3.75000e-01 4.00000e+00 3.75000e-01
 -1 1156 4.37500e-01 3.50000e+00 3.75000e-01
 -1 1157 4.37500e-01 4.00000e+00 3.75000e-01
 -1 1158 3.75000e-01 3.50000e+00 3.12500e-01
 -1 1159 3.75000e-01 3.75000e+00 3.75000e-01
 -1 1160 3.75000e-01 4.00000e+00 3.12500e-01
 -1 1161 3.75000e-01 3.50000e+00 5.00000e-01
 -1 1162 3.75000e-01 4.00000e+00 5.00000e-01
 -1 1163 4.37500e-01 3.50000e+00 5.00000e-01
 -1 1164 4.37500e-01 4.00000e+00 5.00000e-01
 -1 1165 3.75000e-01 3.50000e+00 4.37500e-01
 -1 1166 3.75000e-01 3.75000e+00 5.00000e-01
 -1 1167 3.75000e-01 4.00000e+00 4.37500e-01
 -1 1168 3.75000e-01 3.50000e+00 6.25000e-01
 -1 1169 3.75000e-01 4.00000e+00 6.25000e-01
 -1 1170 4.37500e-01 3.50000e+00 6.25000e-01
 -1 1171 4.37500e-01 4.00000e+00 6.25000e-01
 -1 1172 3.75000e-01 3.50000e+00 5.62500e-01
 -1 1173 3.75000e-01 3.75000e+00 6.25000e-01
 -1 1174 3.75000e-01 4.00000e+00 5.62500e-01
 -1 1175 3.75000e-01 3.50000e+00 7.50000e-01
 -1 1176 3.75000e-01 4.00000e+00 7.50000e-01
 -1 1177 4.37500e-01 3.50000e+00 7.50000e-01
 -1 1178 4.37500e-01 4.00000e+00 7.50000e-01
 -1 1179 3.75000e-01 3.50000e+00 6.87500e-01
 -1 1180 3.75000e-01 3.75000e+00 7.50000e-01
 -1 1181 3.75000e-01 4.00000e+00 6.87500e-01
 -1 1182 3.75000e-01 3.50000e+00 8.75000e-01
 -1 1183 3.75000e-01 4.00000e+00 8.75000e-01
 -1 1184 4.37500e-01 3.50000e+00 8.75000e-01
 -1 1185 4.37500e-01 4.00000e+00 8.75000e-01
 -1 1186 3.75000e-01 3.50000e+00 8.12500e-01
 -1 1187 3.75000e-01 3.75000e+00 8.75000e-01
 -1 1188 3.75000e-01 4.00000e+00 8.12500e-01
 -1 1189 3.75000e-01 3.50000e+00 1.00000e+00
 -1 1190 3.75000e-01 4.00000e+00 1.00000e+00
 -1 1191 4.37500e-01 3.50000e+00 1.00000e+00
 -1 1192 4.37500e-01 4.00000e+00 1.00000e+00
 -1 1193 3.75000e-01 3.50000e+00 9.37500e-01
 -1 1194 3.75000e-01 3.75000e+00 1.00000e+00
 -1 1195 3.75000e-01 4.00000e+00 9.37500e-01
 -1 1196 3.75000e-01 3.50000e+00 1.12500e+00
 -1 1197 3.75000e-01 4.00000e+00 1.12500e+00
 -1 1198 4.37500e-01 3.50000e+00 1.12500e+00
 -1 1199 4.37500e-01 4.00000e+00 1.12500e+00
 -1 1200 3.75000e-01 3.50000e+00 1.06250e+00
 -1 1201 3.75000e-01 3.75000e+00 1.12500e+00
 -1 1202 3.75000e-01 4.00000e+00 1.06250e+00
 -1 1203 3.75000e-01 3.50000e+00 1.25000e+00
 -1 1204 3.75000e-01 4.00000e+00 1.25000e+00
 -1 1205 4.37500e-01 3.50000e+00 1.25000e+00
 -1 1206 4.37500e-01 4.00000e+00 1.25000e+00
 -1 1207 3.75000e-01 3.50000e+00 1.18750e+00
 -1 1208 3.75000e-01 3.75000e+00 1.25000e+00
 -1 1209 3.75000e-01 4.00000e+00 1.18750e+00
 -1 1210 3.75000e-01 3.50000e+00 1.37500e+00
 -1 1211 3.75000e-01 4.00000e+00 1.37500e+00
 -1 1212 4.37500e-01 3.50000e+00 1.37500e+00
 -1 1213 4.37500e-01 4.00000e+00 1.37500e+00
 -1 1214 3.75000e-01 3.50000e+00 1.31250e+00
 -1 1215 3.75000e-01 3.75000e+00 1.37500e+00
 -1 1216 3.75000e-01 4.00000e+00 1.31250e+00
 -1 1217 3.75000e-01 3.50000e+00 1.50000e+00
 -1 1218 3.75000e-01 4.00000e+00 1.50000e+00
 -1 1219 4.37500e-01 3.50000e+00 1.50000e+00
 -1 1220 4.37500e-01 4.00000e+00 1.50000e+00
 -1 1221 3.75000e-01 3.50000e+00 1.43750e+00
 -1 1222 3.75000e-01 3.75000e+00 1.50000e+00
 -1 1223 3.75000e-01 4.00000e+00 1.43750e+00
 -1 1224 3.75000e-01 3.50000e+00 1.62500e+00
 -1 1225 3.75000e-01 4.00000e+00 1.62500e+00
 -1 1226 4.37500e-01 3.50000e+00 1.62500e+00
 -1 1227 4.37500e-01 4.00000e+00 1.62500e+00
 -1 1228 3.75000e-01 3.50000e+00 1.56250e+00
 -1 1229 3.75000e-01 3.75000e+00 1.62500e+00
 -1 1230 3.75000e-01 4.00000e+00 1.56250e+00
 -1 1231 3.75000e-01 3.50000e+00 1.75000e+00
 -1 1232 3.75000e-01 4.00000e+00 1.75000e+00
 -1 1233 4.37500e-01 3.50000e+00 1.75000e+00
 -1 1234 4.37500e-01 4.00000e+00 1.75000e+00
 -1 1235 3.75000e-01 3.50000e+00 1.68750e+00
 -1 1236 3.75000e-01 3.75000e+00 1.75000e+00
 -1 1237 3.75000e-01 4.00000e+00 1.68750e+00
 -1 1238 3.75000e-01 3.50000e+00 1.87500e+00
 -1 1239 3.75000e-01 4.00000e+00 1.87500e+00
 -1 1240 4.37500e-01 3.50000e+00 1.87500e+00
 -1 1241 4.37500e-01 4.00000e+00 1.87500e+00
 -1 1242 3.75000e-01 3.50000e+00 1.81250e+00
 -1 1243 3.75000e-01 3.75000e+00 1.87500e+00
 -1 1244 3.75000e-01 4.00000e+00 1.81250e+00
 -1 1245 3.75000e-01 3.50000e+00 2.00000e+00
 -1 1246 3.75000e-01 4.00000e+00 2.00000e+00
 -1 1247 4.37500e-01 3.50000e+00 2.00000e+00
 -1 1248 4.37500e-01 4.00000e+00 2.00000e+00
 -1 1249 3.75000e-01 3.50000e+00 1.93750e+00
 -1 1250 3.75000e-01 3.75000e+00 2.00000e+00
 -1 1251 3.75000e-01 4.00000e+00 1.93750e+00
 -1 1252 3.75000e-01 3.50000e+00 2.12500e+00
 -1 1253 3.75000e-01 4.00000e+00 2.12500e+00
 -1 1254 4.37500e-01 3.50000e+00 2.12500e+00
 -1 1255 4.37500e-01 4.00000e+00 2.12500e+00
 -1 1256 3.75000e-01 3.50000e+00 2.06250e+00
 -1 1257 3.75000e-01 3.75000e+00 2.12500e+00
 -1 1258 3.75000e-01 4.00000e+00 2.06250e+00
 -1 1259 3.75000e-01 3.50000e+00 2.25000e+00
 -1 1260 3.75000e-01 4.00000e+00 2.25000e+00
 -1 1261 4.37500e-01 3.50000e+00 2.25000e+00
 -1 1262 4.37500e-01 4.00000e+00 2.25000e+00
 -1 1263 3.75000e-01 3.50000e+00 2.18750e+00
 -1 1264 3.75000e-01 3.75000e+00 2.25000e+00
 -1 1265 3.75000e-01 4.00000e+00 2.18750e+00
 -1 1266 3.75000e-01 3.50000e+00 2.37500e+00
 -1 1267 3.75000e-01 4.00000e+00 2.37500e+00
 -1 1268 4.37500e-01 3.50000e+00 2.37500e+00
 -1 1269 4.37500e-01 4.00000e+00 2.37500e+00
 -1 1270 3.75000e-01 3.50000e+00 2.31250e+00
 -1 1271 3.75000e-01 3.75000e+00 2.37500e+00
 -1 1272 3.75000e-01 4.00000e+00 2.31250e+00
 -1 1273 3.75000e-01 3.50000e+00 2.50000e+00
 -1 1274 3.75000e-01 4.00000e+00 2.50000e+00
 -1 1275 4.37500e-01 3.50000e+00 2.50000e+00
 -1 1276 4.37500e-01 4.00000e+00 2.50000e+00
 -1 1277 3.75000e-01 3.50000e+00 2.43750e+00
 -1 1278 3.75000e-01 3.75000e+00 2.50000e+00
 -1 1279 3.75000e-01 4.00000e+00 2.43750e+00
 -1 1280 3.75000e-01 3.50000e+00 2.62500e+00
 -1 1281 3.75000e-01 4.00000e+00 2.62500e+00
 -1 1282 4.37500e-01 3.50000e+00 2.62500e+00
 -1 1283 4.37500e-01 4.00000e+00 2.62500e+00
 -1 1284 3.75000e-01 3.50000e+00 2.56250e+00
 -1 1285 3.75000e-01 3.75000e+00 2.62500e+00
 -1 1286 3.75000e-01 4.00000e+00 2.56250e+00
 -1 1287 3.75000e-01 3.50000e+00 2.75000e+00
 -1 1288 3.75000e-01 4.00000e+00 2.75000e+00
 -1 1289 4.37500e-01 3.50000e+00 2.75000e+00
 -1 1290 4.37500e-01 4.00000e+00 2.75000e+00
 -1 1291 3.75000e-01 3.50000e+00 2.68750e+00
 -1 1292 3.75000e-01 3.75000e+00 2.75000e+00
 -1 1293 3.75000e-01 4.00000e+00 2.68750e+00
 -1 1294 3.75000e-01 3.50000e+00 2.87500e+00
 -1 1295 3.75000e-01 4.00000e+00 2.87500e+00
 -1 1296 4.37500e-01 3.50000e+00 2.87500e+00
 -1 1297 4.37500e-01 4.00000e+00 2.87500e+00
 -1 1298 3.75000e-01 3.50000e+00 2.81250e+00
 -1 1299 3.75000e-01 3.75000e+00 2.87500e+00
 -1 1300 3.75000e-01 4.00000e+00 2.81250e+00
 -1 1301 3.75000e-01 3.50000e+00 3.00000e+00
 -1 1302 3.75000e-01 4.00000e+00 3.00000e+00
 -1 1303 4.37500e-01 3.50000e+00 3.00000e+00
 -1 1304 4.37500e-01 4.00000e+00 3.00000e+00
 -1 1305 3.75000e-01 3.50000e+00 2.93750e+00
 -1 1306 3.75000e-01 3.75000e+00 3.00000e+00
 -1 1307 3.75000e-01 4.00000e+00 2.93750e+00
 -1 1308 3.75000e-01 3.50000e+00 3.12500e+00
 -1 1309 3.75000e-01 4.00000e+00 3.12500e+00
 -1 1310 4.37500e-01 3.50000e+00 3.12500e+00
 -1 1311 4.37500e-01 4.00000e+00 3.12500e+00
 -1 1312 3.75000e-01 3.50000e+00 3.06250e+00
 -1 1313 3.75000e-01 3.75000e+00 3.12500e+00
 -1 1314 3.75000e-01 4.00000e+00 3.06250e+00
 -1 1315 3.75000e-01 3.50000e+00 3.25000e+00
 -1 1316 3.75000e-01 4.00000e+00 3.25000e+00
 -1 1317 4.37500e-01 3.50000e+00 3.25000e+00
 -1 1318 4.37500e-01 4.00000e+00 3.25000e+00
 -1 1319 3.75000e-01 3.50000e+00 3.18750e+00
 -1 1320 3.75000e-01 3.75000e+00 3.25000e+00
 -1 1321 3.75000e-01 4.00000e+00 3.18750e+00
 -1 1322 3.75000e-01 3.50000e+00 3.37500e+00
 -1 1323 3.75000e-01 4.00000e+00 3.37500e+00
 -1 1324 4.37500e-01 3.50000e+00 3.37500e+00
 -1 1325 4.37500e-01 4.00000e+00 3.37500e+00
 -1 1326 3.75000e-01 3.50000e+00 3.31250e+00
 -1 1327 3.75000e-01 3.75000e+00 3.37500e+00
 -1 1328 3.75000e-01 4.00000e+00 3.31250e+00
 -1 1329 3.75000e-01 3.50000e+00 3.50000e+00
 -1 1330 3.75000e-01 4.00000e+00 3.50000e+00
 -1 1331 4.37500e-01 3.50000e+00 3.50000e+00
 -1 1332 4.37500e-01 4.00000e+00 3.50000e+00
 -1 1333 3.75000e-01 3.50000e+00 3.43750e+00
 -1 1334 3.75000e-01 3.75000e+00 3.50000e+00
 -1 1335 3.75000e-01 4.00000e+00 3.43750e+00
 -1 1336 3.75000e-01 3.50000e+00 3.62500e+00
 -1 1337 3.75000e-01 4.00000e+00 3.62500e+00
 -1 1338 4.37500e-01 3.50000e+00 3.62500e+00
 -1 1339 4.37500e-01 4.00000e+00 3.62500e+00
 -1 1340 3.75000e-01 3.50000e+00 3.56250e+00
 -1 1341 3.75000e-01 3.75000e+00 3.62500e+00
 -1 1342 3.75000e-01 4.00000e+00 3.56250e+00
 -1 1343 3.75000e-01 3.50000e+00 3.75000e+00
 -1 1344 3.75000e-01 4.00000e+00 3.75000e+00
 -1 1345 4.37500e-01 3.50000e+00 3.75000e+00
 -1 1346 4.37500e-01 4.00000e+00 3.75000e+00
 -1 1347 3.75000e-01 3.50000e+00 3.68750e+00
 -1 1348 3.75000e-01 3.75000e+00 3.75000e+00
 -1 1349 3.75000e-01 4.00000e+00 3.68750e+00
 -1 1350 3.75000e-01 3.50000e+00 3.87500e+00
 -1 1351 3.75000e-01 4.00000e+00 3.87500e+00
 -1 1352 4.37500e-01 3.50000e+00 3.87500e+00
 -1 1353 4.37500e-01 4.00000e+00 3.87500e+00
 -1 1354 3.75000e-01 3.50000e+00 3.81250e+00
 -1 1355 3.75000e-01 3.75000e+00 3.87500e+00
 -1 1356 3.75000e-01 4.00000e+00 3.81250e+00
 -1 1357 3.75000e-01 3.50000e+00 4.00000e+00
 -1 1358 3.75000e-01 4.00000e+00 4.00000e+00
 -1 1359 4.37500e-01 3.50000e+00 4.00000e+00
 -1 1360 4.37500e-01 4.00000e+00 4.00000e+00
 -1 1361 3.75000e-01 3.50000e+00 3.93750e+00
 -1 1362 3.75000e-01 3.75000e+00 4.00000e+00
 -1 1363 3.75000e-01 4.00000e+00 3.93750e+00
 -1 1364 2.50000e-01 4.00000e+00 0.00000e+00
 -1 1365 2.50000e-01 3.50000e+00 0.00000e+00
 -1 1366 2.50000e-01 3.50000e+00 1.25000e-01
 -1 1367 2.50000e-01 4.00000e+00 1.25000e-01
 -1 1368 3.12500e-01 4.00000e+00 0.00000e+00
 -1 1369 3.12500e-01 3.50000e+00 4.44089e-16
 -1 1370 3.12500e-01 3.50000e+00 1.25000e-01
 -1 1371 3.12500e-01 4.00000e+00 1.25000e-01
 -1 1372 2.50000e-01 3.75000e+00 0.00000e+00
 -1 1373 2.50000e-01 3.50000e+00 6.25000e-02
 -1 1374 2.50000e-01 3.75000e+00 1.25000e-01
 -1 1375 2.50000e-01 4.00000e+00 6.25000e-02
 -1 1376 2.50000e-01 3.50000e+00 2.50000e-01
 -1 1377 2.50000e-01 4.00000e+00 2.50000e-01
 -1 1378 3.12500e-01 3.50000e+00 2.50000e-01
 -1 1379 3.12500e-01 4.00000e+00 2.50000e-01
 -1 1380 2.50000e-01 3.50000e+00 1.87500e-01
 -1 1381 2.50000e-01 3.75000e+00 2.50000e-01
 -1 1382 2.50000e-01 4.00000e+00 1.87500e-01
 -1 1383 2.50000e-01 3.50000e+00 3.75000e-01
 -1 1384 2.50000e-01 4.00000e+00 3.75000e-01
 -1 1385 3.12500e-01 3.50000e+00 3.75000e-01
 -1 1386 3.12500e-01 4.00000e+00 3.75000e-01
 -1 1387 2.50000e-01 3.50000e+00 3.12500e-01
 -1 1388 2.50000e-01 3.75000e+00 3.75000e-01
 -1 1389 2.50000e-01 4.00000e+00 3.12500e-01
 -1 1390 2.50000e-01 3.50000e+00 5.00000e-01
 -1 1391 2.50000e-01 4.00000e+00 5.00000e-01
 -1 1392 3.12500e-01 3.50000e+00 5.00000e-01
 -1 1393 3.12500e-01 4.00000e+00 5.00000e-01
 -1 1394 2.50000e-01 3.50000e+00 4.37500e-01
 -1 1395 2.50000e-01 3.75000e+00 5.00000e-01
 -1 1396 2.50000e-01 4.00000e+00 4.37500e-01
 -1 1397 2.50000e-01 3.50000e+00 6.25000e-01
 -1 1398 2.50000e-01 4.00000e+00 6.25000e-01
 -1 1399 3.12500e-01 3.50000e+00 6.25000e-01
 -1 1400 3.12500e-01 4.00000e+00 6.25000e-01
 -1 1401 2.50000e-01 3.50000e+00 5.62500e-01
 -1 1402 2.50000e-01 3.75000e+00 6.25000e-01
 -1 1403 2.50000e-01 4.00000e+00 5.62500e-01
 -1 1404 2.50000e-01 3.50000e+00 7.50000e-01
 -1 1405 2.50000e-01 4.00000e+00 7.50000e-01
 -1 1406 3.12500e-01 3.50000e+00 7.50000e-01
 -1 1407 3.12500e-01 4.00000e+00 7.50000e-01
 -1 1408 2.50000e-01 3.50000e+00 6.87500e-01
 -1 1409 2.50000e-01 3.75000e+00 7.50000e-01
 -1 1410 2.50000e-01 4.00000e+00 6.87500e-01
 -1 1411 2.50000e-01 3.50000e+00 8.75000e-01
 -1 1412 2.50000e-01 4.00000e+00 8.75000e-01
 -1 1413 3.12500e-01 3.50000e+00 8.75000e-01
 -1 1414 3.12500e-01 4.00000e+00 8.75000e-01
 -1 1415 2.50000e-01 3.50000e+00 8.12500e-01
 -1 1416 2.50000e-01 3.75000e+00 8.75000e-01
 -1 1417 2.50000e-01 4.00000e+00 8.12500e-01
 -1 1418 2.50000e-01 3.50000e+00 1.00000e+00
 -1 1419 2.50000e-01 4.00000e+00 1.00000e+00
 -1 1420 3.12500e-01 3.50000e+00 1.00000e+00
 -1 1421 3.12500e-01 4.00000e+00 1.00000e+00
 -1 1422 2.50000e-01 3.50000e+00 9.37500e-01
 -1 1423 2.50000e-01 3.75000e+00 1.00000e+00
 -1 1424 2.50000e-01 4.00000e+00 9.37500e-01
 -1 1425 2.50000e-01 3.50000e+00 1.12500e+00
 -1 1426 2.50000e-01 4.00000e+00 1.12500e+00
 -1 1427 3.12500e-01 3.50000e+00 1.12500e+00
 -1 1428 3.12500e-01 4.00000e+00 1.12500e+00
 -1 1429 2.50000e-01 3.50000e+00 1.06250e+00
 -1 1430 2.50000e-01 3.75000e+00 1.12500e+00
 -1 1431 2.50000e-01 4.00000e+00 1.06250e+00
 -1 1432 2.50000e-01 3.50000e+00 1.25000e+00
 -1 1433 2.50000e-01 4.00000e+00 1.25000e+00
 -1 1434 3.12500e-01 3.50000e+00 1.25000e+00
 -1 1435 3.12500e-01 4.00000e+00 1.25000e+00
 -1 1436 2.50000e-01 3.50000e+00 1.18750e+00
 -1 1437 2.50000e-01 3.75000e+00 1.25000e+00
 -1 1438 2.50000e-01 4.00000e+00 1.18750e+00
 -1 1439 2.50000e-01 3.50000e+00 1.37500e+00
 -1 1440 2.50000e-01 4.00000e+00 1.37500e+00
 -1 1441 3.12500e-01 3.50000e+00 1.37500e+00
 -1 1442 3.12500e-01 4.00000e+00 1.37500e+00
 -1 1443 2.50000e-01 3.50000e+00 1.31250e+00
 -1 1444 2.50000e-01 3.75000e+00 1.37500e+00
 -1 1445 2.50000e-01 4.00000e+00 1.31250e+00
 -1 1446 2.50000e-01 3.50000e+00 1.50000e+00
 -1 1447 2.50000e-01 4.00000e+00 1.50000e+00
 -1 1448 3.12500e-01 3.50000e+00 1.50000e+00
 -1 1449 3.12500e-01 4.00000e+00 1.50000e+00
 -1 1450 2.50000e-01 3.50000e+00 1.43750e+00
 -1 1451 2.50000e-01 3.75000e+00 1.50000e+00
 -1 1452 2.50000e-01 4.00000e+00 1.43750e+00
 -1 1453 2.50000e-01 3.50000e+00 1.62500e+00
 -1 1454 2.50000e-01 4.00000e+00 1.62500e+00
 -1 1455 3.12500e-01 3.50000e+00 1.62500e+00
 -1 1456 3.12500e-01 4.00000e+00 1.62500e+00
 -1 1457 2.50000e-01 3.50000e+00 1.56250e+00
 -1 1458 2.50000e-01 3.75000e+00 1.62500e+00
 -1 1459 2.50000e-01 4.00000e+00 1.56250e+00
 -1 1460 2.50000e-01 3.50000e+00 1.75000e+00
 -1 1461 2.50000e-01 4.00000e+00 1.75000e+00
 -1 1462 3.12500e-01 3.50000e+00 1.75000e+00
 -1 1463 3.12500e-01 4.00000e+00 1.75000e+00
 -1 1464 2.50000e-01 3.50000e+00 1.68750e+00
 -1 1465 2.50000e-01 3.75000e+00 1.75000e+00
 -1 1466 2.50000e-01 4.00000e+00 1.68750e+00
 -1 1467 2.50000e-01 3.50000e+00 1.87500e+00
 -1 1468 2.50000e-01 4.00000e+00 1.87500e+00
 -1 1469 3.12500e-01 3.50000e+00 1.87500e+00
 -1 1470 3.12500e-01 4.00000e+00 1.87500e+00
 -1 1471 2.50000e-01 3.50000e+00 1.81250e+00
 -1 1472 2.50000e-01 3.75000e+00 1.87500e+00
 -1 1473 2.50000e-01 4.00000e+00 1.81250e+00
 -1 1474 2.50000e-01 3.50000e+00 2.00000e+00
 -1 1475 2.50000e-01 4.00000e+00 2.00000e+00
 -1 1476 3.12500e-01 3.50000e+00 2.00000e+00
 -1 1477 3.12500e-01 4.00000e+00 2.00000e+00
 -1 1478 2.50000e-01 3.50000e+00 1.93750e+00
 -1 1479 2.50000e-01 3.75000e+00 2.00000e+00
 -1 1480 2.50000e-01 4.00000e+00 1.93750e+00
 -1 1481 2.50000e-01 3.50000e+00 2.12500e+00
 -1 1482 2.50000e-01 4.00000e+00 2.12500e+00
 -1 1483 3.12500e-01 3.50000e+00 2.12500e+00
 -1 1484 3.12500e-01 4.00000e+00 2.12500e+00
 -1 1485 2.50000e-01 3.50000e+00 2.06250e+00
 -1 1486 2.50000e-01 3.75000e+00 2.12500e+00
 -1 1487 2.50000e-01 4.00000e+00 2.06250e+00
 -1 1488 2.50000e-01 3.50000e+00 2.25000e+00
 -1 1489 2.50000e-01 4.00000e+00 2.25000e+00
 -1 1490 3.12500e-01 3.50000e+00 2.25000e+00
 -1 1491 3.12500e-01 4.00000e+00 2.25000e+00
 -1 1492 2.50000e-01 3.50000e+00 2.18750e+00
 -1 1493 2.50000e-01 3.75000e+00 2.25000e+00
 -1 1494 2.50000e-01 4.00000e+00 2.18750e+00
 -1 1495 2.50000e-01 3.50000e+00 2.37500e+00
 -1 1496 2.50000e-01 4.00000e+00 2.37500e+00
 -1 1497 3.12500e-01 3.50000e+00 2.37500e+00
 -1 1498 3.12500e-01 4.00000e+00 2.37500e+00
 -1 1499 2.50000e-01 3.50000e+00 2.31250e+00
 -1 1500 2.50000e-01 3.75000e+00 2.37500e+00
 -1 1501 2.50000e-01 4.00000e+00 2.31250e+00
 -1 1502 2.50000e-01 3.50000e+00 2.50000e+00
 -1 1503 2.50000e-01 4.00000e+00 2.50000e+00
 -1 1504 3.12500e-01 3.50000e+00 2.50000e+00
 -1 1505 3.12500e-01 4.00000e+00 2.50000e+00
 -1 1506 2.50000e-01 3.50000e+00 2.43750e+00
 -1 1507 2.50000e-01 3.75000e+00 2.50000e+00
 -1 1508 2.50000e-01 4.00000e+00 2.43750e+00
 -1 1509 2.50000e-01 3.50000e+00 2.62500e+00
 -1 1510 2.50000e-01 4.00000e+00 2.62500e+00
 -1 1511 3.12500e-01 3.50000e+00 2.62500e+00
 -1 1512 3.12500e-01 4.00000e+00 2.62500e+00
 -1 1513 2.50000e-01 3.50000e+00 2.56250e+00
 -1 1514 2.50000e-01 3.75000e+00 2.62500e+00
 -1 1515 2.50000e-01 4.00000e+00 2.56250e+00
 -1 1516 2.50000e-01 3.50000e+00 2.75000e+00
 -1 1517 2.50000e-01 4.00000e+00 2.75000e+00
 -1 1518 3.12500e-01 3.50000e+00 2.75000e+00
 -1 1519 3.12500e-01 4.00000e+00 2.75000e+00
 -1 1520 2.50000e-01 3.50000e+00 2.68750e+00
 -1 1521 2.50000e-01 3.75000e+00 2.75000e+00
 -1 1522 2.50000e-01 4.00000e+00 2.68750e+00
 -1 1523 2.50000e-01 3.50000e+00 2.87500e+00
 -1 1524 2.50000e-01 4.00000e+00 2.87500e+00
 -1 1525 3.12500e-01 3.50000e+00 2.87500e+00
 -1 1526 3.12500e-01 4.00000e+00 2.87500e+00
 -1 1527 2.50000e-01 3.50000e+00 2.81250e+00
 -1 1528 2.50000e-01 3.75000e+00 2.87500e+00
 -1 1529 2.50000e-01 4.00000e+00 2.81250e+00
 -1 1530 2.50000e-01 3.50000e+00 3.00000e+00
 -1 1531 2.50000e-01 4.00000e+00 3.00000e+00
 -1 1532 3.12500e-01 3.50000e+00 3.00000e+00
 -1 1533 3.12500e-01 4.00000e+00 3.00000e+00
 -1 1534 2.50000e-01 3.50000e+00 2.93750e+00
 -1 1535 2.50000e-01 3.75000e+00 3.00000e+00
 -1 1536 2.50000e-01 4.00000e+00 2.93750e+00
 -1 1537 2.50000e-01 3.50000e+00 3.12500e+00
 -1 1538 2.50000e-01 4.00000e+00 3.12500e+00
 -1 1539 3.12500e-01 3.50000e+00 3.12500e+00
 -1 1540 3.12500e-01 4.00000e+00 3.12500e+00
 -1 1541 2.50000e-01 3.50000e+00 3.06250e+00
 -1 1542 2.50000e-01 3.75000e+00 3.12500e+00
 -1 1543 2.50000e-01 4.00000e+00 3.06250e+00
 -1 1544 2.50000e-01 3.50000e+00 3.25000e+00
 -1 1545 2.50000e-01 4.00000e+00 3.25000e+00
 -1 1546 3.12500e-01 3.50000e+00 3.25000e+00
 -1 1547 3.12500e-01 4.00000e+00 3.25000e+00
 -1 1548 2.50000e-01 3.50000e+00 3.18750e+00
 -1 1549 2.50000e-01 3.75000e+00 3.25000e+00
 -1 1550 2.50000e-01 4.00000e+00 3.18750e+00
 -1 1551 2.50000e-01 3.50000e+00 3.37500e+00
 -1 1552 2.50000e-01 4.00000e+00 3.37500e+00
 -1 1553 3.12500e-01 3.50000e+00 3.37500e+00
 -1 1554 3.12500e-01 4.00000e+00 3.37500e+00
 -1 1555 2.50000e-01 3.50000e+00 3.31250e+00
 -1 1556 2.50000e-01 3.75000e+00 3.37500e+00
 -1 1557 2.50000e-01 4.00000e+00 3.31250e+00
 -1 1558 2.50000e-01 3.50000e+00 3.50000e+00
 -1 1559 2.50000e-01 4.00000e+00 3.50000e+00
 -1 1560 3.12500e-01 3.50000e+00 3.50000e+00
 -1 1561 3.12500e-01 4.00000e+00 3.50000e+00
 -1 1562 2.50000e-01 3.50000e+00 3.43750e+00
 -1 1563 2.50000e-01 3.75000e+00 3.50000e+00
 -1 1564 2.50000e-01 4.00000e+00 3.43750e+00
 -1 1565 2.50000e-01 3.50000e+00 3.62500e+00
 -1 1566 2.50000e-01 4.00000e+00 3.62500e+00
 -1 1567 3.12500e-01 3.50000e+00 3.62500e+00
 -1 1568 3.12500e-01 4.00000e+00 3.62500e+00
 -1 1569 2.50000e-01 3.50000e+00 3.56250e+00
 -1 1570 2.50000e-01 3.75000e+00 3.62500e+00
 -1 1571 2.50000e-01 4.00000e+00 3.56250e+00
 -1 1572 2.50000e-01 3.50000e+00 3.75000e+00
 -1 1573 2.50000e-01 4.00000e+00 3.75000e+00
 -1 1574 3.12500e-01 3.50000e+00 3.75000e+00
 -1 1575 3.12500e-01 4.00000e+00 3.75000e+00
 -1 1576 2.50000e-01 3.50000e+00 3.68750e+00
 -1 1577 2.50000e-01 3.75000e+00 3.75000e+00
 -1 1578 2.50000e-01 4.00000e+00 3.68750e+00
 -1 1579 2.50000e-01 3.50000e+00 3.87500e+00
 -1 1580 2.50000e-01 4.00000e+00 3.87500e+00
 -1 1581 3.12500e-01 3.50000e+00 3.87500e+00
 -1 1582 3.12500e-01 4.00000e+00 3.87500e+00
 -1 1583 2.50000e-01 3.50000e+00 3.81250e+00
 -1 1584 2.50000e-01 3.75000e+00 3.87500e+00
 -1 1585 2.50000e-01 4.00000e+00 3.81250e+00
 -1 1586 2.50000e-01 3.50000e+00 4.00000e+00
 -1 1587 2.50000e-01 4.00000e+00 4.00000e+00
 -1 1588 3.12500e-01 3.50000e+00 4.00000e+00
 -1 1589 3.12500e-01 4.00000e+00 4.00000e+00
 -1 1590 2.50000e-01 3.50000e+00 3.93750e+00
 -1 1591 2.50000e-01 3.75000e+00 4.00000e+00
 -1 1592 2.50000e-01 4.00000e+00 3.93750e+00
 -1 1593 1.25000e-01 4.00000e+00 0.00000e+00
 -1 1594 1.25000e-01 3.50000e+00 0.00000e+00
 -1 1595 1.25000e-01 3.50000e+00 1.25000e-01
 -1 1596 1.25000e-01 4.00000e+00 1.25000e-01
 -1 1597 1.87500e-01 4.00000e+00 0.00000e+00
 -1 1598 1.87500e-01 3.50000e+00 0.00000e+00
 -1 1599 1.87500e-01 3.50000e+00 1.25000e-01
 -1 1600 1.87500e-01 4.00000e+00 1.25000e-01
 -1 1601 1.25000e-01 3.75000e+00 0.00000e+00
 -1 1602 1.25000e-01 3.50000e+00 6.25000e-02
 -1 1603 1.25000e-01 3.75000e+00 1.25000e-01
 -1 1604 1.25000e-01 4.00000e+00 6.25000e-02
 -1 1605 1.25000e-01 3.50000e+00 2.50000e-01
 -1 1606 1.25000e-01 4.00000e+00 2.50000e-01
 -1 1607 1.87500e-01 3.50000e+00 2.50000e-01
 -1 1608 1.87500e-01 4.00000e+00 2.50000e-01
 -1 1609 1.25000e-01 3.50000e+00 1.87500e-01
 -1 1610 1.25000e-01 3.75000e+00 2.50000e-01
 -1 1611 1.25000e-01 4.00000e+00 1.87500e-01
 -1 1612 1.25000e-01 3.50000e+00 3.75000e-01
 -1 1613 1.25000e-01 4.00000e+00 3.75000e-01
 -1 1614 1.87500e-01 3.50000e+00 3.75000e-01
 -1 1615 1.87500e-01 4.00000e+00 3.75000e-01
 -1 1616 1.25000e-01 3.50000e+00 3.12500e-01
 -1 1617 1.25000e-01 3.75000e+00 3.75000e-01
 -1 1618 1.25000e-01 4.00000e+00 3.12500e-01
 -1 1619 1.25000e-01 3.50000e+00 5.00000e-01
 -1 1620 1.25000e-01 4.00000e+00 5.00000e-01
 -1 1621 1.87500e-01 3.50000e+00 5.00000e-01
 -1 1622 1.87500e-01 4.00000e+00 5.00000e-01
 -1 1623 1.25000e-01 3.50000e+00 4.37500e-01
 -1 1624 1.25000e-01 3.75000e+00 5.00000e-01
 -1 1625 1.25000e-01 4.00000e+00 4.37500e-01
 -1 1626 1.25000e-01 3.50000e+00 6.25000e-01
 -1 1627 1.25000e-01 4.00000e+00 6.25000e-01
 -1 1628 1.87500e-01 3.50000e+00 6.25000e-01
 -1 1629 1.87500e-01 4.00000e+00 6.25000e-01
 -1 1630 1.25000e-01 3.50000e+00 5.62500e-01
 -1 1631 1.25000e-01 3.75000e+00 6.25000e-01
 -1 1632 1.25000e-01 4.00000e+00 5.62500e-01
 -1 1633 1.25000e-01 3.50000e+00 7.50000e-01
 -1 1634 1.25000e-01 4.00000e+00 7.50000e-01
 -1 1635 1.87500e-01 3.50000e+00 7.50000e-01
 -1 1636 1.87500e-01 4.00000e+00 7.50000e-01
 -1 1637 1.25000e-01 3.50000e+00 6.87500e-01
 -1 1638 1.25000e-01 3.75000e+00 7.50000e-01
 -1 1639 1.25000e-01 4.00000e+00 6.87500e-01
 -1 1640 1.25000e-01 3.50000e+00 8.75000e-01
 -1 1641 1.25000e-01 4.00000e+00 8.75000e-01
 -1 1642 1.87500e-01 3.50000e+00 8.75000e-01
 -1 1643 1.87500e-01 4.00000e+00 8.75000e-01
 -1 1644 1.25000e-01 3.50000e+00 8.12500e-01
 -1 1645 1.25000e-01 3.75000e+00 8.75000e-01
 -1 1646 1.25000e-01 4.00000e+00 8.12500e-01
 -1 1647 1.25000e-01 3.50000e+00 1.00000e+00
 -1 1648 1.25000e-01 4.00000e+00 1.00000e+00
 -1 1649 1.87500e-01 3.50000e+00 1.00000e+00
 -1 1650 1.87500e-01 4.00000e+00 1.00000e+00
 -1 1651 1.25000e-01 3.50000e+00 9.37500e-01
 -1 1652 1.25000e-01 3.75000e+00 1.00000e+00
 -1 1653 1.25000e-01 4.00000e+00 9.37500e-01
 -1 1654 1.25000e-01 3.50000e+00 1.12500e+00
 -1 1655 1.25000e-01 4.00000e+00 1.12500e+00
 -1 1656 1.87500e-01 3.50000e+00 1.12500e+00
 -1 1657 1.87500e-01 4.00000e+00 1.12500e+00
 -1 1658 1.25000e-01 3.50000e+00 1.06250e+00
 -1 1659 1.25000e-01 3.75000e+00 1.12500e+00
 -1 1660 1.25000e-01 4.00000e+00 1.06250e+00
 -1 1661 1.25000e-01 3.50000e+00 1.25000e+00
 -1 1662 1.25000e-01 4.00000e+00 1.25000e+00
 -1 1663 1.87500e-01 3.50000e+00 1.25000e+00
 -1 1664 1.87500e-01 4.00000e+00 1.25000e+00
 -1 1665 1.25000e-01 3.50000e+00 1.18750e+00
 -1 1666 1.25000e-01 3.75000e+00 1.25000e+00
 -1 1667 1.25000e-01 4.00000e+00 1.18750e+00
 -1 1668 1.25000e-01 3.50000e+00 1.37500e+00
 -1 1669 1.25000e-01 4.00000e+00 1.37500e+00
 -1 1670 1.87500e-01 3.50000e+00 1.37500e+00
 -1 1671 1.87500e-01 4.00000e+00 1.37500e+00
 -1 1672 1.25000e-01 3.50000e+00 1.31250e+00
 -1 1673 1.25000e-01 3.75000e+00 1.37500e+00
 -1 1674 1.25000e-01 4.00000e+00 1.31250e+00
 -1 1675 1.25000e-01 3.50000e+00 1.50000e+00
 -1 1676 1.25000e-01 4.00000e+00 1.50000e+00
 -1 1677 1.87500e-01 3.50000e+00 1.50000e+00
 -1 1678 1.87500e-01 4.00000e+00 1.50000e+00
 -1 1679 1.25000e-01 3.50000e+00 1.43750e+00
 -1 1680 1.25000e-01 3.75000e+00 1.50000e+00
 -1 1681 1.25000e-01 4.00000e+00 1.43750e+00
 -1 1682 1.25000e-01 3.50000e+00 1.62500e+00
 -1 1683 1.25000e-01 4.00000e+00 1.62500e+00
 -1 1684 1.87500e-01 3.50000e+00 1.62500e+00
 -1 1685 1.87500e-01 4.00000e+00 1.62500e+00
 -1 1686 1.25000e-01 3.50000e+00 1.56250e+00
 -1 1687 1.25000e-01 3.75000e+00 1.62500e+00
 -1 1688 1.25000e-01 4.00000e+00 1.56250e+00
 -1 1689 1.25000e-01 3.50000e+00 1.75000e+00
 -1 1690 1.25000e-01 4.00000e+00 1.75000e+00
 -1 1691 1.87500e-01 3.50000e+00 1.75000e+00
 -1 1692 1.87500e-01 4.00000e+00 1.75000e+00
 -1 1693 1.25000e-01 3.50000e+00 1.68750e+00
 -1 1694 1.25000e-01 3.75000e+00 1.75000e+00
 -1 1695 1.25000e-01 4.00000e+00 1.68750e+00
 -1 1696 1.25000e-01 3.50000e+00 1.87500e+00
 -1 1697 1.25000e-01 4.00000e+00 1.87500e+00
 -1 1698 1.87500e-01 3.50000e+00 1.87500e+00
 -1 1699 1.87500e-01 4.00000e+00 1.87500e+00
 -1 1700 1.25000e-01 3.50000e+00 1.81250e+00
 -1 1701 1.25000e-01 3.75000e+00 1.87500e+00
 -1 1702 1.25000e-01 4.00000e+00 1.81250e+00
 -1 1703 1.25000e-01 3.50000e+00 2.00000e+00
 -1 1704 1.25000e-01 4.00000e+00 2.00000e+00
 -1 1705 1.87500e-01 3.50000e+00 2.00000e+00
 -1 1706 1.87500e-01 4.00000e+00 2.00000e+00
 -1 1707 1.25000e-01 3.50000e+00 1.93750e+00
 -1 1708 1.25000e-01 3.75000e+00 2.00000e+00
 -1 1709 1.25000e-01 4.00000e+00 1.93750e+00
 -1 1710 1.25000e-01 3.50000e+00 2.12500e+00
 -1 1711 1.25000e-01 4.00000e+00 2.12500e+00
 -1 1712 1.87500e-01 3.50000e+00 2.12500e+00
 -1 1713 1.87500e-01 4.00000e+00 2.12500e+00
 -1 1714 1.25000e-01 3.50000e+00 2.06250e+00
 -1 1715 1.25000e-01 3.75000e+00 2.12500e+00
 -1 1716 1.25000e-01 4.00000e+00 2.06250e+00
 -1 1717 1.25000e-01 3.50000e+00 2.25000e+00
 -1 1718 1.25000e-01 4.00000e+00 2.25000e+00
 -1 1719 1.87500e-01 3.50000e+00 2.25000e+00
 -1 1720 1.87500e-01 4.00000e+00 2.25000e+00
 -1 1721 1.25000e-01 3.50000e+00 2.18750e+00
 -1 1722 1.25000e-01 3.75000e+00 2.25000e+00
 -1 1723 1.25000e-01 4.00000e+00 2.18750e+00
 -1 1724 1.25000e-01 3.50000e+00 2.37500e+00
 -1 1725 1.25000e-01 4.00000e+00 2.37500e+00
 -1 1726 1.87500e-01 3.50000e+00 2.37500e+00
 -1 1727 1.87500e-01 4.00000e+00 2.37500e+00
 -1 1728 1.25000e-01 3.50000e+00 2.31250e+00
 -1 1729 1.25000e-01 3.75000e+00 2.37500e+00
 -1 1730 1.25000e-01 4.00000e+00 2.31250e+00
 -1 1731 1.25000e-01 3.50000e+00 2.50000e+00
 -1 1732 1.25000e-01 4.00000e+00 2.50000e+00
 -1 1733 1.87500e-01 3.50000e+00 2.50000e+00
 -1 1734 1.87500e-01 4.00000e+00 2.50000e+00
 -1 1735 1.25000e-01 3.50000e+00 2.43750e+00
 -1 1736 1.25000e-01 3.75000e+00 2.50000e+00
 -1 1737 1.25000e-01 4.00000e+00 2.43750e+00
 -1 1738 1.25000e-01 3.50000e+00 2.62500e+00
 -1 1739 1.25000e-01 4.00000e+00 2.62500e+00
 -1 1740 1.87500e-01 3.50000e+00 2.62500e+00
 -1 1741 1.87500e-01 4.00000e+00 2.62500e+00
 -1 1742 1.25000e-01 3.50000e+00 2.56250e+00
 -1 1743 1.25000e-01 3.75000e+00 2.62500e+00
 -1 1744 1.25000e-01 4.00000e+00 2.56250e+00
 -1 1745 1.25000e-01 3.50000e+00 2.75000e+00
 -1 1746 1.25000e-01 4.00000e+00 2.75000e+00
 -1 1747 1.87500e-01 3.50000e+00 2.75000e+00
 -1 1748 1.87500e-01 4.00000e+00 2.75000e+00
 -1 1749 1.25000e-01 3.50000e+00 2.68750e+00
 -1 1750 1.25000e-01 3.75000e+00 2.75000e+00
 -1 1751 1.25000e-01 4.00000e+00 2.68750e+00
 -1 1752 1.25000e-01 3.50000e+00 2.87500e+00
 -1 1753 1.25000e-01 4.00000e+00 2.87500e+00
 -1 1754 1.87500e-01 3.50000e+00 2.87500e+00
 -1 1755 1.87500e-01 4.00000e+00 2.87500e+00
 -1 1756 1.25000e-01 3.50000e+00 2.81250e+00
 -1 1757 1.25000e-01 3.75000e+00 2.87500e+00
 -1 1758 1.25000e-01 4.00000e+00 2.81250e+00
 -1 1759 1.25000e-01 3.50000e+00 3.00000e+00
 -1 1760 1.25000e-01 4.00000e+00 3.00000e+00
 -1 1761 1.87500e-01 3.50000e+00 3.00000e+00
 -1 1762 1.87500e-01 4.00000e+00 3.00000e+00
 -1 1763 1.25000e-01 3.50000e+00 2.93750e+00
 -1 1764 1.25000e-01 3.75000e+00 3.00000e+00
 -1 1765 1.25000e-01 4.00000e+00 2.93750e+00
 -1 1766 1.25000e-01 3.50000e+00 3.12500e+00
 -1 1767 1.25000e-01 4.00000e+00 3.12500e+00
 -1 1768 1.87500e-01 3.50000e+00 3.12500e+00
 -1 1769 1.87500e-01 4.00000e+00 3.12500e+00
 -1 1770 1.25000e-01 3.50000e+00 3.06250e+00
 -1 1771 1.25000e-01 3.75000e+00 3.12500e+00
 -1 1772 1.25000e-01 4.00000e+00 3.06250e+00
 -1 1773 1.25000e-01 3.50000e+00 3.25000e+00
 -1 1774 1.25000e-01 4.00000e+00 3.25000e+00
 -1 1775 1.87500e-01 3.50000e+00 3.25000e+00
 -1 1776 1.87500e-01 4.00000e+00 3.25000e+00
 -1 1777 1.25000e-01 3.50000e+00 3.18750e+00
 -1 1778 1.25000e-01 3.75000e+00 3.25000e+00
 -1 1779 1.25000e-01 4.00000e+00 3.18750e+00
 -1 1780 1.25000e-01 3.50000e+00 3.37500e+00
 -1 1781 1.25000e-01 4.00000e+00 3.37500e+00
 -1 1782 1.87500e-01 3.50000e+00 3.37500e+00
 -1 1783 1.87500e-01 4.00000e+00 3.37500e+00
 -1 1784 1.25000e-01 3.50000e+00 3.31250e+00
 -1 1785 1.25000e-01 3.75000e+00 3.37500e+00
 -1 1786 1.25000e-01 4.00000e+00 3.31250e+00
 -1 1787 1.25000e-01 3.50000e+00 3.50000e+00
 -1 1788 1.25000e-01 4.00000e+00 3.50000e+00
 -1 1789 1.87500e-01 3.50000e+00 3.50000e+00
 -1 1790 1.87500e-01 4.00000e+00 3.50000e+00
 -1 1791 1.25000e-01 3.50000e+00 3.43750e+00
 -1 1792 1.25000e-01 3.75000e+00 3.50000e+00
 -1 1793 1.25000e-01 4.00000e+00 3.43750e+00
 -1 1794 1.25000e-01 3.50000e+00 3.62500e+00
 -1 1795 1.25000e-01 4.00000e+00 3.62500e+00
 -1 1796 1.87500e-01 3.50000e+00 3.62500e+00
 -1 1797 1.87500e-01 4.00000e+00 3.62500e+00
 -1 1798 1.25000e-01 3.50000e+00 3.56250e+00
 -1 1799 1.25000e-01 3.75000e+00 3.62500e+00
 -1 1800 1.25000e-01 4.00000e+00 3.56250e+00
 -1 1801 1.25000e-01 3.50000e+00 3.75000e+00
 -1 1802 1.25000e-01 4.00000e+00 3.75000e+00
 -1 1803 1.87500e-01 3.50000e+00 3.75000e+00
 -1 1804 1.87500e-01 4.00000e+00 3.75000e+00
 -1 1805 1.25000e-01 3.50000e+00 3.68750e+00
 -1 1806 1.25000e-01 3.75000e+00 3.75000e+00
 -1 1807 1.25000e-01 4.00000e+00 3.68750e+00
 -1 1808 1.25000e-01 3.50000e+00 3.87500e+00
 -1 1809 1.25000e-01 4.00000e+00 3.87500e+00
 -1 1810 1.87500e-01 3.50000e+00 3.87500e+00
 -1 1811 1.87500e-01 4.00000e+00 3.87500e+00
 -1 1812 1.25000e-01 3.50000e+00 3.81250e+00
 -1 1813 1.25000e-01 3.75000e+00 3.87500e+00
 -1 1814 1.25000e-01 4.00000e+00 3.81250e+00
 -1 1815 1.25000e-01 3.50000e+00 4.00000e+00
 -1 1816 1.25000e-01 4.00000e+00 4.00000e+00
 -1 1817 1.87500e-01 3.50000e+00 4.00000e+00
 -1 1818 1.87500e-01 4.00000e+00 4.00000e+00
 -1 1819 1.25000e-01 3.50000e+00 3.93750e+00
 -1 1820 1.25000e-01 3.75000e+00 4.00000e+00
 -1 1821 1.25000e-01 4.00000e+00 3.93750e+00
 -1 1822 0.00000e+00 4.00000e+00 0.00000e+00
 -1 1823 0.00000e+00 3.50000e+00 0.00000e+00
 -1 1824 0.00000e+00 3.50000e+00 1.25000e-01
 -1 1825 0.00000e+00 4.00000e+00 1.25000e-01
 -1 1826 6.25000e-02 4.00000e+00 0.00000e+00
 -1 1827 6.25000e-02 3.50000e+00 4.44089e-16
 -1 1828 6.25000e-02 3.50000e+00 1.25000e-01
 -1 1829 6.25000e-02 4.00000e+00 1.25000e-01
 -1 1830 0.00000e+00 3.75000e+00 0.00000e+00
 -1 1831 0.00000e+00 3.50000e+00 6.25000e-02
 -1 1832 0.00000e+00 3.75000e+00 1.25000e-01
 -1 1833 0.00000e+00 4.00000e+00 6.25000e-02
 -1 1834 0.00000e+00 3.50000e+00 2.50000e-01
 -1 1835 0.00000e+00 4.00000e+00 2.50000e-01
 -1 1836 6.25000e-02 3.50000e+00 2.50000e-01
 -1 1837 6.25000e-02 4.00000e+00 2.50000e-01
 -1 1838 0.00000e+00 3.50000e+00 1.87500e-01
 -1 1839 0.00000e+00 3.75000e+00 2.50000e-01
 -1 1840 0.00000e+00 4.00000e+00 1.87500e-01
 -1 1841 0.00000e+00 3.50000e+00 3.75000e-01
 -1 1842 0.00000e+00 4.00000e+00 3.75000e-01
 -1 1843 6.25000e-02 3.50000e+00 3.75000e-01
 -1 1844 6.25000e-02 4.00000e+00 3.75000e-01
 -1 1845 0.00000e+00 3.50000e+00 3.12500e-01
 -1 1846-1.11022e-16 3.75000e+00 3.75000e-01
 -1 1847 0.00000e+00 4.00000e+00 3.12500e-01
 -1 1848 0.00000e+00 3.50000e+00 5.00000e-01
 -1 1849 0.00000e+00 4.00000e+00 5.00000e-01
 -1 1850 6.25000e-02 3.50000e+00 5.00000e-01
 -1 1851 6.25000e-02 4.00000e+00 5.00000e-01
 -1 1852 0.00000e+00 3.50000e+00 4.37500e-01
 -1 1853-1.11022e-16 3.75000e+00 5.00000e-01
 -1 1854 0.00000e+00 4.00000e+00 4.37500e-01
 -1 1855 0.00000e+00 3.50000e+00 6.25000e-01
 -1 1856 0.00000e+00 4.00000e+00 6.25000e-01
 -1 1857 6.25000e-02 3.50000e+00 6.25000e-01
 -1 1858 6.25000e-02 4.00000e+00 6.25000e-01
 -1 1859 0.00000e+00 3.50000e+00 5.62500e-01
 -1 1860 0.00000e+00 3.75000e+00 6.25000e-01
 -1 1861 0.00000e+00 4.00000e+00 5.62500e-01
 -1 1862 1.11022e-16 3.50000e+00 7.50000e-01
 -1 1863 0.00000e+00 4.00000e+00 7.50000e-01
 -1 1864 6.25000e-02 3.50000e+00 7.50000e-01
 -1 1865 6.25000e-02 4.00000e+00 7.50000e-01
 -1 1866-1.11022e-16 3.50000e+00 6.87500e-01
 -1 1867 0.00000e+00 3.75000e+00 7.50000e-01
 -1 1868 0.00000e+00 4.00000e+00 6.87500e-01
 -1 1869-1.11022e-16 3.50000e+00 8.75000e-01
 -1 1870 0.00000e+00 4.00000e+00 8.75000e-01
 -1 1871 6.25000e-02 3.50000e+00 8.75000e-01
 -1 1872 6.25000e-02 4.00000e+00 8.75000e-01
 -1 1873 0.00000e+00 3.50000e+00 8.12500e-01
 -1 1874 0.00000e+00 3.75000e+00 8.75000e-01
 -1 1875 0.00000e+00 4.00000e+00 8.12500e-01
 -1 1876-1.11022e-16 3.50000e+00 1.00000e+00
 -1 1877 0.00000e+00 4.00000e+00 1.00000e+00
 -1 1878 6.25000e-02 3.50000e+00 1.00000e+00
 -1 1879 6.25000e-02 4.00000e+00 1.00000e+00
 -1 1880 0.00000e+00 3.50000e+00 9.37500e-01
 -1 1881 0.00000e+00 3.75000e+00 1.00000e+00
 -1 1882 0.00000e+00 4.00000e+00 9.37500e-01
 -1 1883-1.11022e-16 3.50000e+00 1.12500e+00
 -1 1884 0.00000e+00 4.00000e+00 1.12500e+00
 -1 1885 6.25000e-02 3.50000e+00 1.12500e+00
 -1 1886 6.25000e-02 4.00000e+00 1.12500e+00
 -1 1887 1.11022e-16 3.50000e+00 1.06250e+00
 -1 1888-1.11022e-16 3.75000e+00 1.12500e+00
 -1 1889 0.00000e+00 4.00000e+00 1.06250e+00
 -1 1890 1.11022e-16 3.50000e+00 1.25000e+00
 -1 1891 0.00000e+00 4.00000e+00 1.25000e+00
 -1 1892 6.25000e-02 3.50000e+00 1.25000e+00
 -1 1893 6.25000e-02 4.00000e+00 1.25000e+00
 -1 1894-1.11022e-16 3.50000e+00 1.18750e+00
 -1 1895 0.00000e+00 3.75000e+00 1.25000e+00
 -1 1896 0.00000e+00 4.00000e+00 1.18750e+00
 -1 1897 1.11022e-16 3.50000e+00 1.37500e+00
 -1 1898 0.00000e+00 4.00000e+00 1.37500e+00
 -1 1899 6.25000e-02 3.50000e+00 1.37500e+00
 -1 1900 6.25000e-02 4.00000e+00 1.37500e+00
 -1 1901 1.11022e-16 3.50000e+00 1.31250e+00
 -1 1902-1.11022e-16 3.75000e+00 1.37500e+00
 -1 1903 0.00000e+00 4.00000e+00 1.31250e+00
 -1 1904 0.00000e+00 3.50000e+00 1.50000e+00
 -1 1905 0.00000e+00 4.00000e+00 1.50000e+00
 -1 1906 6.25000e-02 3.50000e+00 1.50000e+00
 -1 1907 6.25000e-02 4.00000e+00 1.50000e+00
 -1 1908-1.11022e-16 3.50000e+00 1.43750e+00
 -1 1909 0.00000e+00 3.75000e+00 1.50000e+00
 -1 1910 0.00000e+00 4.00000e+00 1.43750e+00
 -1 1911-1.11022e-16 3.50000e+00 1.62500e+00
 -1 1912 0.00000e+00 4.00000e+00 1.62500e+00
 -1 1913 6.25000e-02 3.50000e+00 1.62500e+00
 -1 1914 6.25000e-02 4.00000e+00 1.62500e+00
 -1 1915 1.11022e-16 3.50000e+00 1.56250e+00
 -1 1916 0.00000e+00 3.75000e+00 1.62500e+00
 -1 1917 0.00000e+00 4.00000e+00 1.56250e+00
 -1 1918-1.11022e-16 3.50000e+00 1.75000e+00
 -1 1919 0.00000e+00 4.00000e+00 1.75000e+00
 -1 1920 6.25000e-02 3.50000e+00 1.75000e+00
 -1 1921 6.25000e-02 4.00000e+00 1.75000e+00
 -1 1922 1.11022e-16 3.50000e+00 1.68750e+00
 -1 1923-1.11022e-16 3.75000e+00 1.75000e+00
 -1 1924 0.00000e+00 4.00000e+00 1.68750e+00
 -1 1925 0.00000e+00 3.50000e+00 1.87500e+00
 -1 1926 0.00000e+00 4.00000e+00 1.87500e+00
 -1 1927 6.25000e-02 3.50000e+00 1.87500e+00
 -1 1928 6.25000e-02 4.00000e+00 1.87500e+00
 -1 1929 0.00000e+00 3.50000e+00 1.81250e+00
 -1 1930 0.00000e+00 3.75000e+00 1.87500e+00
 -1 1931 0.00000e+00 4.00000e+00 1.81250e+00
 -1 1932 1.11022e-16 3.50000e+00 2.00000e+00
 -1 1933 0.00000e+00 4.00000e+00 2.00000e+00
 -1 1934 6.25000e-02 3.50000e+00 2.00000e+00
 -1 1935 6.25000e-02 4.00000e+00 2.00000e+00
 -1 1936-1.11022e-16 3.50000e+00 1.93750e+00
 -1 1937-1.11022e-16 3.75000e+00 2.00000e+00
 -1 1938 0.00000e+00 4.00000e+00 1.93750e+00
 -1 1939 0.00000e+00 3.50000e+00 2.12500e+00
 -1 1940 0.00000e+00 4.00000e+00 2.12500e+00
 -1 1941 6.25000e-02 3.50000e+00 2.12500e+00
 -1 1942 6.25000e-02 4.00000e+00 2.12500e+00
 -1 1943-1.11022e-16 3.50000e+00 2.06250e+00
 -1 1944 0.00000e+00 3.75000e+00 2.12500e+00
 -1 1945 0.00000e+00 4.00000e+00 2.06250e+00
 -1 1946-1.11022e-16 3.50000e+00 2.25000e+00
 -1 1947 0.00000e+00 4.00000e+00 2.25000e+00
 -1 1948 6.25000e-02 3.50000e+00 2.25000e+00
 -1 1949 6.25000e-02 4.00000e+00 2.25000e+00
 -1 1950 0.00000e+00 3.50000e+00 2.18750e+00
 -1 1951 0.00000e+00 3.75000e+00 2.25000e+00
 -1 1952 0.00000e+00 4.00000e+00 2.18750e+00
 -1 1953-1.11022e-16 3.50000e+00 2.37500e+00
 -1 1954 0.00000e+00 4.00000e+00 2.37500e+00
 -1 1955 6.25000e-02 3.50000e+00 2.37500e+00
 -1 1956 6.25000e-02 4.00000e+00 2.37500e+00
 -1 1957 1.11022e-16 3.50000e+00 2.31250e+00
 -1 1958-1.11022e-16 3.75000e+00 2.37500e+00
 -1 1959 0.00000e+00 4.00000e+00 2.31250e+00
 -1 1960 0.00000e+00 3.50000e+00 2.50000e+00
 -1 1961 0.00000e+00 4.00000e+00 2.50000e+00
 -1 1962 6.25000e-02 3.50000e+00 2.50000e+00
 -1 1963 6.25000e-02 4.00000e+00 2.50000e+00
 -1 1964 0.00000e+00 3.50000e+00 2.43750e+00
 -1 1965 0.00000e+00 3.75000e+00 2.50000e+00
 -1 1966 0.00000e+00 4.00000e+00 2.43750e+00
 -1 1967 1.11022e-16 3.50000e+00 2.62500e+00
 -1 1968 0.00000e+00 4.00000e+00 2.62500e+00
 -1 1969 6.25000e-02 3.50000e+00 2.62500e+00
 -1 1970 6.25000e-02 4.00000e+00 2.62500e+00
 -1 1971-1.11022e-16 3.50000e+00 2.56250e+00
 -1 1972-1.11022e-16 3.75000e+00 2.62500e+00
 -1 1973 0.00000e+00 4.00000e+00 2.56250e+00
 -1 1974 0.00000e+00 3.50000e+00 2.75000e+00
 -1 1975 0.00000e+00 4.00000e+00 2.75000e+00
 -1 1976 6.25000e-02 3.50000e+00 2.75000e+00
 -1 1977 6.25000e-02 4.00000e+00 2.75000e+00
 -1 1978-3.33067e-16 3.50000e+00 2.68750e+00
 -1 1979 0.00000e+00 3.75000e+00 2.75000e+00
 -1 1980 0.00000e+00 4.00000e+00 2.68750e+00
 -1 1981-1.11022e-16 3.50000e+00 2.87500e+00
 -1 1982 0.00000e+00 4.00000e+00 2.87500e+00
 -1 1983 6.25000e-02 3.50000e+00 2.87500e+00
 -1 1984 6.25000e-02 4.00000e+00 2.87500e+00
 -1 1985 0.00000e+00 3.50000e+00 2.81250e+00
 -1 1986 0.00000e+00 3.75000e+00 2.87500e+00
 -1 1987 0.00000e+00 4.00000e+00 2.81250e+00
 -1 1988-3.33067e-16 3.50000e+00 3.00000e+00
 -1 1989 0.00000e+00 4.00000e+00 3.00000e+00
 -1 1990 6.25000e-02 3.50000e+00 3.00000e+00
 -1 1991 6.25000e-02 4.00000e+00 3.00000e+00
 -1 1992 0.00000e+00 3.50000e+00 2.93750e+00
 -1 1993 0.00000e+00 3.75000e+00 3.00000e+00
 -1 1994 0.00000e+00 4.00000e+00 2.93750e+00
 -1 1995 0.00000e+00 3.50000e+00 3.12500e+00
 -1 1996 0.00000e+00 4.00000e+00 3.12500e+00
 -1 1997 6.25000e-02 3.50000e+00 3.12500e+00
 -1 1998 6.25000e-02 4.00000e+00 3.12500e+00
 -1 1999 0.00000e+00 3.50000e+00 3.06250e+00
 -1 2000 0.00000e+00 3.75000e+00 3.12500e+00
 -1 2001 0.00000e+00 4.00000e+00 3.06250e+00
 -1 2002 0.00000e+00 3.50000e+00 3.25000e+00
 -1 2003 0.00000e+00 4.00000e+00 3.25000e+00
 -1 2004 6.25000e-02 3.50000e+00 3.25000e+00
 -1 2005 6.25000e-02 4.00000e+00 3.25000e+00
 -1 2006-1.11022e-16 3.50000e+00 3.18750e+00
 -1 2007-1.11022e-16 3.75000e+00 3.25000e+00
 -1 2008 0.00000e+00 4.00000e+00 3.18750e+00
 -1 2009 0.00000e+00 3.50000e+00 3.37500e+00
 -1 2010 0.00000e+00 4.00000e+00 3.37500e+00
 -1 2011 6.25000e-02 3.50000e+00 3.37500e+00
 -1 2012 6.25000e-02 4.00000e+00 3.37500e+00
 -1 2013-3.33067e-16 3.50000e+00 3.31250e+00
 -1 2014 0.00000e+00 3.75000e+00 3.37500e+00
 -1 2015 0.00000e+00 4.00000e+00 3.31250e+00
 -1 2016-1.11022e-16 3.50000e+00 3.50000e+00
 -1 2017 0.00000e+00 4.00000e+00 3.50000e+00
 -1 2018 6.25000e-02 3.50000e+00 3.50000e+00
 -1 2019 6.25000e-02 4.00000e+00 3.50000e+00
 -1 2020 0.00000e+00 3.50000e+00 3.43750e+00
 -1 2021 0.00000e+00 3.75000e+00 3.50000e+00
 -1 2022 0.00000e+00 4.00000e+00 3.43750e+00
 -1 2023-3.33067e-16 3.50000e+00 3.62500e+00
 -1 2024 0.00000e+00 4.00000e+00 3.62500e+00
 -1 2025 6.25000e-02 3.50000e+00 3.62500e+00
 -1 2026 6.25000e-02 4.00000e+00 3.62500e+00
 -1 2027 0.00000e+00 3.50000e+00 3.56250e+00
 -1 2028 0.00000e+00 3.75000e+00 3.62500e+00
 -1 2029 0.00000e+00 4.00000e+00 3.56250e+00
 -1 2030 0.00000e+00 3.50000e+00 3.75000e+00
 -1 2031 0.00000e+00 4.00000e+00 3.75000e+00
 -1 2032 6.25000e-02 3.50000e+00 3.75000e+00
 -1 2033 6.25000e-02 4.00000e+00 3.75000e+00
 -1 2034 0.00000e+00 3.50000e+00 3.68750e+00
 -1 2035 0.00000e+00 3.75000e+00 3.75000e+00
 -1 2036 0.00000e+00 4.00000e+00 3.68750e+00
 -1 2037 0.00000e+00 3.50000e+00 3.87500e+00
 -1 2038 0.00000e+00 4.00000e+00 3.87500e+00
 -1 2039 6.25000e-02 3.50000e+00 3.87500e+00
 -1 2040 6.25000e-02 4.00000e+00 3.87500e+00
 -1 2041-1.11022e-16 3.50000e+00 3.81250e+00
 -1 2042-1.11022e-16 3.75000e+00 3.87500e+00
 -1 2043 0.00000e+00 4.00000e+00 3.81250e+00
 -1 2044 0.00000e+00 3.50000e+00 4.00000e+00
 -1 2045 0.00000e+00 4.00000e+00 4.00000e+00
 -1 2046 6.25000e-02 3.50000e+00 4.00000e+00
 -1 2047 6.25000e-02 4.00000e+00 4.00000e+00
 -1 2048-3.33067e-16 3.50000e+00 3.93750e+00
 -1 2049 0.00000e+00 3.75000e+00 4.00000e+00
 -1 2050 0.00000e+00 4.00000e+00 3.93750e+00
 -1 2051 1.00000e+00 3.00000e+00 0.00000e+00
 -1 2052 1.00000e+00 3.00000e+00 1.25000e-01
 -1 2053 8.75000e-01 3.00000e+00-2.22045e-16
 -1 2054 8.75000e-01 3.00000e+00 1.25000e-01
 -1 2055 1.00000e+00 3.25000e+00 0.00000e+00
 -1 2056 1.00000e+00 3.00000e+00 6.25000e-02
 -1 2057 1.00000e+00 3.25000e+00 1.25000e-01
 -1 2058 9.37500e-01 3.00000e+00 4.44089e-16
 -1 2059 9.37500e-01 3.00000e+00 1.25000e-01
 -1 2060 8.75000e-01 3.25000e+00-2.22045e-16
 -1 2061 8.75000e-01 3.00000e+00 6.25000e-02
 -1 2062 8.75000e-01 3.25000e+00 1.25000e-01
 -1 2063 1.00000e+00 3.00000e+00 2.50000e-01
 -1 2064 8.75000e-01 3.00000e+00 2.50000e-01
 -1 2065 1.00000e+00 3.00000e+00 1.87500e-01
 -1 2066 1.00000e+00 3.25000e+00 2.50000e-01
 -1 2067 9.37500e-01 3.00000e+00 2.50000e-01
 -1 2068 8.75000e-01 3.00000e+00 1.87500e-01
 -1 2069 8.75000e-01 3.25000e+00 2.50000e-01
 -1 2070 1.00000e+00 3.00000e+00 3.75000e-01
 -1 2071 8.75000e-01 3.00000e+00 3.75000e-01
 -1 2072 1.00000e+00 3.00000e+00 3.12500e-01
 -1 2073 1.00000e+00 3.25000e+00 3.75000e-01
 -1 2074 9.37500e-01 3.00000e+00 3.75000e-01
 -1 2075 8.75000e-01 3.00000e+00 3.12500e-01
 -1 2076 8.75000e-01 3.25000e+00 3.75000e-01
 -1 2077 1.00000e+00 3.00000e+00 5.00000e-01
 -1 2078 8.75000e-01 3.00000e+00 5.00000e-01
 -1 2079 1.00000e+00 3.00000e+00 4.37500e-01
 -1 2080 1.00000e+00 3.25000e+00 5.00000e-01
 -1 2081 9.37500e-01 3.00000e+00 5.00000e-01
 -1 2082 8.75000e-01 3.00000e+00 4.37500e-01
 -1 2083 8.75000e-01 3.25000e+00 5.00000e-01
 -1 2084 1.00000e+00 3.00000e+00 6.25000e-01
 -1 2085 8.75000e-01 3.00000e+00 6.25000e-01
 -1 2086 1.00000e+00 3.00000e+00 5.62500e-01
 -1 2087 1.00000e+00 3.25000e+00 6.25000e-01
 -1 2088 9.37500e-01 3.00000e+00 6.25000e-01
 -1 2089 8.75000e-01 3.00000e+00 5.62500e-01
 -1 2090 8.75000e-01 3.25000e+00 6.25000e-01
 -1 2091 1.00000e+00 3.00000e+00 7.50000e-01
 -1 2092 8.75000e-01 3.00000e+00 7.50000e-01
 -1 2093 1.00000e+00 3.00000e+00 6.87500e-01
 -1 2094 1.00000e+00 3.25000e+00 7.50000e-01
 -1 2095 9.37500e-01 3.00000e+00 7.50000e-01
 -1 2096 8.75000e-01 3.00000e+00 6.87500e-01
 -1 2097 8.75000e-01 3.25000e+00 7.50000e-01
 -1 2098 1.00000e+00 3.00000e+00 8.75000e-01
 -1 2099 8.75000e-01 3.00000e+00 8.75000e-01
 -1 2100 1.00000e+00 3.00000e+00 8.12500e-01
 -1 2101 1.00000e+00 3.25000e+00 8.75000e-01
 -1 2102 9.37500e-01 3.00000e+00 8.75000e-01
 -1 2103 8.75000e-01 3.00000e+00 8.12500e-01
 -1 2104 8.75000e-01 3.25000e+00 8.75000e-01
 -1 2105 1.00000e+00 3.00000e+00 1.00000e+00
 -1 2106 8.75000e-01 3.00000e+00 1.00000e+00
 -1 2107 1.00000e+00 3.00000e+00 9.37500e-01
 -1 2108 1.00000e+00 3.25000e+00 1.00000e+00
 -1 2109 9.37500e-01 3.00000e+00 1.00000e+00
 -1 2110 8.75000e-01 3.00000e+00 9.37500e-01
 -1 2111 8.75000e-01 3.25000e+00 1.00000e+00
 -1 2112 1.00000e+00 3.00000e+00 1.12500e+00
 -1 2113 8.75000e-01 3.00000e+00 1.12500e+00
 -1 2114 1.00000e+00 3.00000e+00 1.06250e+00
 -1 2115 1.00000e+00 3.25000e+00 1.12500e+00
 -1 2116 9.37500e-01 3.00000e+00 1.12500e+00
 -1 2117 8.75000e-01 3.00000e+00 1.06250e+00
 -1 2118 8.75000e-01 3.25000e+00 1.12500e+00
 -1 2119 1.00000e+00 3.00000e+00 1.25000e+00
 -1 2120 8.75000e-01 3.00000e+00 1.25000e+00
 -1 2121 1.00000e+00 3.00000e+00 1.18750e+00
 -1 2122 1.00000e+00 3.25000e+00 1.25000e+00
 -1 2123 9.37500e-01 3.00000e+00 1.25000e+00
 -1 2124 8.75000e-01 3.00000e+00 1.18750e+00
 -1 2125 8.75000e-01 3.25000e+00 1.25000e+00
 -1 2126 1.00000e+00 3.00000e+00 1.37500e+00
 -1 2127 8.75000e-01 3.00000e+00 1.37500e+00
 -1 2128 1.00000e+00 3.00000e+00 1.31250e+00
 -1 2129 1.00000e+00 3.25000e+00 1.37500e+00
 -1 2130 9.37500e-01 3.00000e+00 1.37500e+00
 -1 2131 8.75000e-01 3.00000e+00 1.31250e+00
 -1 2132 8.75000e-01 3.25000e+00 1.37500e+00
 -1 2133 1.00000e+00 3.00000e+00 1.50000e+00
 -1 2134 8.75000e-01 3.00000e+00 1.50000e+00
 -1 2135 1.00000e+00 3.00000e+00 1.43750e+00
 -1 2136 1.00000e+00 3.25000e+00 1.50000e+00
 -1 2137 9.37500e-01 3.00000e+00 1.50000e+00
 -1 2138 8.75000e-01 3.00000e+00 1.43750e+00
 -1 2139 8.75000e-01 3.25000e+00 1.50000e+00
 -1 2140 1.00000e+00 3.00000e+00 1.62500e+00
 -1 2141 8.75000e-01 3.00000e+00 1.62500e+00
 -1 2142 1.00000e+00 3.00000e+00 1.56250e+00
 -1 2143 1.00000e+00 3.25000e+00 1.62500e+00
 -1 2144 9.37500e-01 3.00000e+00 1.62500e+00
 -1 2145 8.75000e-01 3.00000e+00 1.56250e+00
 -1 2146 8.75000e-01 3.25000e+00 1.62500e+00
 -1 2147 1.00000e+00 3.00000e+00 1.75000e+00
 -1 2148 8.75000e-01 3.00000e+00 1.75000e+00
 -1 2149 1.00000e+00 3.00000e+00 1.68750e+00
 -1 2150 1.00000e+00 3.25000e+00 1.75000e+00
 -1 2151 9.37500e-01 3.00000e+00 1.75000e+00
 -1 2152 8.75000e-01 3.00000e+00 1.68750e+00
 -1 2153 8.75000e-01 3.25000e+00 1.75000e+00
 -1 2154 1.00000e+00 3.00000e+00 1.87500e+00
 -1 2155 8.75000e-01 3.00000e+00 1.87500e+00
 -1 2156 1.00000e+00 3.00000e+00 1.81250e+00
 -1 2157 1.00000e+00 3.25000e+00 1.87500e+00
 -1 2158 9.37500e-01 3.00000e+00 1.87500e+00
 -1 2159 8.75000e-01 3.00000e+00 1.81250e+00
 -1 2160 8.75000e-01 3.25000e+00 1.87500e+00
 -1 2161 1.00000e+00 3.00000e+00 2.00000e+00
 -1 2162 8.75000e-01 3.00000e+00 2.00000e+00
 -1 2163 1.00000e+00 3.00000e+00 1.93750e+00
 -1 2164 1.00000e+00 3.25000e+00 2.00000e+00
 -1 2165 9.37500e-01 3.00000e+00 2.00000e+00
 -1 2166 8.75000e-01 3.00000e+00 1.93750e+00
 -1 2167 8.75000e-01 3.25000e+00 2.00000e+00
 -1 2168 1.00000e+00 3.00000e+00 2.12500e+00
 -1 2169 8.75000e-01 3.00000e+00 2.12500e+00
 -1 2170 1.00000e+00 3.00000e+00 2.06250e+00
 -1 2171 1.00000e+00 3.25000e+00 2.12500e+00
 -1 2172 9.37500e-01 3.00000e+00 2.12500e+00
 -1 2173 8.75000e-01 3.00000e+00 2.06250e+00
 -1 2174 8.75000e-01 3.25000e+00 2.12500e+00
 -1 2175 1.00000e+00 3.00000e+00 2.25000e+00
 -1 2176 8.75000e-01 3.00000e+00 2.25000e+00
 -1 2177 1.00000e+00 3.00000e+00 2.18750e+00
 -1 2178 1.00000e+00 3.25000e+00 2.25000e+00
 -1 2179 9.37500e-01 3.00000e+00 2.25000e+00
 -1 2180 8.75000e-01 3.00000e+00 2.18750e+00
 -1 2181 8.75000e-01 3.25000e+00 2.25000e+00
 -1 2182 1.00000e+00 3.00000e+00 2.37500e+00
 -1 2183 8.75000e-01 3.00000e+00 2.37500e+00
 -1 2184 1.00000e+00 3.00000e+00 2.31250e+00
 -1 2185 1.00000e+00 3.25000e+00 2.37500e+00
 -1 2186 9.37500e-01 3.00000e+00 2.37500e+00
 -1 2187 8.75000e-01 3.00000e+00 2.31250e+00
 -1 2188 8.75000e-01 3.25000e+00 2.37500e+00
 -1 2189 1.00000e+00 3.00000e+00 2.50000e+00
 -1 2190 8.75000e-01 3.00000e+00 2.50000e+00
 -1 2191 1.00000e+00 3.00000e+00 2.43750e+00
 -1 2192 1.00000e+00 3.25000e+00 2.50000e+00
 -1 2193 9.37500e-01 3.00000e+00 2.50000e+00
 -1 2194 8.75000e-01 3.00000e+00 2.43750e+00
 -1 2195 8.75000e-01 3.25000e+00 2.50000e+00
 -1 2196 1.00000e+00 3.00000e+00 2.62500e+00
 -1 2197 8.75000e-01 3.00000e+00 2.62500e+00
 -1 2198 1.00000e+00 3.00000e+00 2.56250e+00
 -1 2199 1.00000e+00 3.25000e+00 2.62500e+00
 -1 2200 9.37500e-01 3.00000e+00 2.62500e+00
 -1 2201 8.75000e-01 3.00000e+00 2.56250e+00
 -1 2202 8.75000e-01 3.25000e+00 2.62500e+00
 -1 2203 1.00000e+00 3.00000e+00 2.75000e+00
 -1 2204 8.75000e-01 3.00000e+00 2.75000e+00
 -1 2205 1.00000e+00 3.00000e+00 2.68750e+00
 -1 2206 1.00000e+00 3.25000e+00 2.75000e+00
 -1 2207 9.37500e-01 3.00000e+00 2.75000e+00
 -1 2208 8.75000e-01 3.00000e+00 2.68750e+00
 -1 2209 8.75000e-01 3.25000e+00 2.75000e+00
 -1 2210 1.00000e+00 3.00000e+00 2.87500e+00
 -1 2211 8.75000e-01 3.00000e+00 2.87500e+00
 -1 2212 1.00000e+00 3.00000e+00 2.81250e+00
 -1 2213 1.00000e+00 3.25000e+00 2.87500e+00
 -1 2214 9.37500e-01 3.00000e+00 2.87500e+00
 -1 2215 8.75000e-01 3.00000e+00 2.81250e+00
 -1 2216 8.75000e-01 3.25000e+00 2.87500e+00
 -1 2217 1.00000e+00 3.00000e+00 3.00000e+00
 -1 2218 8.75000e-01 3.00000e+00 3.00000e+00
 -1 2219 1.00000e+00 3.00000e+00 2.93750e+00
 -1 2220 1.00000e+00 3.25000e+00 3.00000e+00
 -1 2221 9.37500e-01 3.00000e+00 3.00000e+00
 -1 2222 8.75000e-01 3.00000e+00 2.93750e+00
 -1 2223 8.75000e-01 3.25000e+00 3.00000e+00
 -1 2224 1.00000e+00 3.00000e+00 3.12500e+00
 -1 2225 8.75000e-01 3.00000e+00 3.12500e+00
 -1 2226 1.00000e+00 3.00000e+00 3.06250e+00
 -1 2227 1.00000e+00 3.25000e+00 3.12500e+00
 -1 2228 9.37500e-01 3.00000e+00 3.12500e+00
 -1 2229 8.75000e-01 3.00000e+00 3.06250e+00
 -1 2230 8.75000e-01 3.25000e+00 3.12500e+00
 -1 2231 1.00000e+00 3.00000e+00 3.25000e+00
 -1 2232 8.75000e-01 3.00000e+00 3.25000e+00
 -1 2233 1.00000e+00 3.00000e+00 3.18750e+00
 -1 2234 1.00000e+00 3.25000e+00 3.25000e+00
 -1 2235 9.37500e-01 3.00000e+00 3.25000e+00
 -1 2236 8.75000e-01 3.00000e+00 3.18750e+00
 -1 2237 8.75000e-01 3.25000e+00 3.25000e+00
 -1 2238 1.00000e+00 3.00000e+00 3.37500e+00
 -1 2239 8.75000e-01 3.00000e+00 3.37500e+00
 -1 2240 1.00000e+00 3.00000e+00 3.31250e+00
 -1 2241 1.00000e+00 3.25000e+00 3.37500e+00
 -1 2242 9.37500e-01 3.00000e+00 3.37500e+00
 -1 2243 8.75000e-01 3.00000e+00 3.31250e+00
 -1 2244 8.75000e-01 3.25000e+00 3.37500e+00
 -1 2245 1.00000e+00 3.00000e+00 3.50000e+00
 -1 2246 8.75000e-01 3.00000e+00 3.50000e+00
 -1 2247 1.00000e+00 3.00000e+00 3.43750e+00
 -1 2248 1.00000e+00 3.25000e+00 3.50000e+00
 -1 2249 9.37500e-01 3.00000e+00 3.50000e+00
 -1 2250 8.75000e-01 3.00000e+00 3.43750e+00
 -1 2251 8.75000e-01 3.25000e+00 3.50000e+00
 -1 2252 1.00000e+00 3.00000e+00 3.62500e+00
 -1 2253 8.75000e-01 3.00000e+00 3.62500e+00
 -1 2254 1.00000e+00 3.00000e+00 3.56250e+00
 -1 2255 1.00000e+00 3.25000e+00 3.62500e+00
 -1 2256 9.37500e-01 3.00000e+00 3.62500e+00
 -1 2257 8.75000e-01 3.00000e+00 3.56250e+00
 -1 2258 8.75000e-01 3.25000e+00 3.62500e+00
 -1 2259 1.00000e+00 3.00000e+00 3.75000e+00
 -1 2260 8.75000e-01 3.00000e+00 3.75000e+00
 -1 2261 1.00000e+00 3.00000e+00 3.68750e+00
 -1 2262 1.00000e+00 3.25000e+00 3.75000e+00
 -1 2263 9.37500e-01 3.00000e+00 3.75000e+00
 -1 2264 8.75000e-01 3.00000e+00 3.68750e+00
 -1 2265 8.75000e-01 3.25000e+00 3.75000e+00
 -1 2266 1.00000e+00 3.00000e+00 3.87500e+00
 -1 2267 8.75000e-01 3.00000e+00 3.87500e+00
 -1 2268 1.00000e+00 3.00000e+00 3.81250e+00
 -1 2269 1.00000e+00 3.25000e+00 3.87500e+00
 -1 2270 9.37500e-01 3.00000e+00 3.87500e+00
 -1 2271 8.75000e-01 3.00000e+00 3.81250e+00
 -1 2272 8.75000e-01 3.25000e+00 3.87500e+00
 -1 2273 1.00000e+00 3.00000e+00 4.00000e+00
 -1 2274 8.75000e-01 3.00000e+00 4.00000e+00
 -1 2275 1.00000e+00 3.00000e+00 3.93750e+00
 -1 2276 1.00000e+00 3.25000e+00 4.00000e+00
 -1 2277 9.37500e-01 3.00000e+00 4.00000e+00
 -1 2278 8.75000e-01 3.00000e+00 3.93750e+00
 -1 2279 8.75000e-01 3.25000e+00 4.00000e+00
 -1 2280 7.50000e-01 3.00000e+00 4.44089e-16
 -1 2281 7.50000e-01 3.00000e+00 1.25000e-01
 -1 2282 8.12500e-01 3.00000e+00 0.00000e+00
 -1 2283 8.12500e-01 3.00000e+00 1.25000e-01
 -1 2284 7.50000e-01 3.25000e+00 4.44089e-16
 -1 2285 7.50000e-01 3.00000e+00 6.25000e-02
 -1 2286 7.50000e-01 3.25000e+00 1.25000e-01
 -1 2287 7.50000e-01 3.00000e+00 2.50000e-01
 -1 2288 8.12500e-01 3.00000e+00 2.50000e-01
 -1 2289 7.50000e-01 3.00000e+00 1.87500e-01
 -1 2290 7.50000e-01 3.25000e+00 2.50000e-01
 -1 2291 7.50000e-01 3.00000e+00 3.75000e-01
 -1 2292 8.12500e-01 3.00000e+00 3.75000e-01
 -1 2293 7.50000e-01 3.00000e+00 3.12500e-01
 -1 2294 7.50000e-01 3.25000e+00 3.75000e-01
 -1 2295 7.50000e-01 3.00000e+00 5.00000e-01
 -1 2296 8.12500e-01 3.00000e+00 5.00000e-01
 -1 2297 7.50000e-01 3.00000e+00 4.37500e-01
 -1 2298 7.50000e-01 3.25000e+00 5.00000e-01
 -1 2299 7.50000e-01 3.00000e+00 6.25000e-01
 -1 2300 8.12500e-01 3.00000e+00 6.25000e-01
 -1 2301 7.50000e-01 3.00000e+00 5.62500e-01
 -1 2302 7.50000e-01 3.25000e+00 6.25000e-01
 -1 2303 7.50000e-01 3.00000e+00 7.50000e-01
 -1 2304 8.12500e-01 3.00000e+00 7.50000e-01
 -1 2305 7.50000e-01 3.00000e+00 6.87500e-01
 -1 2306 7.50000e-01 3.25000e+00 7.50000e-01
 -1 2307 7.50000e-01 3.00000e+00 8.75000e-01
 -1 2308 8.12500e-01 3.00000e+00 8.75000e-01
 -1 2309 7.50000e-01 3.00000e+00 8.12500e-01
 -1 2310 7.50000e-01 3.25000e+00 8.75000e-01
 -1 2311 7.50000e-01 3.00000e+00 1.00000e+00
 -1 2312 8.12500e-01 3.00000e+00 1.00000e+00
 -1 2313 7.50000e-01 3.00000e+00 9.37500e-01
 -1 2314 7.50000e-01 3.25000e+00 1.00000e+00
 -1 2315 7.50000e-01 3.00000e+00 1.12500e+00
 -1 2316 8.12500e-01 3.00000e+00 1.12500e+00
 -1 2317 7.50000e-01 3.00000e+00 1.06250e+00
 -1 2318 7.50000e-01 3.25000e+00 1.12500e+00
 -1 2319 7.50000e-01 3.00000e+00 1.25000e+00
 -1 2320 8.12500e-01 3.00000e+00 1.25000e+00
 -1 2321 7.50000e-01 3.00000e+00 1.18750e+00
 -1 2322 7.50000e-01 3.25000e+00 1.25000e+00
 -1 2323 7.50000e-01 3.00000e+00 1.37500e+00
 -1 2324 8.12500e-01 3.00000e+00 1.37500e+00
 -1 2325 7.50000e-01 3.00000e+00 1.31250e+00
 -1 2326 7.50000e-01 3.25000e+00 1.37500e+00
 -1 2327 7.50000e-01 3.00000e+00 1.50000e+00
 -1 2328 8.12500e-01 3.00000e+00 1.50000e+00
 -1 2329 7.50000e-01 3.00000e+00 1.43750e+00
 -1 2330 7.50000e-01 3.25000e+00 1.50000e+00
 -1 2331 7.50000e-01 3.00000e+00 1.62500e+00
 -1 2332 8.12500e-01 3.00000e+00 1.62500e+00
 -1 2333 7.50000e-01 3.00000e+00 1.56250e+00
 -1 2334 7.50000e-01 3.25000e+00 1.62500e+00
 -1 2335 7.50000e-01 3.00000e+00 1.75000e+00
 -1 2336 8.12500e-01 3.00000e+00 1.75000e+00
 -1 2337 7.50000e-01 3.00000e+00 1.68750e+00
 -1 2338 7.50000e-01 3.25000e+00 1.75000e+00
 -1 2339 7.50000e-01 3.00000e+00 1.87500e+00
 -1 2340 8.12500e-01 3.00000e+00 1.87500e+00
 -1 2341 7.50000e-01 3.00000e+00 1.81250e+00
 -1 2342 7.50000e-01 3.25000e+00 1.87500e+00
 -1 2343 7.50000e-01 3.00000e+00 2.00000e+00
 -1 2344 8.12500e-01 3.00000e+00 2.00000e+00
 -1 2345 7.50000e-01 3.00000e+00 1.93750e+00
 -1 2346 7.50000e-01 3.25000e+00 2.00000e+00
 -1 2347 7.50000e-01 3.00000e+00 2.12500e+00
 -1 2348 8.12500e-01 3.00000e+00 2.12500e+00
 -1 2349 7.50000e-01 3.00000e+00 2.06250e+00
 -1 2350 7.50000e-01 3.25000e+00 2.12500e+00
 -1 2351 7.50000e-01 3.00000e+00 2.25000e+00
 -1 2352 8.12500e-01 3.00000e+00 2.25000e+00
 -1 2353 7.50000e-01 3.00000e+00 2.18750e+00
 -1 2354 7.50000e-01 3.25000e+00 2.25000e+00
 -1 2355 7.50000e-01 3.00000e+00 2.37500e+00
 -1 2356 8.12500e-01 3.00000e+00 2.37500e+00
 -1 2357 7.50000e-01 3.00000e+00 2.31250e+00
 -1 2358 7.50000e-01 3.25000e+00 2.37500e+00
 -1 2359 7.50000e-01 3.00000e+00 2.50000e+00
 -1 2360 8.12500e-01 3.00000e+00 2.50000e+00
 -1 2361 7.50000e-01 3.00000e+00 2.43750e+00
 -1 2362 7.50000e-01 3.25000e+00 2.50000e+00
 -1 2363 7.50000e-01 3.00000e+00 2.62500e+00
 -1 2364 8.12500e-01 3.00000e+00 2.62500e+00
 -1 2365 7.50000e-01 3.00000e+00 2.56250e+00
 -1 2366 7.50000e-01 3.25000e+00 2.62500e+00
 -1 2367 7.50000e-01 3.00000e+00 2.75000e+00
 -1 2368 8.12500e-01 3.00000e+00 2.75000e+00
 -1 2369 7.50000e-01 3.00000e+00 2.68750e+00
 -1 2370 7.50000e-01 3.25000e+00 2.75000e+00
 -1 2371 7.50000e-01 3.00000e+00 2.87500e+00
 -1 2372 8.12500e-01 3.00000e+00 2.87500e+00
 -1 2373 7.50000e-01 3.00000e+00 2.81250e+00
 -1 2374 7.50000e-01 3.25000e+00 2.87500e+00
 -1 2375 7.50000e-01 3.00000e+00 3.00000e+00
 -1 2376 8.12500e-01 3.00000e+00 3.00000e+00
 -1 2377 7.50000e-01 3.00000e+00 2.93750e+00
 -1 2378 7.50000e-01 3.25000e+00 3.00000e+00
 -1 2379 7.50000e-01 3.00000e+00 3.12500e+00
 -1 2380 8.12500e-01 3.00000e+00 3.12500e+00
 -1 2381 7.50000e-01 3.00000e+00 3.06250e+00
 -1 2382 7.50000e-01 3.25000e+00 3.12500e+00
 -1 2383 7.50000e-01 3.00000e+00 3.25000e+00
 -1 2384 8.12500e-01 3.00000e+00 3.25000e+00
 -1 2385 7.50000e-01 3.00000e+00 3.18750e+00
 -1 2386 7.50000e-01 3.25000e+00 3.25000e+00
 -1 2387 7.50000e-01 3.00000e+00 3.37500e+00
 -1 2388 8.12500e-01 3.00000e+00 3.37500e+00
 -1 2389 7.50000e-01 3.00000e+00 3.31250e+00
 -1 2390 7.50000e-01 3.25000e+00 3.37500e+00
 -1 2391 7.50000e-01 3.00000e+00 3.50000e+00
 -1 2392 8.12500e-01 3.00000e+00 3.50000e+00
 -1 2393 7.50000e-01 3.00000e+00 3.43750e+00
 -1 2394 7.50000e-01 3.25000e+00 3.50000e+00
 -1 2395 7.50000e-01 3.00000e+00 3.62500e+00
 -1 2396 8.12500e-01 3.00000e+00 3.62500e+00
 -1 2397 7.50000e-01 3.00000e+00 3.56250e+00
 -1 2398 7.50000e-01 3.25000e+00 3.62500e+00
 -1 2399 7.50000e-01 3.00000e+00 3.75000e+00
 -1 2400 8.12500e-01 3.00000e+00 3.75000e+00
 -1 2401 7.50000e-01 3.00000e+00 3.68750e+00
 -1 2402 7.50000e-01 3.25000e+00 3.75000e+00
 -1 2403 7.50000e-01 3.00000e+00 3.87500e+00
 -1 2404 8.12500e-01 3.00000e+00 3.87500e+00
 -1 2405 7.50000e-01 3.00000e+00 3.81250e+00
 -1 2406 7.50000e-01 3.25000e+00 3.87500e+00
 -1 2407 7.50000e-01 3.00000e+00 4.00000e+00
 -1 2408 8.12500e-01 3.00000e+00 4.00000e+00
 -1 2409 7.50000e-01 3.00000e+00 3.93750e+00
 -1 2410 7.50000e-01 3.25000e+00 4.00000e+00
 -1 2411 6.25000e-01 3.00000e+00 0.00000e+00
 -1 2412 6.25000e-01 3.00000e+00 1.25000e-01
 -1 2413 6.87500e-01 3.00000e+00-2.22045e-16
 -1 2414 6.87500e-01 3.00000e+00 1.25000e-01
 -1 2415 6.25000e-01 3.25000e+00 4.44089e-16
 -1 2416 6.25000e-01 3.00000e+00 6.25000e-02
 -1 2417 6.25000e-01 3.25000e+00 1.25000e-01
 -1 2418 6.25000e-01 3.00000e+00 2.50000e-01
 -1 2419 6.87500e-01 3.00000e+00 2.50000e-01
 -1 2420 6.25000e-01 3.00000e+00 1.87500e-01
 -1 2421 6.25000e-01 3.25000e+00 2.50000e-01
 -1 2422 6.25000e-01 3.00000e+00 3.75000e-01
 -1 2423 6.87500e-01 3.00000e+00 3.75000e-01
 -1 2424 6.25000e-01 3.00000e+00 3.12500e-01
 -1 2425 6.25000e-01 3.25000e+00 3.75000e-01
 -1 2426 6.25000e-01 3.00000e+00 5.00000e-01
 -1 2427 6.87500e-01 3.00000e+00 5.00000e-01
 -1 2428 6.25000e-01 3.00000e+00 4.37500e-01
 -1 2429 6.25000e-01 3.25000e+00 5.00000e-01
 -1 2430 6.25000e-01 3.00000e+00 6.25000e-01
 -1 2431 6.87500e-01 3.00000e+00 6.25000e-01
 -1 2432 6.25000e-01 3.00000e+00 5.62500e-01
 -1 2433 6.25000e-01 3.25000e+00 6.25000e-01
 -1 2434 6.25000e-01 3.00000e+00 7.50000e-01
 -1 2435 6.87500e-01 3.00000e+00 7.50000e-01
 -1 2436 6.25000e-01 3.00000e+00 6.87500e-01
 -1 2437 6.25000e-01 3.25000e+00 7.50000e-01
 -1 2438 6.25000e-01 3.00000e+00 8.75000e-01
 -1 2439 6.87500e-01 3.00000e+00 8.75000e-01
 -1 2440 6.25000e-01 3.00000e+00 8.12500e-01
 -1 2441 6.25000e-01 3.25000e+00 8.75000e-01
 -1 2442 6.25000e-01 3.00000e+00 1.00000e+00
 -1 2443 6.87500e-01 3.00000e+00 1.00000e+00
 -1 2444 6.25000e-01 3.00000e+00 9.37500e-01
 -1 2445 6.25000e-01 3.25000e+00 1.00000e+00
 -1 2446 6.25000e-01 3.00000e+00 1.12500e+00
 -1 2447 6.87500e-01 3.00000e+00 1.12500e+00
 -1 2448 6.25000e-01 3.00000e+00 1.06250e+00
 -1 2449 6.25000e-01 3.25000e+00 1.12500e+00
 -1 2450 6.25000e-01 3.00000e+00 1.25000e+00
 -1 2451 6.87500e-01 3.00000e+00 1.25000e+00
 -1 2452 6.25000e-01 3.00000e+00 1.18750e+00
 -1 2453 6.25000e-01 3.25000e+00 1.25000e+00
 -1 2454 6.25000e-01 3.00000e+00 1.37500e+00
 -1 2455 6.87500e-01 3.00000e+00 1.37500e+00
 -1 2456 6.25000e-01 3.00000e+00 1.31250e+00
 -1 2457 6.25000e-01 3.25000e+00 1.37500e+00
 -1 2458 6.25000e-01 3.00000e+00 1.50000e+00
 -1 2459 6.87500e-01 3.00000e+00 1.50000e+00
 -1 2460 6.25000e-01 3.00000e+00 1.43750e+00
 -1 2461 6.25000e-01 3.25000e+00 1.50000e+00
 -1 2462 6.25000e-01 3.00000e+00 1.62500e+00
 -1 2463 6.87500e-01 3.00000e+00 1.62500e+00
 -1 2464 6.25000e-01 3.00000e+00 1.56250e+00
 -1 2465 6.25000e-01 3.25000e+00 1.62500e+00
 -1 2466 6.25000e-01 3.00000e+00 1.75000e+00
 -1 2467 6.87500e-01 3.00000e+00 1.75000e+00
 -1 2468 6.25000e-01 3.00000e+00 1.68750e+00
 -1 2469 6.25000e-01 3.25000e+00 1.75000e+00
 -1 2470 6.25000e-01 3.00000e+00 1.87500e+00
 -1 2471 6.87500e-01 3.00000e+00 1.87500e+00
 -1 2472 6.25000e-01 3.00000e+00 1.81250e+00
 -1 2473 6.25000e-01 3.25000e+00 1.87500e+00
 -1 2474 6.25000e-01 3.00000e+00 2.00000e+00
 -1 2475 6.87500e-01 3.00000e+00 2.00000e+00
 -1 2476 6.25000e-01 3.00000e+00 1.93750e+00
 -1 2477 6.25000e-01 3.25000e+00 2.00000e+00
 -1 2478 6.25000e-01 3.00000e+00 2.12500e+00
 -1 2479 6.87500e-01 3.00000e+00 2.12500e+00
 -1 2480 6.25000e-01 3.00000e+00 2.06250e+00
 -1 2481 6.25000e-01 3.25000e+00 2.12500e+00
 -1 2482 6.25000e-01 3.00000e+00 2.25000e+00
 -1 2483 6.87500e-01 3.00000e+00 2.25000e+00
 -1 2484 6.25000e-01 3.00000e+00 2.18750e+00
 -1 2485 6.25000e-01 3.25000e+00 2.25000e+00
 -1 2486 6.25000e-01 3.00000e+00 2.37500e+00
 -1 2487 6.87500e-01 3.00000e+00 2.37500e+00
 -1 2488 6.25000e-01 3.00000e+00 2.31250e+00
 -1 2489 6.25000e-01 3.25000e+00 2.37500e+00
 -1 2490 6.25000e-01 3.00000e+00 2.50000e+00
 -1 2491 6.87500e-01 3.00000e+00 2.50000e+00
 -1 2492 6.25000e-01 3.00000e+00 2.43750e+00
 -1 2493 6.25000e-01 3.25000e+00 2.50000e+00
 -1 2494 6.25000e-01 3.00000e+00 2.62500e+00
 -1 2495 6.87500e-01 3.00000e+00 2.62500e+00
 -1 2496 6.25000e-01 3.00000e+00 2.56250e+00
 -1 2497 6.25000e-01 3.25000e+00 2.62500e+00
 -1 2498 6.25000e-01 3.00000e+00 2.75000e+00
 -1 2499 6.87500e-01 3.00000e+00 2.75000e+00
 -1 2500 6.25000e-01 3.00000e+00 2.68750e+00
 -1 2501 6.25000e-01 3.25000e+00 2.75000e+00
 -1 2502 6.25000e-01 3.00000e+00 2.87500e+00
 -1 2503 6.87500e-01 3.00000e+00 2.87500e+00
 -1 2504 6.25000e-01 3.00000e+00 2.81250e+00
 -1 2505 6.25000e-01 3.25000e+00 2.87500e+00
 -1 2506 6.25000e-01 3.00000e+00 3.00000e+00
 -1 2507 6.87500e-01 3.00000e+00 3.00000e+00
 -1 2508 6.25000e-01 3.00000e+00 2.93750e+00
 -1 2509 6.25000e-01 3.25000e+00 3.00000e+00
 -1 2510 6.25000e-01 3.00000e+00 3.12500e+00
 -1 2511 6.87500e-01 3.00000e+00 3.12500e+00
 -1 2512 6.25000e-01 3.00000e+00 3.06250e+00
 -1 2513 6.25000e-01 3.25000e+00 3.12500e+00
 -1 2514 6.25000e-01 3.00000e+00 3.25000e+00
 -1 2515 6.87500e-01 3.00000e+00 3.25000e+00
 -1 2516 6.25000e-01 3.00000e+00 3.18750e+00
 -1 2517 6.25000e-01 3.25000e+00 3.25000e+00
 -1 2518 6.25000e-01 3.00000e+00 3.37500e+00
 -1 2519 6.87500e-01 3.00000e+00 3.37500e+00
 -1 2520 6.25000e-01 3.00000e+00 3.31250e+00
 -1 2521 6.25000e-01 3.25000e+00 3.37500e+00
 -1 2522 6.25000e-01 3.00000e+00 3.50000e+00
 -1 2523 6.87500e-01 3.00000e+00 3.50000e+00
 -1 2524 6.25000e-01 3.00000e+00 3.43750e+00
 -1 2525 6.25000e-01 3.25000e+00 3.50000e+00
 -1 2526 6.25000e-01 3.00000e+00 3.62500e+00
 -1 2527 6.87500e-01 3.00000e+00 3.62500e+00
 -1 2528 6.25000e-01 3.00000e+00 3.56250e+00
 -1 2529 6.25000e-01 3.25000e+00 3.62500e+00
 -1 2530 6.25000e-01 3.00000e+00 3.75000e+00
 -1 2531 6.87500e-01 3.00000e+00 3.75000e+00
 -1 2532 6.25000e-01 3.00000e+00 3.68750e+00
 -1 2533 6.25000e-01 3.25000e+00 3.75000e+00
 -1 2534 6.25000e-01 3.00000e+00 3.87500e+00
 -1 2535 6.87500e-01 3.00000e+00 3.87500e+00
 -1 2536 6.25000e-01 3.00000e+00 3.81250e+00
 -1 2537 6.25000e-01 3.25000e+00 3.87500e+00
 -1 2538 6.25000e-01 3.00000e+00 4.00000e+00
 -1 2539 6.87500e-01 3.00000e+00 4.00000e+00
 -1 2540 6.25000e-01 3.00000e+00 3.93750e+00
 -1 2541 6.25000e-01 3.25000e+00 4.00000e+00
 -1 2542 5.00000e-01 3.00000e+00 4.44089e-16
 -1 2543 5.00000e-01 3.00000e+00 1.25000e-01
 -1 2544 5.62500e-01 3.00000e+00 0.00000e+00
 -1 2545 5.62500e-01 3.00000e+00 1.25000e-01
 -1 2546 5.00000e-01 3.25000e+00 0.00000e+00
 -1 2547 5.00000e-01 3.00000e+00 6.25000e-02
 -1 2548 5.00000e-01 3.25000e+00 1.25000e-01
 -1 2549 5.00000e-01 3.00000e+00 2.50000e-01
 -1 2550 5.62500e-01 3.00000e+00 2.50000e-01
 -1 2551 5.00000e-01 3.00000e+00 1.87500e-01
 -1 2552 5.00000e-01 3.25000e+00 2.50000e-01
 -1 2553 5.00000e-01 3.00000e+00 3.75000e-01
 -1 2554 5.62500e-01 3.00000e+00 3.75000e-01
 -1 2555 5.00000e-01 3.00000e+00 3.12500e-01
 -1 2556 5.00000e-01 3.25000e+00 3.75000e-01
 -1 2557 5.00000e-01 3.00000e+00 5.00000e-01
 -1 2558 5.62500e-01 3.00000e+00 5.00000e-01
 -1 2559 5.00000e-01 3.00000e+00 4.37500e-01
 -1 2560 5.00000e-01 3.25000e+00 5.00000e-01
 -1 2561 5.00000e-01 3.00000e+00 6.25000e-01
 -1 2562 5.62500e-01 3.00000e+00 6.25000e-01
 -1 2563 5.00000e-01 3.00000e+00 5.62500e-01
 -1 2564 5.00000e-01 3.25000e+00 6.25000e-01
 -1 2565 5.00000e-01 3.00000e+00 7.50000e-01
 -1 2566 5.62500e-01 3.00000e+00 7.50000e-01
 -1 2567 5.00000e-01 3.00000e+00 6.87500e-01
 -1 2568 5.00000e-01 3.25000e+00 7.50000e-01
 -1 2569 5.00000e-01 3.00000e+00 8.75000e-01
 -1 2570 5.62500e-01 3.00000e+00 8.75000e-01
 -1 2571 5.00000e-01 3.00000e+00 8.12500e-01
 -1 2572 5.00000e-01 3.25000e+00 8.75000e-01
 -1 2573 5.00000e-01 3.00000e+00 1.00000e+00
 -1 2574 5.62500e-01 3.00000e+00 1.00000e+00
 -1 2575 5.00000e-01 3.00000e+00 9.37500e-01
 -1 2576 5.00000e-01 3.25000e+00 1.00000e+00
 -1 2577 5.00000e-01 3.00000e+00 1.12500e+00
 -1 2578 5.62500e-01 3.00000e+00 1.12500e+00
 -1 2579 5.00000e-01 3.00000e+00 1.06250e+00
 -1 2580 5.00000e-01 3.25000e+00 1.12500e+00
 -1 2581 5.00000e-01 3.00000e+00 1.25000e+00
 -1 2582 5.62500e-01 3.00000e+00 1.25000e+00
 -1 2583 5.00000e-01 3.00000e+00 1.18750e+00
 -1 2584 5.00000e-01 3.25000e+00 1.25000e+00
 -1 2585 5.00000e-01 3.00000e+00 1.37500e+00
 -1 2586 5.62500e-01 3.00000e+00 1.37500e+00
 -1 2587 5.00000e-01 3.00000e+00 1.31250e+00
 -1 2588 5.00000e-01 3.25000e+00 1.37500e+00
 -1 2589 5.00000e-01 3.00000e+00 1.50000e+00
 -1 2590 5.62500e-01 3.00000e+00 1.50000e+00
 -1 2591 5.00000e-01 3.00000e+00 1.43750e+00
 -1 2592 5.00000e-01 3.25000e+00 1.50000e+00
 -1 2593 5.00000e-01 3.00000e+00 1.62500e+00
 -1 2594 5.62500e-01 3.00000e+00 1.62500e+00
 -1 2595 5.00000e-01 3.00000e+00 1.56250e+00
 -1 2596 5.00000e-01 3.25000e+00 1.62500e+00
 -1 2597 5.00000e-01 3.00000e+00 1.75000e+00
 -1 2598 5.62500e-01 3.00000e+00 1.75000e+00
 -1 2599 5.00000e-01 3.00000e+00 1.68750e+00
 -1 2600 5.00000e-01 3.25000e+00 1.75000e+00
 -1 2601 5.00000e-01 3.00000e+00 1.87500e+00
 -1 2602 5.62500e-01 3.00000e+00 1.87500e+00
 -1 2603 5.00000e-01 3.00000e+00 1.81250e+00
 -1 2604 5.00000e-01 3.25000e+00 1.87500e+00
 -1 2605 5.00000e-01 3.00000e+00 2.00000e+00
 -1 2606 5.62500e-01 3.00000e+00 2.00000e+00
 -1 2607 5.00000e-01 3.00000e+00 1.93750e+00
 -1 2608 5.00000e-01 3.25000e+00 2.00000e+00
 -1 2609 5.00000e-01 3.00000e+00 2.12500e+00
 -1 2610 5.62500e-01 3.00000e+00 2.12500e+00
 -1 2611 5.00000e-01 3.00000e+00 2.06250e+00
 -1 2612 5.00000e-01 3.25000e+00 2.12500e+00
 -1 2613 5.00000e-01 3.00000e+00 2.25000e+00
 -1 2614 5.62500e-01 3.00000e+00 2.25000e+00
 -1 2615 5.00000e-01 3.00000e+00 2.18750e+00
 -1 2616 5.00000e-01 3.25000e+00 2.25000e+00
 -1 2617 5.00000e-01 3.00000e+00 2.37500e+00
 -1 2618 5.62500e-01 3.00000e+00 2.37500e+00
 -1 2619 5.00000e-01 3.00000e+00 2.31250e+00
 -1 2620 5.00000e-01 3.25000e+00 2.37500e+00
 -1 2621 5.00000e-01 3.00000e+00 2.50000e+00
 -1 2622 5.62500e-01 3.00000e+00 2.50000e+00
 -1 2623 5.00000e-01 3.00000e+00 2.43750e+00
 -1 2624 5.00000e-01 3.25000e+00 2.50000e+00
 -1 2625 5.00000e-01 3.00000e+00 2.62500e+00
 -1 2626 5.62500e-01 3.00000e+00 2.62500e+00
 -1 2627 5.00000e-01 3.00000e+00 2.56250e+00
 -1 2628 5.00000e-01 3.25000e+00 2.62500e+00
 -1 2629 5.00000e-01 3.00000e+00 2.75000e+00
 -1 2630 5.62500e-01 3.00000e+00 2.75000e+00
 -1 2631 5.00000e-01 3.00000e+00 2.68750e+00
 -1 2632 5.00000e-01 3.25000e+00 2.75000e+00
 -1 2633 5.00000e-01 3.00000e+00 2.87500e+00
 -1 2634 5.62500e-01 3.00000e+00 2.87500e+00
 -1 2635 5.00000e-01 3.00000e+00 2.81250e+00
 -1 2636 5.00000e-01 3.25000e+00 2.87500e+00
 -1 2637 5.00000e-01 3.00000e+00 3.00000e+00
 -1 2638 5.62500e-01 3.00000e+00 3.00000e+00
 -1 2639 5.00000e-01 3.00000e+00 2.93750e+00
 -1 2640 5.00000e-01 3.25000e+00 3.00000e+00
 -1 2641 5.00000e-01 3.00000e+00 3.12500e+00
 -1 2642 5.62500e-01 3.00000e+00 3.12500e+00
 -1 2643 5.00000e-01 3.00000e+00 3.06250e+00
 -1 2644 5.00000e-01 3.25000e+00 3.12500e+00
 -1 2645 5.00000e-01 3.00000e+00 3.25000e+00
 -1 2646 5.62500e-01 3.00000e+00 3.25000e+00
 -1 2647 5.00000e-01 3.00000e+00 3.18750e+00
 -1 2648 5.00000e-01 3.25000e+00 3.25000e+00
 -1 2649 5.00000e-01 3.00000e+00 3.37500e+00
 -1 2650 5.62500e-01 3.00000e+00 3.37500e+00
 -1 2651 5.00000e-01 3.00000e+00 3.31250e+00
 -1 2652 5.00000e-01 3.25000e+00 3.37500e+00
 -1 2653 5.00000e-01 3.00000e+00 3.50000e+00
 -1 2654 5.62500e-01 3.00000e+00 3.50000e+00
 -1 2655 5.00000e-01 3.00000e+00 3.43750e+00
 -1 2656 5.00000e-01 3.25000e+00 3.50000e+00
 -1 2657 5.00000e-01 3.00000e+00 3.62500e+00
 -1 2658 5.62500e-01 3.00000e+00 3.62500e+00
 -1 2659 5.00000e-01 3.00000e+00 3.56250e+00
 -1 2660 5.00000e-01 3.25000e+00 3.62500e+00
 -1 2661 5.00000e-01 3.00000e+00 3.75000e+00
 -1 2662 5.62500e-01 3.00000e+00 3.75000e+00
 -1 2663 5.00000e-01 3.00000e+00 3.68750e+00
 -1 2664 5.00000e-01 3.25000e+00 3.75000e+00
 -1 2665 5.00000e-01 3.00000e+00 3.87500e+00
 -1 2666 5.62500e-01 3.00000e+00 3.87500e+00
 -1 2667 5.00000e-01 3.00000e+00 3.81250e+00
 -1 2668 5.00000e-01 3.25000e+00 3.87500e+00
 -1 2669 5.00000e-01 3.00000e+00 4.00000e+00
 -1 2670 5.62500e-01 3.00000e+00 4.00000e+00
 -1 2671 5.00000e-01 3.00000e+00 3.93750e+00
 -1 2672 5.00000e-01 3.25000e+00 4.00000e+00
 -1 2673 3.75000e-01 3.00000e+00 0.00000e+00
 -1 2674 3.75000e-01 3.00000e+00 1.25000e-01
 -1 2675 4.37500e-01 3.00000e+00 0.00000e+00
 -1 2676 4.37500e-01 3.00000e+00 1.25000e-01
 -1 2677 3.75000e-01 3.25000e+00 0.00000e+00
 -1 2678 3.75000e-01 3.00000e+00 6.25000e-02
 -1 2679 3.75000e-01 3.25000e+00 1.25000e-01
 -1 2680 3.75000e-01 3.00000e+00 2.50000e-01
 -1 2681 4.37500e-01 3.00000e+00 2.50000e-01
 -1 2682 3.75000e-01 3.00000e+00 1.87500e-01
 -1 2683 3.75000e-01 3.25000e+00 2.50000e-01
 -1 2684 3.75000e-01 3.00000e+00 3.75000e-01
 -1 2685 4.37500e-01 3.00000e+00 3.75000e-01
 -1 2686 3.75000e-01 3.00000e+00 3.12500e-01
 -1 2687 3.75000e-01 3.25000e+00 3.75000e-01
 -1 2688 3.75000e-01 3.00000e+00 5.00000e-01
 -1 2689 4.37500e-01 3.00000e+00 5.00000e-01
 -1 2690 3.75000e-01 3.00000e+00 4.37500e-01
 -1 2691 3.75000e-01 3.25000e+00 5.00000e-01
 -1 2692 3.75000e-01 3.00000e+00 6.25000e-01
 -1 2693 4.37500e-01 3.00000e+00 6.25000e-01
 -1 2694 3.75000e-01 3.00000e+00 5.62500e-01
 -1 2695 3.75000e-01 3.25000e+00 6.25000e-01
 -1 2696 3.75000e-01 3.00000e+00 7.50000e-01
 -1 2697 4.37500e-01 3.00000e+00 7.50000e-01
 -1 2698 3.75000e-01 3.00000e+00 6.87500e-01
 -1 2699 3.75000e-01 3.25000e+00 7.50000e-01
 -1 2700 3.75000e-01 3.00000e+00 8.75000e-01
 -1 2701 4.37500e-01 3.00000e+00 8.75000e-01
 -1 2702 3.75000e-01 3.00000e+00 8.12500e-01
 -1 2703 3.75000e-01 3.25000e+00 8.75000e-01
 -1 2704 3.75000e-01 3.00000e+00 1.00000e+00
 -1 2705 4.37500e-01 3.00000e+00 1.00000e+00
 -1 2706 3.75000e-01 3.00000e+00 9.37500e-01
 -1 2707 3.75000e-01 3.25000e+00 1.00000e+00
 -1 2708 3.75000e-01 3.00000e+00 1.12500e+00
 -1 2709 4.37500e-01 3.00000e+00 1.12500e+00
 -1 2710 3.75000e-01 3.00000e+00 1.06250e+00
 -1 2711 3.75000e-01 3.25000e+00 1.12500e+00
 -1 2712 3.75000e-01 3.00000e+00 1.25000e+00
 -1 2713 4.37500e-01 3.00000e+00 1.25000e+00
 -1 2714 3.75000e-01 3.00000e+00 1.18750e+00
 -1 2715 3.75000e-01 3.25000e+00 1.25000e+00
 -1 2716 3.75000e-01 3.00000e+00 1.37500e+00
 -1 2717 4.37500e-01 3.00000e+00 1.37500e+00
 -1 2718 3.75000e-01 3.00000e+00 1.31250e+00
 -1 2719 3.75000e-01 3.25000e+00 1.37500e+00
 -1 2720 3.75000e-01 3.00000e+00 1.50000e+00
 -1 2721 4.37500e-01 3.00000e+00 1.50000e+00
 -1 2722 3.75000e-01 3.00000e+00 1.43750e+00
 -1 2723 3.75000e-01 3.25000e+00 1.50000e+00
 -1 2724 3.75000e-01 3.00000e+00 1.62500e+00
 -1 2725 4.37500e-01 3.00000e+00 1.62500e+00
 -1 2726 3.75000e-01 3.00000e+00 1.56250e+00
 -1 2727 3.75000e-01 3.25000e+00 1.62500e+00
 -1 2728 3.75000e-01 3.00000e+00 1.75000e+00
 -1 2729 4.37500e-01 3.00000e+00 1.75000e+00
 -1 2730 3.75000e-01 3.00000e+00 1.68750e+00
 -1 2731 3.75000e-01 3.25000e+00 1.75000e+00
 -1 2732 3.75000e-01 3.00000e+00 1.87500e+00
 -1 2733 4.37500e-01 3.00000e+00 1.87500e+00
 -1 2734 3.75000e-01 3.00000e+00 1.81250e+00
 -1 2735 3.75000e-01 3.25000e+00 1.87500e+00
 -1 2736 3.75000e-01 3.00000e+00 2.00000e+00
 -1 2737 4.37500e-01 3.00000e+00 2.00000e+00
 -1 2738 3.75000e-01 3.00000e+00 1.93750e+00
 -1 2739 3.75000e-01 3.25000e+00 2.00000e+00
 -1 2740 3.75000e-01 3.00000e+00 2.12500e+00
 -1 2741 4.37500e-01 3.00000e+00 2.12500e+00
 -1 2742 3.75000e-01 3.00000e+00 2.06250e+00
 -1 2743 3.75000e-01 3.25000e+00 2.12500e+00
 -1 2744 3.75000e-01 3.00000e+00 2.25000e+00
 -1 2745 4.37500e-01 3.00000e+00 2.25000e+00
 -1 2746 3.75000e-01 3.00000e+00 2.18750e+00
 -1 2747 3.75000e-01 3.25000e+00 2.25000e+00
 -1 2748 3.75000e-01 3.00000e+00 2.37500e+00
 -1 2749 4.37500e-01 3.00000e+00 2.37500e+00
 -1 2750 3.75000e-01 3.00000e+00 2.31250e+00
 -1 2751 3.75000e-01 3.25000e+00 2.37500e+00
 -1 2752 3.75000e-01 3.00000e+00 2.50000e+00
 -1 2753 4.37500e-01 3.00000e+00 2.50000e+00
 -1 2754 3.75000e-01 3.00000e+00 2.43750e+00
 -1 2755 3.75000e-01 3.25000e+00 2.50000e+00
 -1 2756 3.75000e-01 3.00000e+00 2.62500e+00
 -1 2757 4.37500e-01 3.00000e+00 2.62500e+00
 -1 2758 3.75000e-01 3.00000e+00 2.56250e+00
 -1 2759 3.75000e-01 3.25000e+00 2.62500e+00
 -1 2760 3.75000e-01 3.00000e+00 2.75000e+00
 -1 2761 4.37500e-01 3.00000e+00 2.75000e+00
 -1 2762 3.75000e-01 3.00000e+00 2.68750e+00
 -1 2763 3.75000e-01 3.25000e+00 2.75000e+00
 -1 2764 3.75000e-01 3.00000e+00 2.87500e+00
 -1 2765 4.37500e-01 3.00000e+00 2.87500e+00
 -1 2766 3.75000e-01 3.00000e+00 2.81250e+00
 -1 2767 3.75000e-01 3.25000e+00 2.87500e+00
 -1 2768 3.75000e-01 3.00000e+00 3.00000e+00
 -1 2769 4.37500e-01 3.00000e+00 3.00000e+00
 -1 2770 3.75000e-01 3.00000e+00 2.93750e+00
 -1 2771 3.75000e-01 3.25000e+00 3.00000e+00
 -1 2772 3.75000e-01 3.00000e+00 3.12500e+00
 -1 2773 4.37500e-01 3.00000e+00 3.12500e+00
 -1 2774 3.75000e-01 3.00000e+00 3.06250e+00
 -1 2775 3.75000e-01 3.25000e+00 3.12500e+00
 -1 2776 3.75000e-01 3.00000e+00 3.25000e+00
 -1 2777 4.37500e-01 3.00000e+00 3.25000e+00
 -1 2778 3.75000e-01 3.00000e+00 3.18750e+00
 -1 2779 3.75000e-01 3.25000e+00 3.25000e+00
 -1 2780 3.75000e-01 3.00000e+00 3.37500e+00
 -1 2781 4.37500e-01 3.00000e+00 3.37500e+00
 -1 2782 3.75000e-01 3.00000e+00 3.31250e+00
 -1 2783 3.75000e-01 3.25000e+00 3.37500e+00
 -1 2784 3.75000e-01 3.00000e+00 3.50000e+00
 -1 2785 4.37500e-01 3.00000e+00 3.50000e+00
 -1 2786 3.75000e-01 3.00000e+00 3.43750e+00
 -1 2787 3.75000e-01 3.25000e+00 3.50000e+00
 -1 2788 3.75000e-01 3.00000e+00 3.62500e+00
 -1 2789 4.37500e-01 3.00000e+00 3.62500e+00
 -1 2790 3.75000e-01 3.00000e+00 3.56250e+00
 -1 2791 3.75000e-01 3.25000e+00 3.62500e+00
 -1 2792 3.75000e-01 3.00000e+00 3.75000e+00
 -1 2793 4.37500e-01 3.00000e+00 3.75000e+00
 -1 2794 3.75000e-01 3.00000e+00 3.68750e+00
 -1 2795 3.75000e-01 3.25000e+00 3.75000e+00
 -1 2796 3.75000e-01 3.00000e+00 3.87500e+00
 -1 2797 4.37500e-01 3.00000e+00 3.87500e+00
 -1 2798 3.75000e-01 3.00000e+00 3.81250e+00
 -1 2799 3.75000e-01 3.25000e+00 3.87500e+00
 -1 2800 3.75000e-01 3.00000e+00 4.00000e+00
 -1 2801 4.37500e-01 3.00000e+00 4.00000e+00
 -1 2802 3.75000e-01 3.00000e+00 3.93750e+00
 -1 2803 3.75000e-01 3.25000e+00 4.00000e+00
 -1 2804 2.50000e-01 3.00000e+00 0.00000e+00
 -1 2805 2.50000e-01 3.00000e+00 1.25000e-01
 -1 2806 3.12500e-01 3.00000e+00 0.00000e+00
 -1 2807 3.12500e-01 3.00000e+00 1.25000e-01
 -1 2808 2.50000e-01 3.25000e+00 0.00000e+00
 -1 2809 2.50000e-01 3.00000e+00 6.25000e-02
 -1 2810 2.50000e-01 3.25000e+00 1.25000e-01
 -1 2811 2.50000e-01 3.00000e+00 2.50000e-01
 -1 2812 3.12500e-01 3.00000e+00 2.50000e-01
 -1 2813 2.50000e-01 3.00000e+00 1.87500e-01
 -1 2814 2.50000e-01 3.25000e+00 2.50000e-01
 -1 2815 2.50000e-01 3.00000e+00 3.75000e-01
 -1 2816 3.12500e-01 3.00000e+00 3.75000e-01
 -1 2817 2.50000e-01 3.00000e+00 3.12500e-01
 -1 2818 2.50000e-01 3.25000e+00 3.75000e-01
 -1 2819 2.50000e-01 3.00000e+00 5.00000e-01
 -1 2820 3.12500e-01 3.00000e+00 5.00000e-01
 -1 2821 2.50000e-01 3.00000e+00 4.37500e-01
 -1 2822 2.50000e-01 3.25000e+00 5.00000e-01
 -1 2823 2.50000e-01 3.00000e+00 6.25000e-01
 -1 2824 3.12500e-01 3.00000e+00 6.25000e-01
 -1 2825 2.50000e-01 3.00000e+00 5.62500e-01
 -1 2826 2.50000e-01 3.25000e+00 6.25000e-01
 -1 2827 2.50000e-01 3.00000e+00 7.50000e-01
 -1 2828 3.12500e-01 3.00000e+00 7.50000e-01
 -1 2829 2.50000e-01 3.00000e+00 6.87500e-01
 -1 2830 2.50000e-01 3.25000e+00 7.50000e-01
 -1 2831 2.50000e-01 3.00000e+00 8.75000e-01
 -1 2832 3.12500e-01 3.00000e+00 8.75000e-01
 -1 2833 2.50000e-01 3.00000e+00 8.12500e-01
 -1 2834 2.50000e-01 3.25000e+00 8.75000e-01
 -1 2835 2.50000e-01 3.00000e+00 1.00000e+00
 -1 2836 3.12500e-01 3.00000e+00 1.00000e+00
 -1 2837 2.50000e-01 3.00000e+00 9.37500e-01
 -1 2838 2.50000e-01 3.25000e+00 1.00000e+00
 -1 2839 2.50000e-01 3.00000e+00 1.12500e+00
 -1 2840 3.12500e-01 3.00000e+00 1.12500e+00
 -1 2841 2.50000e-01 3.00000e+00 1.06250e+00
 -1 2842 2.50000e-01 3.25000e+00 1.12500e+00
 -1 2843 2.50000e-01 3.00000e+00 1.25000e+00
 -1 2844 3.12500e-01 3.00000e+00 1.25000e+00
 -1 2845 2.50000e-01 3.00000e+00 1.18750e+00
 -1 2846 2.50000e-01 3.25000e+00 1.25000e+00
 -1 2847 2.50000e-01 3.00000e+00 1.37500e+00
 -1 2848 3.12500e-01 3.00000e+00 1.37500e+00
 -1 2849 2.50000e-01 3.00000e+00 1.31250e+00
 -1 2850 2.50000e-01 3.25000e+00 1.37500e+00
 -1 2851 2.50000e-01 3.00000e+00 1.50000e+00
 -1 2852 3.12500e-01 3.00000e+00 1.50000e+00
 -1 2853 2.50000e-01 3.00000e+00 1.43750e+00
 -1 2854 2.50000e-01 3.25000e+00 1.50000e+00
 -1 2855 2.50000e-01 3.00000e+00 1.62500e+00
 -1 2856 3.12500e-01 3.00000e+00 1.62500e+00
 -1 2857 2.50000e-01 3.00000e+00 1.56250e+00
 -1 2858 2.50000e-01 3.25000e+00 1.62500e+00
 -1 2859 2.50000e-01 3.00000e+00 1.75000e+00
 -1 2860 3.12500e-01 3.00000e+00 1.75000e+00
 -1 2861 2.50000e-01 3.00000e+00 1.68750e+00
 -1 2862 2.50000e-01 3.25000e+00 1.75000e+00
 -1 2863 2.50000e-01 3.00000e+00 1.87500e+00
 -1 2864 3.12500e-01 3.00000e+00 1.87500e+00
 -1 2865 2.50000e-01 3.00000e+00 1.81250e+00
 -1 2866 2.50000e-01 3.25000e+00 1.87500e+00
 -1 2867 2.50000e-01 3.00000e+00 2.00000e+00
 -1 2868 3.12500e-01 3.00000e+00 2.00000e+00
 -1 2869 2.50000e-01 3.00000e+00 1.93750e+00
 -1 2870 2.50000e-01 3.25000e+00 2.00000e+00
 -1 2871 2.50000e-01 3.00000e+00 2.12500e+00
 -1 2872 3.12500e-01 3.00000e+00 2.12500e+00
 -1 2873 2.50000e-01 3.00000e+00 2.06250e+00
 -1 2874 2.50000e-01 3.25000e+00 2.12500e+00
 -1 2875 2.50000e-01 3.00000e+00 2.25000e+00
 -1 2876 3.12500e-01 3.00000e+00 2.25000e+00
 -1 2877 2.50000e-01 3.00000e+00 2.18750e+00
 -1 2878 2.50000e-01 3.25000e+00 2.25000e+00
 -1 2879 2.50000e-01 3.00000e+00 2.37500e+00
 -1 2880 3.12500e-01 3.00000e+00 2.37500e+00
 -1 2881 2.50000e-01 3.00000e+00 2.31250e+00
 -1 2882 2.50000e-01 3.25000e+00 2.37500e+00
 -1 2883 2.50000e-01 3.00000e+00 2.50000e+00
 -1 2884 3.12500e-01 3.00000e+00 2.50000e+00
 -1 2885 2.50000e-01 3.00000e+00 2.43750e+00
 -1 2886 2.50000e-01 3.25000e+00 2.50000e+00
 -1 2887 2.50000e-01 3.00000e+00 2.62500e+00
 -1 2888 3.12500e-01 3.00000e+00 2.62500e+00
 -1 2889 2.50000e-01 3.00000e+00 2.56250e+00
 -1 2890 2.50000e-01 3.25000e+00 2.62500e+00
 -1 2891 2.50000e-01 3.00000e+00 2.75000e+00
 -1 2892 3.12500e-01 3.00000e+00 2.75000e+00
 -1 2893 2.50000e-01 3.00000e+00 2.68750e+00
 -1 2894 2.50000e-01 3.25000e+00 2.75000e+00
 -1 2895 2.50000e-01 3.00000e+00 2.87500e+00
 -1 2896 3.12500e-01 3.00000e+00 2.87500e+00
 -1 2897 2.50000e-01 3.00000e+00 2.81250e+00
 -1 2898 2.50000e-01 3.25000e+00 2.87500e+00
 -1 2899 2.50000e-01 3.00000e+00 3.00000e+00
 -1 2900 3.12500e-01 3.00000e+00 3.00000e+00
 -1 2901 2.50000e-01 3.00000e+00 2.93750e+00
 -1 2902 2.50000e-01 3.25000e+00 3.00000e+00
 -1 2903 2.50000e-01 3.00000e+00 3.12500e+00
 -1 2904 3.12500e-01 3.00000e+00 3.12500e+00
 -1 2905 2.50000e-01 3.00000e+00 3.06250e+00
 -1 2906 2.50000e-01 3.25000e+00 3.12500e+00
 -1 2907 2.50000e-01 3.00000e+00 3.25000e+00
 -1 2908 3.12500e-01 3.00000e+00 3.25000e+00
 -1 2909 2.50000e-01 3.00000e+00 3.18750e+00
 -1 2910 2.50000e-01 3.25000e+00 3.25000e+00
 -1 2911 2.50000e-01 3.00000e+00 3.37500e+00
 -1 2912 3.12500e-01 3.00000e+00 3.37500e+00
 -1 2913 2.50000e-01 3.00000e+00 3.31250e+00
 -1 2914 2.50000e-01 3.25000e+00 3.37500e+00
 -1 2915 2.50000e-01 3.00000e+00 3.50000e+00
 -1 2916 3.12500e-01 3.00000e+00 3.50000e+00
 -1 2917 2.50000e-01 3.00000e+00 3.43750e+00
 -1 2918 2.50000e-01 3.25000e+00 3.50000e+00
 -1 2919 2.50000e-01 3.00000e+00 3.62500e+00
 -1 2920 3.12500e-01 3.00000e+00 3.62500e+00
 -1 2921 2.50000e-01 3.00000e+00 3.56250e+00
 -1 2922 2.50000e-01 3.25000e+00 3.62500e+00
 -1 2923 2.50000e-01 3.00000e+00 3.75000e+00
 -1 2924 3.12500e-01 3.00000e+00 3.75000e+00
 -1 2925 2.50000e-01 3.00000e+00 3.68750e+00
 -1 2926 2.50000e-01 3.25000e+00 3.75000e+00
 -1 2927 2.50000e-01 3.00000e+00 3.87500e+00
 -1 2928 3.12500e-01 3.00000e+00 3.87500e+00
 -1 2929 2.50000e-01 3.00000e+00 3.81250e+00
 -1 2930 2.50000e-01 3.25000e+00 3.87500e+00
 -1 2931 2.50000e-01 3.00000e+00 4.00000e+00
 -1 2932 3.12500e-01 3.00000e+00 4.00000e+00
 -1 2933 2.50000e-01 3.00000e+00 3.93750e+00
 -1 2934 2.50000e-01 3.25000e+00 4.00000e+00
 -1 2935 1.25000e-01 3.00000e+00-2.22045e-16
 -1 2936 1.25000e-01 3.00000e+00 1.25000e-01
 -1 2937 1.87500e-01 3.00000e+00 4.44089e-16
 -1 2938 1.87500e-01 3.00000e+00 1.25000e-01
 -1 2939 1.25000e-01 3.25000e+00-2.22045e-16
 -1 2940 1.25000e-01 3.00000e+00 6.25000e-02
 -1 2941 1.25000e-01 3.25000e+00 1.25000e-01
 -1 2942 1.25000e-01 3.00000e+00 2.50000e-01
 -1 2943 1.87500e-01 3.00000e+00 2.50000e-01
 -1 2944 1.25000e-01 3.00000e+00 1.87500e-01
 -1 2945 1.25000e-01 3.25000e+00 2.50000e-01
 -1 2946 1.25000e-01 3.00000e+00 3.75000e-01
 -1 2947 1.87500e-01 3.00000e+00 3.75000e-01
 -1 2948 1.25000e-01 3.00000e+00 3.12500e-01
 -1 2949 1.25000e-01 3.25000e+00 3.75000e-01
 -1 2950 1.25000e-01 3.00000e+00 5.00000e-01
 -1 2951 1.87500e-01 3.00000e+00 5.00000e-01
 -1 2952 1.25000e-01 3.00000e+00 4.37500e-01
 -1 2953 1.25000e-01 3.25000e+00 5.00000e-01
 -1 2954 1.25000e-01 3.00000e+00 6.25000e-01
 -1 2955 1.87500e-01 3.00000e+00 6.25000e-01
 -1 2956 1.25000e-01 3.00000e+00 5.62500e-01
 -1 2957 1.25000e-01 3.25000e+00 6.25000e-01
 -1 2958 1.25000e-01 3.00000e+00 7.50000e-01
 -1 2959 1.87500e-01 3.00000e+00 7.50000e-01
 -1 2960 1.25000e-01 3.00000e+00 6.87500e-01
 -1 2961 1.25000e-01 3.25000e+00 7.50000e-01
 -1 2962 1.25000e-01 3.00000e+00 8.75000e-01
 -1 2963 1.87500e-01 3.00000e+00 8.75000e-01
 -1 2964 1.25000e-01 3.00000e+00 8.12500e-01
 -1 2965 1.25000e-01 3.25000e+00 8.75000e-01
 -1 2966 1.25000e-01 3.00000e+00 1.00000e+00
 -1 2967 1.87500e-01 3.00000e+00 1.00000e+00
 -1 2968 1.25000e-01 3.00000e+00 9.37500e-01
 -1 2969 1.25000e-01 3.25000e+00 1.00000e+00
 -1 2970 1.25000e-01 3.00000e+00 1.12500e+00
 -1 2971 1.87500e-01 3.00000e+00 1.12500e+00
 -1 2972 1.25000e-01 3.00000e+00 1.06250e+00
 -1 2973 1.25000e-01 3.25000e+00 1.12500e+00
 -1 2974 1.25000e-01 3.00000e+00 1.25000e+00
 -1 2975 1.87500e-01 3.00000e+00 1.25000e+00
 -1 2976 1.25000e-01 3.00000e+00 1.18750e+00
 -1 2977 1.25000e-01 3.25000e+00 1.25000e+00
 -1 2978 1.25000e-01 3.00000e+00 1.37500e+00
 -1 2979 1.87500e-01 3.00000e+00 1.37500e+00
 -1 2980 1.25000e-01 3.00000e+00 1.31250e+00
 -1 2981 1.25000e-01 3.25000e+00 1.37500e+00
 -1 2982 1.25000e-01 3.00000e+00 1.50000e+00
 -1 2983 1.87500e-01 3.00000e+00 1.50000e+00
 -1 2984 1.25000e-01 3.00000e+00 1.43750e+00
 -1 2985 1.25000e-01 3.25000e+00 1.50000e+00
 -1 2986 1.25000e-01 3.00000e+00 1.62500e+00
 -1 2987 1.87500e-01 3.00000e+00 1.62500e+00
 -1 2988 1.25000e-01 3.00000e+00 1.56250e+00
 -1 2989 1.25000e-01 3.25000e+00 1.62500e+00
 -1 2990 1.25000e-01 3.00000e+00 1.75000e+00
 -1 2991 1.87500e-01 3.00000e+00 1.75000e+00
 -1 2992 1.25000e-01 3.00000e+00 1.68750e+00
 -1 2993 1.25000e-01 3.25000e+00 1.75000e+00
 -1 2994 1.25000e-01 3.00000e+00 1.87500e+00
 -1 2995 1.87500e-01 3.00000e+00 1.87500e+00
 -1 2996 1.25000e-01 3.00000e+00 1.81250e+00
 -1 2997 1.25000e-01 3.25000e+00 1.87500e+00
 -1 2998 1.25000e-01 3.00000e+00 2.00000e+00
 -1 2999 1.87500e-01 3.00000e+00 2.00000e+00
 -1 3000 1.25000e-01 3.00000e+00 1.93750e+00
 -1 3001 1.25000e-01 3.25000e+00 2.00000e+00
 -1 3002 1.25000e-01 3.00000e+00 2.12500e+00
 -1 3003 1.87500e-01 3.00000e+00 2.12500e+00
 -1 3004 1.25000e-01 3.00000e+00 2.06250e+00
 -1 3005 1.25000e-01 3.25000e+00 2.12500e+00
 -1 3006 1.25000e-01 3.00000e+00 2.25000e+00
 -1 3007 1.87500e-01 3.00000e+00 2.25000e+00
 -1 3008 1.25000e-01 3.00000e+00 2.18750e+00
 -1 3009 1.25000e-01 3.25000e+00 2.25000e+00
 -1 3010 1.25000e-01 3.00000e+00 2.37500e+00
 -1 3011 1.87500e-01 3.00000e+00 2.37500e+00
 -1 3012 1.25000e-01 3.00000e+00 2.31250e+00
 -1 3013 1.25000e-01 3.25000e+00 2.37500e+00
 -1 3014 1.25000e-01 3.00000e+00 2.50000e+00
 -1 3015 1.87500e-01 3.00000e+00 2.50000e+00
 -1 3016 1.25000e-01 3.00000e+00 2.43750e+00
 -1 3017 1.25000e-01 3.25000e+00 2.50000e+00
 -1 3018 1.25000e-01 3.00000e+00 2.62500e+00
 -1 3019 1.87500e-01 3.00000e+00 2.62500e+00
 -1 3020 1.25000e-01 3.00000e+00 2.56250e+00
 -1 3021 1.25000e-01 3.25000e+00 2.62500e+00
 -1 3022 1.25000e-01 3.00000e+00 2.75000e+00
 -1 3023 1.87500e-01 3.00000e+00 2.75000e+00
 -1 3024 1.25000e-01 3.00000e+00 2.68750e+00
 -1 3025 1.25000e-01 3.25000e+00 2.75000e+00
 -1 3026 1.25000e-01 3.00000e+00 2.87500e+00
 -1 3027 1.87500e-01 3.00000e+00 2.87500e+00
 -1 3028 1.25000e-01 3.00000e+00 2.81250e+00
 -1 3029 1.25000e-01 3.25000e+00 2.87500e+00
 -1 3030 1.25000e-01 3.00000e+00 3.00000e+00
 -1 3031 1.87500e-01 3.00000e+00 3.00000e+00
 -1 3032 1.25000e-01 3.00000e+00 2.93750e+00
 -1 3033 1.25000e-01 3.25000e+00 3.00000e+00
 -1 3034 1.25000e-01 3.00000e+00 3.12500e+00
 -1 3035 1.87500e-01 3.00000e+00 3.12500e+00
 -1 3036 1.25000e-01 3.00000e+00 3.06250e+00
 -1 3037 1.25000e-01 3.25000e+00 3.12500e+00
 -1 3038 1.25000e-01 3.00000e+00 3.25000e+00
 -1 3039 1.87500e-01 3.00000e+00 3.25000e+00
 -1 3040 1.25000e-01 3.00000e+00 3.18750e+00
 -1 3041 1.25000e-01 3.25000e+00 3.25000e+00
 -1 3042 1.25000e-01 3.00000e+00 3.37500e+00
 -1 3043 1.87500e-01 3.00000e+00 3.37500e+00
 -1 3044 1.25000e-01 3.00000e+00 3.31250e+00
 -1 3045 1.25000e-01 3.25000e+00 3.37500e+00
 -1 3046 1.25000e-01 3.00000e+00 3.50000e+00
 -1 3047 1.87500e-01 3.00000e+00 3.50000e+00
 -1 3048 1.25000e-01 3.00000e+00 3.43750e+00
 -1 3049 1.25000e-01 3.25000e+00 3.50000e+00
 -1 3050 1.25000e-01 3.00000e+00 3.62500e+00
 -1 3051 1.87500e-01 3.00000e+00 3.62500e+00
 -1 3052 1.25000e-01 3.00000e+00 3.56250e+00
 -1 3053 1.25000e-01 3.25000e+00 3.62500e+00
 -1 3054 1.25000e-01 3.00000e+00 3.75000e+00
 -1 3055 1.87500e-01 3.00000e+00 3.75000e+00
 -1 3056 1.25000e-01 3.00000e+00 3.68750e+00
 -1 3057 1.25000e-01 3.25000e+00 3.75000e+00
 -1 3058 1.25000e-01 3.00000e+00 3.87500e+00
 -1 3059 1.87500e-01 3.00000e+00 3.87500e+00
 -1 3060 1.25000e-01 3.00000e+00 3.81250e+00
 -1 3061 1.25000e-01 3.25000e+00 3.87500e+00
 -1 3062 1.25000e-01 3.00000e+00 4.00000e+00
 -1 3063 1.87500e-01 3.00000e+00 4.00000e+00
 -1 3064 1.25000e-01 3.00000e+00 3.93750e+00
 -1 3065 1.25000e-01 3.25000e+00 4.00000e+00
 -1 3066 0.00000e+00 3.00000e+00 0.00000e+00
 -1 3067 0.00000e+00 3.00000e+00 1.25000e-01
 -1 3068 6.25000e-02 3.00000e+00-2.22045e-16
 -1 3069 6.25000e-02 3.00000e+00 1.25000e-01
 -1 3070 0.00000e+00 3.25000e+00 0.00000e+00
 -1 3071 1.11022e-16 3.00000e+00 6.25000e-02
 -1 3072 0.00000e+00 3.25000e+00 1.25000e-01
 -1 3073-1.11022e-16 3.00000e+00 2.50000e-01
 -1 3074 6.25000e-02 3.00000e+00 2.50000e-01
 -1 3075 0.00000e+00 3.00000e+00 1.87500e-01
 -1 3076 0.00000e+00 3.25000e+00 2.50000e-01
 -1 3077 1.11022e-16 3.00000e+00 3.75000e-01
 -1 3078 6.25000e-02 3.00000e+00 3.75000e-01
 -1 3079 0.00000e+00 3.00000e+00 3.12500e-01
 -1 3080 0.00000e+00 3.25000e+00 3.75000e-01
 -1 3081 0.00000e+00 3.00000e+00 5.00000e-01
 -1 3082 6.25000e-02 3.00000e+00 5.00000e-01
 -1 3083 0.00000e+00 3.00000e+00 4.37500e-01
 -1 3084 1.11022e-16 3.25000e+00 5.00000e-01
 -1 3085 0.00000e+00 3.00000e+00 6.25000e-01
 -1 3086 6.25000e-02 3.00000e+00 6.25000e-01
 -1 3087-1.11022e-16 3.00000e+00 5.62500e-01
 -1 3088-1.11022e-16 3.25000e+00 6.25000e-01
 -1 3089 0.00000e+00 3.00000e+00 7.50000e-01
 -1 3090 6.25000e-02 3.00000e+00 7.50000e-01
 -1 3091 1.11022e-16 3.00000e+00 6.87500e-01
 -1 3092 0.00000e+00 3.25000e+00 7.50000e-01
 -1 3093-1.11022e-16 3.00000e+00 8.75000e-01
 -1 3094 6.25000e-02 3.00000e+00 8.75000e-01
 -1 3095 0.00000e+00 3.00000e+00 8.12500e-01
 -1 3096 0.00000e+00 3.25000e+00 8.75000e-01
 -1 3097 1.11022e-16 3.00000e+00 1.00000e+00
 -1 3098 6.25000e-02 3.00000e+00 1.00000e+00
 -1 3099 0.00000e+00 3.00000e+00 9.37500e-01
 -1 3100 0.00000e+00 3.25000e+00 1.00000e+00
 -1 3101 0.00000e+00 3.00000e+00 1.12500e+00
 -1 3102 6.25000e-02 3.00000e+00 1.12500e+00
 -1 3103 0.00000e+00 3.00000e+00 1.06250e+00
 -1 3104 1.11022e-16 3.25000e+00 1.12500e+00
 -1 3105 0.00000e+00 3.00000e+00 1.25000e+00
 -1 3106 6.25000e-02 3.00000e+00 1.25000e+00
 -1 3107-1.11022e-16 3.00000e+00 1.18750e+00
 -1 3108-3.33067e-16 3.25000e+00 1.25000e+00
 -1 3109 0.00000e+00 3.00000e+00 1.37500e+00
 -1 3110 6.25000e-02 3.00000e+00 1.37500e+00
 -1 3111 0.00000e+00 3.00000e+00 1.31250e+00
 -1 3112-3.33067e-16 3.25000e+00 1.37500e+00
 -1 3113 0.00000e+00 3.00000e+00 1.50000e+00
 -1 3114 6.25000e-02 3.00000e+00 1.50000e+00
 -1 3115 0.00000e+00 3.00000e+00 1.43750e+00
 -1 3116 0.00000e+00 3.25000e+00 1.50000e+00
 -1 3117 0.00000e+00 3.00000e+00 1.62500e+00
 -1 3118 6.25000e-02 3.00000e+00 1.62500e+00
 -1 3119 0.00000e+00 3.00000e+00 1.56250e+00
 -1 3120 0.00000e+00 3.25000e+00 1.62500e+00
 -1 3121-1.11022e-16 3.00000e+00 1.75000e+00
 -1 3122 6.25000e-02 3.00000e+00 1.75000e+00
 -1 3123 0.00000e+00 3.00000e+00 1.68750e+00
 -1 3124 1.11022e-16 3.25000e+00 1.75000e+00
 -1 3125 0.00000e+00 3.00000e+00 1.87500e+00
 -1 3126 6.25000e-02 3.00000e+00 1.87500e+00
 -1 3127 0.00000e+00 3.00000e+00 1.81250e+00
 -1 3128-3.33067e-16 3.25000e+00 1.87500e+00
 -1 3129 0.00000e+00 3.00000e+00 2.00000e+00
 -1 3130 6.25000e-02 3.00000e+00 2.00000e+00
 -1 3131 0.00000e+00 3.00000e+00 1.93750e+00
 -1 3132-3.33067e-16 3.25000e+00 2.00000e+00
 -1 3133 0.00000e+00 3.00000e+00 2.12500e+00
 -1 3134 6.25000e-02 3.00000e+00 2.12500e+00
 -1 3135-1.11022e-16 3.00000e+00 2.06250e+00
 -1 3136 0.00000e+00 3.25000e+00 2.12500e+00
 -1 3137 0.00000e+00 3.00000e+00 2.25000e+00
 -1 3138 6.25000e-02 3.00000e+00 2.25000e+00
 -1 3139 0.00000e+00 3.00000e+00 2.18750e+00
 -1 3140 0.00000e+00 3.25000e+00 2.25000e+00
 -1 3141-1.11022e-16 3.00000e+00 2.37500e+00
 -1 3142 6.25000e-02 3.00000e+00 2.37500e+00
 -1 3143 0.00000e+00 3.00000e+00 2.31250e+00
 -1 3144 1.11022e-16 3.25000e+00 2.37500e+00
 -1 3145 0.00000e+00 3.00000e+00 2.50000e+00
 -1 3146 6.25000e-02 3.00000e+00 2.50000e+00
 -1 3147 0.00000e+00 3.00000e+00 2.43750e+00
 -1 3148-3.33067e-16 3.25000e+00 2.50000e+00
 -1 3149 0.00000e+00 3.00000e+00 2.62500e+00
 -1 3150 6.25000e-02 3.00000e+00 2.62500e+00
 -1 3151-1.11022e-16 3.00000e+00 2.56250e+00
 -1 3152-1.11022e-16 3.25000e+00 2.62500e+00
 -1 3153 0.00000e+00 3.00000e+00 2.75000e+00
 -1 3154 6.25000e-02 3.00000e+00 2.75000e+00
 -1 3155 0.00000e+00 3.00000e+00 2.68750e+00
 -1 3156 0.00000e+00 3.25000e+00 2.75000e+00
 -1 3157-1.11022e-16 3.00000e+00 2.87500e+00
 -1 3158 6.25000e-02 3.00000e+00 2.87500e+00
 -1 3159 0.00000e+00 3.00000e+00 2.81250e+00
 -1 3160 1.11022e-16 3.25000e+00 2.87500e+00
 -1 3161 0.00000e+00 3.00000e+00 3.00000e+00
 -1 3162 6.25000e-02 3.00000e+00 3.00000e+00
 -1 3163 0.00000e+00 3.00000e+00 2.93750e+00
 -1 3164 0.00000e+00 3.25000e+00 3.00000e+00
 -1 3165 0.00000e+00 3.00000e+00 3.12500e+00
 -1 3166 6.25000e-02 3.00000e+00 3.12500e+00
 -1 3167 0.00000e+00 3.00000e+00 3.06250e+00
 -1 3168-3.33067e-16 3.25000e+00 3.12500e+00
 -1 3169 0.00000e+00 3.00000e+00 3.25000e+00
 -1 3170 6.25000e-02 3.00000e+00 3.25000e+00
 -1 3171-1.11022e-16 3.00000e+00 3.18750e+00
 -1 3172 0.00000e+00 3.25000e+00 3.25000e+00
 -1 3173 0.00000e+00 3.00000e+00 3.37500e+00
 -1 3174 6.25000e-02 3.00000e+00 3.37500e+00
 -1 3175 0.00000e+00 3.00000e+00 3.31250e+00
 -1 3176 0.00000e+00 3.25000e+00 3.37500e+00
 -1 3177-1.11022e-16 3.00000e+00 3.50000e+00
 -1 3178 6.25000e-02 3.00000e+00 3.50000e+00
 -1 3179 0.00000e+00 3.00000e+00 3.43750e+00
 -1 3180 1.11022e-16 3.25000e+00 3.50000e+00
 -1 3181 0.00000e+00 3.00000e+00 3.62500e+00
 -1 3182 6.25000e-02 3.00000e+00 3.62500e+00
 -1 3183 0.00000e+00 3.00000e+00 3.56250e+00
 -1 3184 0.00000e+00 3.25000e+00 3.62500e+00
 -1 3185 0.00000e+00 3.00000e+00 3.75000e+00
 -1 3186 6.25000e-02 3.00000e+00 3.75000e+00
 -1 3187 0.00000e+00 3.00000e+00 3.68750e+00
 -1 3188-3.33067e-16 3.25000e+00 3.75000e+00
 -1 3189 0.00000e+00 3.00000e+00 3.87500e+00
 -1 3190 6.25000e-02 3.00000e+00 3.87500e+00
 -1 3191-1.11022e-16 3.00000e+00 3.81250e+00
 -1 3192 0.00000e+00 3.25000e+00 3.87500e+00
 -1 3193 0.00000e+00 3.00000e+00 4.00000e+00
 -1 3194 6.25000e-02 3.00000e+00 4.00000e+00
 -1 3195 0.00000e+00 3.00000e+00 3.93750e+00
 -1 3196 0.00000e+00 3.25000e+00 4.00000e+00
 -1 3197 1.00000e+00 2.50000e+00 0.00000e+00
 -1 3198 1.00000e+00 2.50000e+00 1.25000e-01
 -1 3199 8.75000e-01 2.50000e+00 0.00000e+00
 -1 3200 8.75000e-01 2.50000e+00 1.25000e-01
 -1 3201 1.00000e+00 2.75000e+00 0.00000e+00
 -1 3202 1.00000e+00 2.50000e+00 6.25000e-02
 -1 3203 1.00000e+00 2.75000e+00 1.25000e-01
 -1 3204 9.37500e-01 2.50000e+00 0.00000e+00
 -1 3205 9.37500e-01 2.50000e+00 1.25000e-01
 -1 3206 8.75000e-01 2.75000e+00 0.00000e+00
 -1 3207 8.75000e-01 2.50000e+00 6.25000e-02
 -1 3208 8.75000e-01 2.75000e+00 1.25000e-01
 -1 3209 1.00000e+00 2.50000e+00 2.50000e-01
 -1 3210 8.75000e-01 2.50000e+00 2.50000e-01
 -1 3211 1.00000e+00 2.50000e+00 1.87500e-01
 -1 3212 1.00000e+00 2.75000e+00 2.50000e-01
 -1 3213 9.37500e-01 2.50000e+00 2.50000e-01
 -1 3214 8.75000e-01 2.50000e+00 1.87500e-01
 -1 3215 8.75000e-01 2.75000e+00 2.50000e-01
 -1 3216 1.00000e+00 2.50000e+00 3.75000e-01
 -1 3217 8.75000e-01 2.50000e+00 3.75000e-01
 -1 3218 1.00000e+00 2.50000e+00 3.12500e-01
 -1 3219 1.00000e+00 2.75000e+00 3.75000e-01
 -1 3220 9.37500e-01 2.50000e+00 3.75000e-01
 -1 3221 8.75000e-01 2.50000e+00 3.12500e-01
 -1 3222 8.75000e-01 2.75000e+00 3.75000e-01
 -1 3223 1.00000e+00 2.50000e+00 5.00000e-01
 -1 3224 8.75000e-01 2.50000e+00 5.00000e-01
 -1 3225 1.00000e+00 2.50000e+00 4.37500e-01
 -1 3226 1.00000e+00 2.75000e+00 5.00000e-01
 -1 3227 9.37500e-01 2.50000e+00 5.00000e-01
 -1 3228 8.75000e-01 2.50000e+00 4.37500e-01
 -1 3229 8.75000e-01 2.75000e+00 5.00000e-01
 -1 3230 1.00000e+00 2.50000e+00 6.25000e-01
 -1 3231 8.75000e-01 2.50000e+00 6.25000e-01
 -1 3232 1.00000e+00 2.50000e+00 5.62500e-01
 -1 3233 1.00000e+00 2.75000e+00 6.25000e-01
 -1 3234 9.37500e-01 2.50000e+00 6.25000e-01
 -1 3235 8.75000e-01 2.50000e+00 5.62500e-01
 -1 3236 8.75000e-01 2.75000e+00 6.25000e-01
 -1 3237 1.00000e+00 2.50000e+00 7.50000e-01
 -1 3238 8.75000e-01 2.50000e+00 7.50000e-01
 -1 3239 1.00000e+00 2.50000e+00 6.87500e-01
 -1 3240 1.00000e+00 2.75000e+00 7.50000e-01
 -1 3241 9.37500e-01 2.50000e+00 7.50000e-01
 -1 3242 8.75000e-01 2.50000e+00 6.87500e-01
 -1 3243 8.75000e-01 2.75000e+00 7.50000e-01
 -1 3244 1.00000e+00 2.50000e+00 8.75000e-01
 -1 3245 8.75000e-01 2.50000e+00 8.75000e-01
 -1 3246 1.00000e+00 2.50000e+00 8.12500e-01
 -1 3247 1.00000e+00 2.75000e+00 8.75000e-01
 -1 3248 9.37500e-01 2.50000e+00 8.75000e-01
 -1 3249 8.75000e-01 2.50000e+00 8.12500e-01
 -1 3250 8.75000e-01 2.75000e+00 8.75000e-01
 -1 3251 1.00000e+00 2.50000e+00 1.00000e+00
 -1 3252 8.75000e-01 2.50000e+00 1.00000e+00
 -1 3253 1.00000e+00 2.50000e+00 9.37500e-01
 -1 3254 1.00000e+00 2.75000e+00 1.00000e+00
 -1 3255 9.37500e-01 2.50000e+00 1.00000e+00
 -1 3256 8.75000e-01 2.50000e+00 9.37500e-01
 -1 3257 8.75000e-01 2.75000e+00 1.00000e+00
 -1 3258 1.00000e+00 2.50000e+00 1.12500e+00
 -1 3259 8.75000e-01 2.50000e+00 1.12500e+00
 -1 3260 1.00000e+00 2.50000e+00 1.06250e+00
 -1 3261 1.00000e+00 2.75000e+00 1.12500e+00
 -1 3262 9.37500e-01 2.50000e+00 1.12500e+00
 -1 3263 8.75000e-01 2.50000e+00 1.06250e+00
 -1 3264 8.75000e-01 2.75000e+00 1.12500e+00
 -1 3265 1.00000e+00 2.50000e+00 1.25000e+00
 -1 3266 8.75000e-01 2.50000e+00 1.25000e+00
 -1 3267 1.00000e+00 2.50000e+00 1.18750e+00
 -1 3268 1.00000e+00 2.75000e+00 1.25000e+00
 -1 3269 9.37500e-01 2.50000e+00 1.25000e+00
 -1 3270 8.75000e-01 2.50000e+00 1.18750e+00
 -1 3271 8.75000e-01 2.75000e+00 1.25000e+00
 -1 3272 1.00000e+00 2.50000e+00 1.37500e+00
 -1 3273 8.75000e-01 2.50000e+00 1.37500e+00
 -1 3274 1.00000e+00 2.50000e+00 1.31250e+00
 -1 3275 1.00000e+00 2.75000e+00 1.37500e+00
 -1 3276 9.37500e-01 2.50000e+00 1.37500e+00
 -1 3277 8.75000e-01 2.50000e+00 1.31250e+00
 -1 3278 8.75000e-01 2.75000e+00 1.37500e+00
 -1 3279 1.00000e+00 2.50000e+00 1.50000e+00
 -1 3280 8.75000e-01 2.50000e+00 1.50000e+00
 -1 3281 1.00000e+00 2.50000e+00 1.43750e+00
 -1 3282 1.00000e+00 2.75000e+00 1.50000e+00
 -1 3283 9.37500e-01 2.50000e+00 1.50000e+00
 -1 3284 8.75000e-01 2.50000e+00 1.43750e+00
 -1 3285 8.75000e-01 2.75000e+00 1.50000e+00
 -1 3286 1.00000e+00 2.50000e+00 1.62500e+00
 -1 3287 8.75000e-01 2.50000e+00 1.62500e+00
 -1 3288 1.00000e+00 2.50000e+00 1.56250e+00
 -1 3289 1.00000e+00 2.75000e+00 1.62500e+00
 -1 3290 9.37500e-01 2.50000e+00 1.62500e+00
 -1 3291 8.75000e-01 2.50000e+00 1.56250e+00
 -1 3292 8.75000e-01 2.75000e+00 1.62500e+00
 -1 3293 1.00000e+00 2.50000e+00 1.75000e+00
 -1 3294 8.75000e-01 2.50000e+00 1.75000e+00
 -1 3295 1.00000e+00 2.50000e+00 1.68750e+00
 -1 3296 1.00000e+00 2.75000e+00 1.75000e+00
 -1 3297 9.37500e-01 2.50000e+00 1.75000e+00
 -1 3298 8.75000e-01 2.50000e+00 1.68750e+00
 -1 3299 8.75000e-01 2.75000e+00 1.75000e+00
 -1 3300 1.00000e+00 2.50000e+00 1.87500e+00
 -1 3301 8.75000e-01 2.50000e+00 1.87500e+00
 -1 3302 1.00000e+00 2.50000e+00 1.81250e+00
 -1 3303 1.00000e+00 2.75000e+00 1.87500e+00
 -1 3304 9.37500e-01 2.50000e+00 1.87500e+00
 -1 3305 8.75000e-01 2.50000e+00 1.81250e+00
 -1 3306 8.75000e-01 2.75000e+00 1.87500e+00
 -1 3307 1.00000e+00 2.50000e+00 2.00000e+00
 -1 3308 8.75000e-01 2.50000e+00 2.00000e+00
 -1 3309 1.00000e+00 2.50000e+00 1.93750e+00
 -1 3310 1.00000e+00 2.75000e+00 2.00000e+00
 -1 3311 9.37500e-01 2.50000e+00 2.00000e+00
 -1 3312 8.75000e-01 2.50000e+00 1.93750e+00
 -1 3313 8.75000e-01 2.75000e+00 2.00000e+00
 -1 3314 1.00000e+00 2.50000e+00 2.12500e+00
 -1 3315 8.75000e-01 2.50000e+00 2.12500e+00
 -1 3316 1.00000e+00 2.50000e+00 2.06250e+00
 -1 3317 1.00000e+00 2.75000e+00 2.12500e+00
 -1 3318 9.37500e-01 2.50000e+00 2.12500e+00
 -1 3319 8.75000e-01 2.50000e+00 2.06250e+00
 -1 3320 8.75000e-01 2.75000e+00 2.12500e+00
 -1 3321 1.00000e+00 2.50000e+00 2.25000e+00
 -1 3322 8.75000e-01 2.50000e+00 2.25000e+00
 -1 3323 1.00000e+00 2.50000e+00 2.18750e+00
 -1 3324 1.00000e+00 2.75000e+00 2.25000e+00
 -1 3325 9.37500e-01 2.50000e+00 2.25000e+00
 -1 3326 8.75000e-01 2.50000e+00 2.18750e+00
 -1 3327 8.75000e-01 2.75000e+00 2.25000e+00
 -1 3328 1.00000e+00 2.50000e+00 2.37500e+00
 -1 3329 8.75000e-01 2.50000e+00 2.37500e+00
 -1 3330 1.00000e+00 2.50000e+00 2.31250e+00
 -1 3331 1.00000e+00 2.75000e+00 2.37500e+00
 -1 3332 9.37500e-01 2.50000e+00 2.37500e+00
 -1 3333 8.75000e-01 2.50000e+00 2.31250e+00
 -1 3334 8.75000e-01 2.75000e+00 2.37500e+00
 -1 3335 1.00000e+00 2.50000e+00 2.50000e+00
 -1 3336 8.75000e-01 2.50000e+00 2.50000e+00
 -1 3337 1.00000e+00 2.50000e+00 2.43750e+00
 -1 3338 1.00000e+00 2.75000e+00 2.50000e+00
 -1 3339 9.37500e-01 2.50000e+00 2.50000e+00
 -1 3340 8.75000e-01 2.50000e+00 2.43750e+00
 -1 3341 8.75000e-01 2.75000e+00 2.50000e+00
 -1 3342 1.00000e+00 2.50000e+00 2.62500e+00
 -1 3343 8.75000e-01 2.50000e+00 2.62500e+00
 -1 3344 1.00000e+00 2.50000e+00 2.56250e+00
 -1 3345 1.00000e+00 2.75000e+00 2.62500e+00
 -1 3346 9.37500e-01 2.50000e+00 2.62500e+00
 -1 3347 8.75000e-01 2.50000e+00 2.56250e+00
 -1 3348 8.75000e-01 2.75000e+00 2.62500e+00
 -1 3349 1.00000e+00 2.50000e+00 2.75000e+00
 -1 3350 8.75000e-01 2.50000e+00 2.75000e+00
 -1 3351 1.00000e+00 2.50000e+00 2.68750e+00
 -1 3352 1.00000e+00 2.75000e+00 2.75000e+00
 -1 3353 9.37500e-01 2.50000e+00 2.75000e+00
 -1 3354 8.75000e-01 2.50000e+00 2.68750e+00
 -1 3355 8.75000e-01 2.75000e+00 2.75000e+00
 -1 3356 1.00000e+00 2.50000e+00 2.87500e+00
 -1 3357 8.75000e-01 2.50000e+00 2.87500e+00
 -1 3358 1.00000e+00 2.50000e+00 2.81250e+00
 -1 3359 1.00000e+00 2.75000e+00 2.87500e+00
 -1 3360 9.37500e-01 2.50000e+00 2.87500e+00
 -1 3361 8.75000e-01 2.50000e+00 2.81250e+00
 -1 3362 8.75000e-01 2.75000e+00 2.87500e+00
 -1 3363 1.00000e+00 2.50000e+00 3.00000e+00
 -1 3364 8.75000e-01 2.50000e+00 3.00000e+00
 -1 3365 1.00000e+00 2.50000e+00 2.93750e+00
 -1 3366 1.00000e+00 2.75000e+00 3.00000e+00
 -1 3367 9.37500e-01 2.50000e+00 3.00000e+00
 -1 3368 8.75000e-01 2.50000e+00 2.93750e+00
 -1 3369 8.75000e-01 2.75000e+00 3.00000e+00
 -1 3370 1.00000e+00 2.50000e+00 3.12500e+00
 -1 3371 8.75000e-01 2.50000e+00 3.12500e+00
 -1 3372 1.00000e+00 2.50000e+00 3.06250e+00
 -1 3373 1.00000e+00 2.75000e+00 3.12500e+00
 -1 3374 9.37500e-01 2.50000e+00 3.12500e+00
 -1 3375 8.75000e-01 2.50000e+00 3.06250e+00
 -1 3376 8.75000e-01 2.75000e+00 3.12500e+00
 -1 3377 1.00000e+00 2.50000e+00 3.25000e+00
 -1 3378 8.75000e-01 2.50000e+00 3.25000e+00
 -1 3379 1.00000e+00 2.50000e+00 3.18750e+00
 -1 3380 1.00000e+00 2.75000e+00 3.25000e+00
 -1 3381 9.37500e-01 2.50000e+00 3.25000e+00
 -1 3382 8.75000e-01 2.50000e+00 3.18750e+00
 -1 3383 8.75000e-01 2.75000e+00 3.25000e+00
 -1 3384 1.00000e+00 2.50000e+00 3.37500e+00
 -1 3385 8.75000e-01 2.50000e+00 3.37500e+00
 -1 3386 1.00000e+00 2.50000e+00 3.31250e+00
 -1 3387 1.00000e+00 2.75000e+00 3.37500e+00
 -1 3388 9.37500e-01 2.50000e+00 3.37500e+00
 -1 3389 8.75000e-01 2.50000e+00 3.31250e+00
 -1 3390 8.75000e-01 2.75000e+00 3.37500e+00
 -1 3391 1.00000e+00 2.50000e+00 3.50000e+00
 -1 3392 8.75000e-01 2.50000e+00 3.50000e+00
 -1 3393 1.00000e+00 2.50000e+00 3.43750e+00
 -1 3394 1.00000e+00 2.75000e+00 3.50000e+00
 -1 3395 9.37500e-01 2.50000e+00 3.50000e+00
 -1 3396 8.75000e-01 2.50000e+00 3.43750e+00
 -1 3397 8.75000e-01 2.75000e+00 3.50000e+00
 -1 3398 1.00000e+00 2.50000e+00 3.62500e+00
 -1 3399 8.75000e-01 2.50000e+00 3.62500e+00
 -1 3400 1.00000e+00 2.50000e+00 3.56250e+00
 -1 3401 1.00000e+00 2.75000e+00 3.62500e+00
 -1 3402 9.37500e-01 2.50000e+00 3.62500e+00
 -1 3403 8.75000e-01 2.50000e+00 3.56250e+00
 -1 3404 8.75000e-01 2.75000e+00 3.62500e+00
 -1 3405 1.00000e+00 2.50000e+00 3.75000e+00
 -1 3406 8.75000e-01 2.50000e+00 3.75000e+00
 -1 3407 1.00000e+00 2.50000e+00 3.68750e+00
 -1 3408 1.00000e+00 2.75000e+00 3.75000e+00
 -1 3409 9.37500e-01 2.50000e+00 3.75000e+00
 -1 3410 8.75000e-01 2.50000e+00 3.68750e+00
 -1 3411 8.75000e-01 2.75000e+00 3.75000e+00
 -1 3412 1.00000e+00 2.50000e+00 3.87500e+00
 -1 3413 8.75000e-01 2.50000e+00 3.87500e+00
 -1 3414 1.00000e+00 2.50000e+00 3.81250e+00
 -1 3415 1.00000e+00 2.75000e+00 3.87500e+00
 -1 3416 9.37500e-01 2.50000e+00 3.87500e+00
 -1 3417 8.75000e-01 2.50000e+00 3.81250e+00
 -1 3418 8.75000e-01 2.75000e+00 3.87500e+00
 -1 3419 1.00000e+00 2.50000e+00 4.00000e+00
 -1 3420 8.75000e-01 2.50000e+00 4.00000e+00
 -1 3421 1.00000e+00 2.50000e+00 3.93750e+00
 -1 3422 1.00000e+00 2.75000e+00 4.00000e+00
 -1 3423 9.37500e-01 2.50000e+00 4.00000e+00
 -1 3424 8.75000e-01 2.50000e+00 3.93750e+00
 -1 3425 8.75000e-01 2.75000e+00 4.00000e+00
 -1 3426 7.50000e-01 2.50000e+00 0.00000e+00
 -1 3427 7.50000e-01 2.50000e+00 1.25000e-01
 -1 3428 8.12500e-01 2.50000e+00 0.00000e+00
 -1 3429 8.12500e-01 2.50000e+00 1.25000e-01
 -1 3430 7.50000e-01 2.75000e+00 0.00000e+00
 -1 3431 7.50000e-01 2.50000e+00 6.25000e-02
 -1 3432 7.50000e-01 2.75000e+00 1.25000e-01
 -1 3433 7.50000e-01 2.50000e+00 2.50000e-01
 -1 3434 8.12500e-01 2.50000e+00 2.50000e-01
 -1 3435 7.50000e-01 2.50000e+00 1.87500e-01
 -1 3436 7.50000e-01 2.75000e+00 2.50000e-01
 -1 3437 7.50000e-01 2.50000e+00 3.75000e-01
 -1 3438 8.12500e-01 2.50000e+00 3.75000e-01
 -1 3439 7.50000e-01 2.50000e+00 3.12500e-01
 -1 3440 7.50000e-01 2.75000e+00 3.75000e-01
 -1 3441 7.50000e-01 2.50000e+00 5.00000e-01
 -1 3442 8.12500e-01 2.50000e+00 5.00000e-01
 -1 3443 7.50000e-01 2.50000e+00 4.37500e-01
 -1 3444 7.50000e-01 2.75000e+00 5.00000e-01
 -1 3445 7.50000e-01 2.50000e+00 6.25000e-01
 -1 3446 8.12500e-01 2.50000e+00 6.25000e-01
 -1 3447 7.50000e-01 2.50000e+00 5.62500e-01
 -1 3448 7.50000e-01 2.75000e+00 6.25000e-01
 -1 3449 7.50000e-01 2.50000e+00 7.50000e-01
 -1 3450 8.12500e-01 2.50000e+00 7.50000e-01
 -1 3451 7.50000e-01 2.50000e+00 6.87500e-01
 -1 3452 7.50000e-01 2.75000e+00 7.50000e-01
 -1 3453 7.50000e-01 2.50000e+00 8.75000e-01
 -1 3454 8.12500e-01 2.50000e+00 8.75000e-01
 -1 3455 7.50000e-01 2.50000e+00 8.12500e-01
 -1 3456 7.50000e-01 2.75000e+00 8.75000e-01
 -1 3457 7.50000e-01 2.50000e+00 1.00000e+00
 -1 3458 8.12500e-01 2.50000e+00 1.00000e+00
 -1 3459 7.50000e-01 2.50000e+00 9.37500e-01
 -1 3460 7.50000e-01 2.75000e+00 1.00000e+00
 -1 3461 7.50000e-01 2.50000e+00 1.12500e+00
 -1 3462 8.12500e-01 2.50000e+00 1.12500e+00
 -1 3463 7.50000e-01 2.50000e+00 1.06250e+00
 -1 3464 7.50000e-01 2.75000e+00 1.12500e+00
 -1 3465 7.50000e-01 2.50000e+00 1.25000e+00
 -1 3466 8.12500e-01 2.50000e+00 1.25000e+00
 -1 3467 7.50000e-01 2.50000e+00 1.18750e+00
 -1 3468 7.50000e-01 2.75000e+00 1.25000e+00
 -1 3469 7.50000e-01 2.50000e+00 1.37500e+00
 -1 3470 8.12500e-01 2.50000e+00 1.37500e+00
 -1 3471 7.50000e-01 2.50000e+00 1.31250e+00
 -1 3472 7.50000e-01 2.75000e+00 1.37500e+00
 -1 3473 7.50000e-01 2.50000e+00 1.50000e+00
 -1 3474 8.12500e-01 2.50000e+00 1.50000e+00
 -1 3475 7.50000e-01 2.50000e+00 1.43750e+00
 -1 3476 7.50000e-01 2.75000e+00 1.50000e+00
 -1 3477 7.50000e-01 2.50000e+00 1.62500e+00
 -1 3478 8.12500e-01 2.50000e+00 1.62500e+00
 -1 3479 7.50000e-01 2.50000e+00 1.56250e+00
 -1 3480 7.50000e-01 2.75000e+00 1.62500e+00
 -1 3481 7.50000e-01 2.50000e+00 1.75000e+00
 -1 3482 8.12500e-01 2.50000e+00 1.75000e+00
 -1 3483 7.50000e-01 2.50000e+00 1.68750e+00
 -1 3484 7.50000e-01 2.75000e+00 1.75000e+00
 -1 3485 7.50000e-01 2.50000e+00 1.87500e+00
 -1 3486 8.12500e-01 2.50000e+00 1.87500e+00
 -1 3487 7.50000e-01 2.50000e+00 1.81250e+00
 -1 3488 7.50000e-01 2.75000e+00 1.87500e+00
 -1 3489 7.50000e-01 2.50000e+00 2.00000e+00
 -1 3490 8.12500e-01 2.50000e+00 2.00000e+00
 -1 3491 7.50000e-01 2.50000e+00 1.93750e+00
 -1 3492 7.50000e-01 2.75000e+00 2.00000e+00
 -1 3493 7.50000e-01 2.50000e+00 2.12500e+00
 -1 3494 8.12500e-01 2.50000e+00 2.12500e+00
 -1 3495 7.50000e-01 2.50000e+00 2.06250e+00
 -1 3496 7.50000e-01 2.75000e+00 2.12500e+00
 -1 3497 7.50000e-01 2.50000e+00 2.25000e+00
 -1 3498 8.12500e-01 2.50000e+00 2.25000e+00
 -1 3499 7.50000e-01 2.50000e+00 2.18750e+00
 -1 3500 7.50000e-01 2.75000e+00 2.25000e+00
 -1 3501 7.50000e-01 2.50000e+00 2.37500e+00
 -1 3502 8.12500e-01 2.50000e+00 2.37500e+00
 -1 3503 7.50000e-01 2.50000e+00 2.31250e+00
 -1 3504 7.50000e-01 2.75000e+00 2.37500e+00
 -1 3505 7.50000e-01 2.50000e+00 2.50000e+00
 -1 3506 8.12500e-01 2.50000e+00 2.50000e+00
 -1 3507 7.50000e-01 2.50000e+00 2.43750e+00
 -1 3508 7.50000e-01 2.75000e+00 2.50000e+00
 -1 3509 7.50000e-01 2.50000e+00 2.62500e+00
 -1 3510 8.12500e-01 2.50000e+00 2.62500e+00
 -1 3511 7.50000e-01 2.50000e+00 2.56250e+00
 -1 3512 7.50000e-01 2.75000e+00 2.62500e+00
 -1 3513 7.50000e-01 2.50000e+00 2.75000e+00
 -1 3514 8.12500e-01 2.50000e+00 2.75000e+00
 -1 3515 7.50000e-01 2.50000e+00 2.68750e+00
 -1 3516 7.50000e-01 2.75000e+00 2.75000e+00
 -1 3517 7.50000e-01 2.50000e+00 2.87500e+00
 -1 3518 8.12500e-01 2.50000e+00 2.87500e+00
 -1 3519 7.50000e-01 2.50000e+00 2.81250e+00
 -1 3520 7.50000e-01 2.75000e+00 2.87500e+00
 -1 3521 7.50000e-01 2.50000e+00 3.00000e+00
 -1 3522 8.12500e-01 2.50000e+00 3.00000e+00
 -1 3523 7.50000e-01 2.50000e+00 2.93750e+00
 -1 3524 7.50000e-01 2.75000e+00 3.00000e+00
 -1 3525 7.50000e-01 2.50000e+00 3.12500e+00
 -1 3526 8.12500e-01 2.50000e+00 3.12500e+00
 -1 3527 7.50000e-01 2.50000e+00 3.06250e+00
 -1 3528 7.50000e-01 2.75000e+00 3.12500e+00
 -1 3529 7.50000e-01 2.50000e+00 3.25000e+00
 -1 3530 8.12500e-01 2.50000e+00 3.25000e+00
 -1 3531 7.50000e-01 2.50000e+00 3.18750e+00
 -1 3532 7.50000e-01 2.75000e+00 3.25000e+00
 -1 3533 7.50000e-01 2.50000e+00 3.37500e+00
 -1 3534 8.12500e-01 2.50000e+00 3.37500e+00
 -1 3535 7.50000e-01 2.50000e+00 3.31250e+00
 -1 3536 7.50000e-01 2.75000e+00 3.37500e+00
 -1 3537 7.50000e-01 2.50000e+00 3.50000e+00
 -1 3538 8.12500e-01 2.50000e+00 3.50000e+00
 -1 3539 7.50000e-01 2.50000e+00 3.43750e+00
 -1 3540 7.50000e-01 2.75000e+00 3.50000e+00
 -1 3541 7.50000e-01 2.50000e+00 3.62500e+00
 -1 3542 8.12500e-01 2.50000e+00 3.62500e+00
 -1 3543 7.50000e-01 2.50000e+00 3.56250e+00
 -1 3544 7.50000e-01 2.75000e+00 3.62500e+00
 -1 3545 7.50000e-01 2.50000e+00 3.75000e+00
 -1 3546 8.12500e-01 2.50000e+00 3.75000e+00
 -1 3547 7.50000e-01 2.50000e+00 3.68750e+00
 -1 3548 7.50000e-01 2.75000e+00 3.75000e+00
 -1 3549 7.50000e-01 2.50000e+00 3.87500e+00
 -1 3550 8.12500e-01 2.50000e+00 3.87500e+00
 -1 3551 7.50000e-01 2.50000e+00 3.81250e+00
 -1 3552 7.50000e-01 2.75000e+00 3.87500e+00
 -1 3553 7.50000e-01 2.50000e+00 4.00000e+00
 -1 3554 8.12500e-01 2.50000e+00 4.00000e+00
 -1 3555 7.50000e-01 2.50000e+00 3.93750e+00
 -1 3556 7.50000e-01 2.75000e+00 4.00000e+00
 -1 3557 6.25000e-01 2.50000e+00-2.22045e-16
 -1 3558 6.25000e-01 2.50000e+00 1.25000e-01
 -1 3559 6.87500e-01 2.50000e+00-2.22045e-16
 -1 3560 6.87500e-01 2.50000e+00 1.25000e-01
 -1 3561 6.25000e-01 2.75000e+00-2.22045e-16
 -1 3562 6.25000e-01 2.50000e+00 6.25000e-02
 -1 3563 6.25000e-01 2.75000e+00 1.25000e-01
 -1 3564 6.25000e-01 2.50000e+00 2.50000e-01
 -1 3565 6.87500e-01 2.50000e+00 2.50000e-01
 -1 3566 6.25000e-01 2.50000e+00 1.87500e-01
 -1 3567 6.25000e-01 2.75000e+00 2.50000e-01
 -1 3568 6.25000e-01 2.50000e+00 3.75000e-01
 -1 3569 6.87500e-01 2.50000e+00 3.75000e-01
 -1 3570 6.25000e-01 2.50000e+00 3.12500e-01
 -1 3571 6.25000e-01 2.75000e+00 3.75000e-01
 -1 3572 6.25000e-01 2.50000e+00 5.00000e-01
 -1 3573 6.87500e-01 2.50000e+00 5.00000e-01
 -1 3574 6.25000e-01 2.50000e+00 4.37500e-01
 -1 3575 6.25000e-01 2.75000e+00 5.00000e-01
 -1 3576 6.25000e-01 2.50000e+00 6.25000e-01
 -1 3577 6.87500e-01 2.50000e+00 6.25000e-01
 -1 3578 6.25000e-01 2.50000e+00 5.62500e-01
 -1 3579 6.25000e-01 2.75000e+00 6.25000e-01
 -1 3580 6.25000e-01 2.50000e+00 7.50000e-01
 -1 3581 6.87500e-01 2.50000e+00 7.50000e-01
 -1 3582 6.25000e-01 2.50000e+00 6.87500e-01
 -1 3583 6.25000e-01 2.75000e+00 7.50000e-01
 -1 3584 6.25000e-01 2.50000e+00 8.75000e-01
 -1 3585 6.87500e-01 2.50000e+00 8.75000e-01
 -1 3586 6.25000e-01 2.50000e+00 8.12500e-01
 -1 3587 6.25000e-01 2.75000e+00 8.75000e-01
 -1 3588 6.25000e-01 2.50000e+00 1.00000e+00
 -1 3589 6.87500e-01 2.50000e+00 1.00000e+00
 -1 3590 6.25000e-01 2.50000e+00 9.37500e-01
 -1 3591 6.25000e-01 2.75000e+00 1.00000e+00
 -1 3592 6.25000e-01 2.50000e+00 1.12500e+00
 -1 3593 6.87500e-01 2.50000e+00 1.12500e+00
 -1 3594 6.25000e-01 2.50000e+00 1.06250e+00
 -1 3595 6.25000e-01 2.75000e+00 1.12500e+00
 -1 3596 6.25000e-01 2.50000e+00 1.25000e+00
 -1 3597 6.87500e-01 2.50000e+00 1.25000e+00
 -1 3598 6.25000e-01 2.50000e+00 1.18750e+00
 -1 3599 6.25000e-01 2.75000e+00 1.25000e+00
 -1 3600 6.25000e-01 2.50000e+00 1.37500e+00
 -1 3601 6.87500e-01 2.50000e+00 1.37500e+00
 -1 3602 6.25000e-01 2.50000e+00 1.31250e+00
 -1 3603 6.25000e-01 2.75000e+00 1.37500e+00
 -1 3604 6.25000e-01 2.50000e+00 1.50000e+00
 -1 3605 6.87500e-01 2.50000e+00 1.50000e+00
 -1 3606 6.25000e-01 2.50000e+00 1.43750e+00
 -1 3607 6.25000e-01 2.75000e+00 1.50000e+00
 -1 3608 6.25000e-01 2.50000e+00 1.62500e+00
 -1 3609 6.87500e-01 2.50000e+00 1.62500e+00
 -1 3610 6.25000e-01 2.50000e+00 1.56250e+00
 -1 3611 6.25000e-01 2.75000e+00 1.62500e+00
 -1 3612 6.25000e-01 2.50000e+00 1.75000e+00
 -1 3613 6.87500e-01 2.50000e+00 1.75000e+00
 -1 3614 6.25000e-01 2.50000e+00 1.68750e+00
 -1 3615 6.25000e-01 2.75000e+00 1.75000e+00
 -1 3616 6.25000e-01 2.50000e+00 1.87500e+00
 -1 3617 6.87500e-01 2.50000e+00 1.87500e+00
 -1 3618 6.25000e-01 2.50000e+00 1.81250e+00
 -1 3619 6.25000e-01 2.75000e+00 1.87500e+00
 -1 3620 6.25000e-01 2.50000e+00 2.00000e+00
 -1 3621 6.87500e-01 2.50000e+00 2.00000e+00
 -1 3622 6.25000e-01 2.50000e+00 1.93750e+00
 -1 3623 6.25000e-01 2.75000e+00 2.00000e+00
 -1 3624 6.25000e-01 2.50000e+00 2.12500e+00
 -1 3625 6.87500e-01 2.50000e+00 2.12500e+00
 -1 3626 6.25000e-01 2.50000e+00 2.06250e+00
 -1 3627 6.25000e-01 2.75000e+00 2.12500e+00
 -1 3628 6.25000e-01 2.50000e+00 2.25000e+00
 -1 3629 6.87500e-01 2.50000e+00 2.25000e+00
 -1 3630 6.25000e-01 2.50000e+00 2.18750e+00
 -1 3631 6.25000e-01 2.75000e+00 2.25000e+00
 -1 3632 6.25000e-01 2.50000e+00 2.37500e+00
 -1 3633 6.87500e-01 2.50000e+00 2.37500e+00
 -1 3634 6.25000e-01 2.50000e+00 2.31250e+00
 -1 3635 6.25000e-01 2.75000e+00 2.37500e+00
 -1 3636 6.25000e-01 2.50000e+00 2.50000e+00
 -1 3637 6.87500e-01 2.50000e+00 2.50000e+00
 -1 3638 6.25000e-01 2.50000e+00 2.43750e+00
 -1 3639 6.25000e-01 2.75000e+00 2.50000e+00
 -1 3640 6.25000e-01 2.50000e+00 2.62500e+00
 -1 3641 6.87500e-01 2.50000e+00 2.62500e+00
 -1 3642 6.25000e-01 2.50000e+00 2.56250e+00
 -1 3643 6.25000e-01 2.75000e+00 2.62500e+00
 -1 3644 6.25000e-01 2.50000e+00 2.75000e+00
 -1 3645 6.87500e-01 2.50000e+00 2.75000e+00
 -1 3646 6.25000e-01 2.50000e+00 2.68750e+00
 -1 3647 6.25000e-01 2.75000e+00 2.75000e+00
 -1 3648 6.25000e-01 2.50000e+00 2.87500e+00
 -1 3649 6.87500e-01 2.50000e+00 2.87500e+00
 -1 3650 6.25000e-01 2.50000e+00 2.81250e+00
 -1 3651 6.25000e-01 2.75000e+00 2.87500e+00
 -1 3652 6.25000e-01 2.50000e+00 3.00000e+00
 -1 3653 6.87500e-01 2.50000e+00 3.00000e+00
 -1 3654 6.25000e-01 2.50000e+00 2.93750e+00
 -1 3655 6.25000e-01 2.75000e+00 3.00000e+00
 -1 3656 6.25000e-01 2.50000e+00 3.12500e+00
 -1 3657 6.87500e-01 2.50000e+00 3.12500e+00
 -1 3658 6.25000e-01 2.50000e+00 3.06250e+00
 -1 3659 6.25000e-01 2.75000e+00 3.12500e+00
 -1 3660 6.25000e-01 2.50000e+00 3.25000e+00
 -1 3661 6.87500e-01 2.50000e+00 3.25000e+00
 -1 3662 6.25000e-01 2.50000e+00 3.18750e+00
 -1 3663 6.25000e-01 2.75000e+00 3.25000e+00
 -1 3664 6.25000e-01 2.50000e+00 3.37500e+00
 -1 3665 6.87500e-01 2.50000e+00 3.37500e+00
 -1 3666 6.25000e-01 2.50000e+00 3.31250e+00
 -1 3667 6.25000e-01 2.75000e+00 3.37500e+00
 -1 3668 6.25000e-01 2.50000e+00 3.50000e+00
 -1 3669 6.87500e-01 2.50000e+00 3.50000e+00
 -1 3670 6.25000e-01 2.50000e+00 3.43750e+00
 -1 3671 6.25000e-01 2.75000e+00 3.50000e+00
 -1 3672 6.25000e-01 2.50000e+00 3.62500e+00
 -1 3673 6.87500e-01 2.50000e+00 3.62500e+00
 -1 3674 6.25000e-01 2.50000e+00 3.56250e+00
 -1 3675 6.25000e-01 2.75000e+00 3.62500e+00
 -1 3676 6.25000e-01 2.50000e+00 3.75000e+00
 -1 3677 6.87500e-01 2.50000e+00 3.75000e+00
 -1 3678 6.25000e-01 2.50000e+00 3.68750e+00
 -1 3679 6.25000e-01 2.75000e+00 3.75000e+00
 -1 3680 6.25000e-01 2.50000e+00 3.87500e+00
 -1 3681 6.87500e-01 2.50000e+00 3.87500e+00
 -1 3682 6.25000e-01 2.50000e+00 3.81250e+00
 -1 3683 6.25000e-01 2.75000e+00 3.87500e+00
 -1 3684 6.25000e-01 2.50000e+00 4.00000e+00
 -1 3685 6.87500e-01 2.50000e+00 4.00000e+00
 -1 3686 6.25000e-01 2.50000e+00 3.93750e+00
 -1 3687 6.25000e-01 2.75000e+00 4.00000e+00
 -1 3688 5.00000e-01 2.50000e+00 4.44089e-16
 -1 3689 5.00000e-01 2.50000e+00 1.25000e-01
 -1 3690 5.62500e-01 2.50000e+00-2.22045e-16
 -1 3691 5.62500e-01 2.50000e+00 1.25000e-01
 -1 3692 5.00000e-01 2.75000e+00-8.88178e-16
 -1 3693 5.00000e-01 2.50000e+00 6.25000e-02
 -1 3694 5.00000e-01 2.75000e+00 1.25000e-01
 -1 3695 5.00000e-01 2.50000e+00 2.50000e-01
 -1 3696 5.62500e-01 2.50000e+00 2.50000e-01
 -1 3697 5.00000e-01 2.50000e+00 1.87500e-01
 -1 3698 5.00000e-01 2.75000e+00 2.50000e-01
 -1 3699 5.00000e-01 2.50000e+00 3.75000e-01
 -1 3700 5.62500e-01 2.50000e+00 3.75000e-01
 -1 3701 5.00000e-01 2.50000e+00 3.12500e-01
 -1 3702 5.00000e-01 2.75000e+00 3.75000e-01
 -1 3703 5.00000e-01 2.50000e+00 5.00000e-01
 -1 3704 5.62500e-01 2.50000e+00 5.00000e-01
 -1 3705 5.00000e-01 2.50000e+00 4.37500e-01
 -1 3706 5.00000e-01 2.75000e+00 5.00000e-01
 -1 3707 5.00000e-01 2.50000e+00 6.25000e-01
 -1 3708 5.62500e-01 2.50000e+00 6.25000e-01
 -1 3709 5.00000e-01 2.50000e+00 5.62500e-01
 -1 3710 5.00000e-01 2.75000e+00 6.25000e-01
 -1 3711 5.00000e-01 2.50000e+00 7.50000e-01
 -1 3712 5.62500e-01 2.50000e+00 7.50000e-01
 -1 3713 5.00000e-01 2.50000e+00 6.87500e-01
 -1 3714 5.00000e-01 2.75000e+00 7.50000e-01
 -1 3715 5.00000e-01 2.50000e+00 8.75000e-01
 -1 3716 5.62500e-01 2.50000e+00 8.75000e-01
 -1 3717 5.00000e-01 2.50000e+00 8.12500e-01
 -1 3718 5.00000e-01 2.75000e+00 8.75000e-01
 -1 3719 5.00000e-01 2.50000e+00 1.00000e+00
 -1 3720 5.62500e-01 2.50000e+00 1.00000e+00
 -1 3721 5.00000e-01 2.50000e+00 9.37500e-01
 -1 3722 5.00000e-01 2.75000e+00 1.00000e+00
 -1 3723 5.00000e-01 2.50000e+00 1.12500e+00
 -1 3724 5.62500e-01 2.50000e+00 1.12500e+00
 -1 3725 5.00000e-01 2.50000e+00 1.06250e+00
 -1 3726 5.00000e-01 2.75000e+00 1.12500e+00
 -1 3727 5.00000e-01 2.50000e+00 1.25000e+00
 -1 3728 5.62500e-01 2.50000e+00 1.25000e+00
 -1 3729 5.00000e-01 2.50000e+00 1.18750e+00
 -1 3730 5.00000e-01 2.75000e+00 1.25000e+00
 -1 3731 5.00000e-01 2.50000e+00 1.37500e+00
 -1 3732 5.62500e-01 2.50000e+00 1.37500e+00
 -1 3733 5.00000e-01 2.50000e+00 1.31250e+00
 -1 3734 5.00000e-01 2.75000e+00 1.37500e+00
 -1 3735 5.00000e-01 2.50000e+00 1.50000e+00
 -1 3736 5.62500e-01 2.50000e+00 1.50000e+00
 -1 3737 5.00000e-01 2.50000e+00 1.43750e+00
 -1 3738 5.00000e-01 2.75000e+00 1.50000e+00
 -1 3739 5.00000e-01 2.50000e+00 1.62500e+00
 -1 3740 5.62500e-01 2.50000e+00 1.62500e+00
 -1 3741 5.00000e-01 2.50000e+00 1.56250e+00
 -1 3742 5.00000e-01 2.75000e+00 1.62500e+00
 -1 3743 5.00000e-01 2.50000e+00 1.75000e+00
 -1 3744 5.62500e-01 2.50000e+00 1.75000e+00
 -1 3745 5.00000e-01 2.50000e+00 1.68750e+00
 -1 3746 5.00000e-01 2.75000e+00 1.75000e+00
 -1 3747 5.00000e-01 2.50000e+00 1.87500e+00
 -1 3748 5.62500e-01 2.50000e+00 1.87500e+00
 -1 3749 5.00000e-01 2.50000e+00 1.81250e+00
 -1 3750 5.00000e-01 2.75000e+00 1.87500e+00
 -1 3751 5.00000e-01 2.50000e+00 2.00000e+00
 -1 3752 5.62500e-01 2.50000e+00 2.00000e+00
 -1 3753 5.00000e-01 2.50000e+00 1.93750e+00
 -1 3754 5.00000e-01 2.75000e+00 2.00000e+00
 -1 3755 5.00000e-01 2.50000e+00 2.12500e+00
 -1 3756 5.62500e-01 2.50000e+00 2.12500e+00
 -1 3757 5.00000e-01 2.50000e+00 2.06250e+00
 -1 3758 5.00000e-01 2.75000e+00 2.12500e+00
 -1 3759 5.00000e-01 2.50000e+00 2.25000e+00
 -1 3760 5.62500e-01 2.50000e+00 2.25000e+00
 -1 3761 5.00000e-01 2.50000e+00 2.18750e+00
 -1 3762 5.00000e-01 2.75000e+00 2.25000e+00
 -1 3763 5.00000e-01 2.50000e+00 2.37500e+00
 -1 3764 5.62500e-01 2.50000e+00 2.37500e+00
 -1 3765 5.00000e-01 2.50000e+00 2.31250e+00
 -1 3766 5.00000e-01 2.75000e+00 2.37500e+00
 -1 3767 5.00000e-01 2.50000e+00 2.50000e+00
 -1 3768 5.62500e-01 2.50000e+00 2.50000e+00
 -1 3769 5.00000e-01 2.50000e+00 2.43750e+00
 -1 3770 5.00000e-01 2.75000e+00 2.50000e+00
 -1 3771 5.00000e-01 2.50000e+00 2.62500e+00
 -1 3772 5.62500e-01 2.50000e+00 2.62500e+00
 -1 3773 5.00000e-01 2.50000e+00 2.56250e+00
 -1 3774 5.00000e-01 2.75000e+00 2.62500e+00
 -1 3775 5.00000e-01 2.50000e+00 2.75000e+00
 -1 3776 5.62500e-01 2.50000e+00 2.75000e+00
 -1 3777 5.00000e-01 2.50000e+00 2.68750e+00
 -1 3778 5.00000e-01 2.75000e+00 2.75000e+00
 -1 3779 5.00000e-01 2.50000e+00 2.87500e+00
 -1 3780 5.62500e-01 2.50000e+00 2.87500e+00
 -1 3781 5.00000e-01 2.50000e+00 2.81250e+00
 -1 3782 5.00000e-01 2.75000e+00 2.87500e+00
 -1 3783 5.00000e-01 2.50000e+00 3.00000e+00
 -1 3784 5.62500e-01 2.50000e+00 3.00000e+00
 -1 3785 5.00000e-01 2.50000e+00 2.93750e+00
 -1 3786 5.00000e-01 2.75000e+00 3.00000e+00
 -1 3787 5.00000e-01 2.50000e+00 3.12500e+00
 -1 3788 5.62500e-01 2.50000e+00 3.12500e+00
 -1 3789 5.00000e-01 2.50000e+00 3.06250e+00
 -1 3790 5.00000e-01 2.75000e+00 3.12500e+00
 -1 3791 5.00000e-01 2.50000e+00 3.25000e+00
 -1 3792 5.62500e-01 2.50000e+00 3.25000e+00
 -1 3793 5.00000e-01 2.50000e+00 3.18750e+00
 -1 3794 5.00000e-01 2.75000e+00 3.25000e+00
 -1 3795 5.00000e-01 2.50000e+00 3.37500e+00
 -1 3796 5.62500e-01 2.50000e+00 3.37500e+00
 -1 3797 5.00000e-01 2.50000e+00 3.31250e+00
 -1 3798 5.00000e-01 2.75000e+00 3.37500e+00
 -1 3799 5.00000e-01 2.50000e+00 3.50000e+00
 -1 3800 5.62500e-01 2.50000e+00 3.50000e+00
 -1 3801 5.00000e-01 2.50000e+00 3.43750e+00
 -1 3802 5.00000e-01 2.75000e+00 3.50000e+00
 -1 3803 5.00000e-01 2.50000e+00 3.62500e+00
 -1 3804 5.62500e-01 2.50000e+00 3.62500e+00
 -1 3805 5.00000e-01 2.50000e+00 3.56250e+00
 -1 3806 5.00000e-01 2.75000e+00 3.62500e+00
 -1 3807 5.00000e-01 2.50000e+00 3.75000e+00
 -1 3808 5.62500e-01 2.50000e+00 3.75000e+00
 -1 3809 5.00000e-01 2.50000e+00 3.68750e+00
 -1 3810 5.00000e-01 2.75000e+00 3.75000e+00
 -1 3811 5.00000e-01 2.50000e+00 3.87500e+00
 -1 3812 5.62500e-01 2.50000e+00 3.87500e+00
 -1 3813 5.00000e-01 2.50000e+00 3.81250e+00
 -1 3814 5.00000e-01 2.75000e+00 3.87500e+00
 -1 3815 5.00000e-01 2.50000e+00 4.00000e+00
 -1 3816 5.62500e-01 2.50000e+00 4.00000e+00
 -1 3817 5.00000e-01 2.50000e+00 3.93750e+00
 -1 3818 5.00000e-01 2.75000e+00 4.00000e+00
 -1 3819 3.75000e-01 2.50000e+00 0.00000e+00
 -1 3820 3.75000e-01 2.50000e+00 1.25000e-01
 -1 3821 4.37500e-01 2.50000e+00 4.44089e-16
 -1 3822 4.37500e-01 2.50000e+00 1.25000e-01
 -1 3823 3.75000e-01 2.75000e+00 0.00000e+00
 -1 3824 3.75000e-01 2.50000e+00 6.25000e-02
 -1 3825 3.75000e-01 2.75000e+00 1.25000e-01
 -1 3826 3.75000e-01 2.50000e+00 2.50000e-01
 -1 3827 4.37500e-01 2.50000e+00 2.50000e-01
 -1 3828 3.75000e-01 2.50000e+00 1.87500e-01
 -1 3829 3.75000e-01 2.75000e+00 2.50000e-01
 -1 3830 3.75000e-01 2.50000e+00 3.75000e-01
 -1 3831 4.37500e-01 2.50000e+00 3.75000e-01
 -1 3832 3.75000e-01 2.50000e+00 3.12500e-01
 -1 3833 3.75000e-01 2.75000e+00 3.75000e-01
 -1 3834 3.75000e-01 2.50000e+00 5.00000e-01
 -1 3835 4.37500e-01 2.50000e+00 5.00000e-01
 -1 3836 3.75000e-01 2.50000e+00 4.37500e-01
 -1 3837 3.75000e-01 2.75000e+00 5.00000e-01
 -1 3838 3.75000e-01 2.50000e+00 6.25000e-01
 -1 3839 4.37500e-01 2.50000e+00 6.25000e-01
 -1 3840 3.75000e-01 2.50000e+00 5.62500e-01
 -1 3841 3.75000e-01 2.75000e+00 6.25000e-01
 -1 3842 3.75000e-01 2.50000e+00 7.50000e-01
 -1 3843 4.37500e-01 2.50000e+00 7.50000e-01
 -1 3844 3.75000e-01 2.50000e+00 6.87500e-01
 -1 3845 3.75000e-01 2.75000e+00 7.50000e-01
 -1 3846 3.75000e-01 2.50000e+00 8.75000e-01
 -1 3847 4.37500e-01 2.50000e+00 8.75000e-01
 -1 3848 3.75000e-01 2.50000e+00 8.12500e-01
 -1 3849 3.75000e-01 2.75000e+00 8.75000e-01
 -1 3850 3.75000e-01 2.50000e+00 1.00000e+00
 -1 3851 4.37500e-01 2.50000e+00 1.00000e+00
 -1 3852 3.75000e-01 2.50000e+00 9.37500e-01
 -1 3853 3.75000e-01 2.75000e+00 1.00000e+00
 -1 3854 3.75000e-01 2.50000e+00 1.12500e+00
 -1 3855 4.37500e-01 2.50000e+00 1.12500e+00
 -1 3856 3.75000e-01 2.50000e+00 1.06250e+00
 -1 3857 3.75000e-01 2.75000e+00 1.12500e+00
 -1 3858 3.75000e-01 2.50000e+00 1.25000e+00
 -1 3859 4.37500e-01 2.50000e+00 1.25000e+00
 -1 3860 3.75000e-01 2.50000e+00 1.18750e+00
 -1 3861 3.75000e-01 2.75000e+00 1.25000e+00
 -1 3862 3.75000e-01 2.50000e+00 1.37500e+00
 -1 3863 4.37500e-01 2.50000e+00 1.37500e+00
 -1 3864 3.75000e-01 2.50000e+00 1.31250e+00
 -1 3865 3.75000e-01 2.75000e+00 1.37500e+00
 -1 3866 3.75000e-01 2.50000e+00 1.50000e+00
 -1 3867 4.37500e-01 2.50000e+00 1.50000e+00
 -1 3868 3.75000e-01 2.50000e+00 1.43750e+00
 -1 3869 3.75000e-01 2.75000e+00 1.50000e+00
 -1 3870 3.75000e-01 2.50000e+00 1.62500e+00
 -1 3871 4.37500e-01 2.50000e+00 1.62500e+00
 -1 3872 3.75000e-01 2.50000e+00 1.56250e+00
 -1 3873 3.75000e-01 2.75000e+00 1.62500e+00
 -1 3874 3.75000e-01 2.50000e+00 1.75000e+00
 -1 3875 4.37500e-01 2.50000e+00 1.75000e+00
 -1 3876 3.75000e-01 2.50000e+00 1.68750e+00
 -1 3877 3.75000e-01 2.75000e+00 1.75000e+00
 -1 3878 3.75000e-01 2.50000e+00 1.87500e+00
 -1 3879 4.37500e-01 2.50000e+00 1.87500e+00
 -1 3880 3.75000e-01 2.50000e+00 1.81250e+00
 -1 3881 3.75000e-01 2.75000e+00 1.87500e+00
 -1 3882 3.75000e-01 2.50000e+00 2.00000e+00
 -1 3883 4.37500e-01 2.50000e+00 2.00000e+00
 -1 3884 3.75000e-01 2.50000e+00 1.93750e+00
 -1 3885 3.75000e-01 2.75000e+00 2.00000e+00
 -1 3886 3.75000e-01 2.50000e+00 2.12500e+00
 -1 3887 4.37500e-01 2.50000e+00 2.12500e+00
 -1 3888 3.75000e-01 2.50000e+00 2.06250e+00
 -1 3889 3.75000e-01 2.75000e+00 2.12500e+00
 -1 3890 3.75000e-01 2.50000e+00 2.25000e+00
 -1 3891 4.37500e-01 2.50000e+00 2.25000e+00
 -1 3892 3.75000e-01 2.50000e+00 2.18750e+00
 -1 3893 3.75000e-01 2.75000e+00 2.25000e+00
 -1 3894 3.75000e-01 2.50000e+00 2.37500e+00
 -1 3895 4.37500e-01 2.50000e+00 2.37500e+00
 -1 3896 3.75000e-01 2.50000e+00 2.31250e+00
 -1 3897 3.75000e-01 2.75000e+00 2.37500e+00
 -1 3898 3.75000e-01 2.50000e+00 2.50000e+00
 -1 3899 4.37500e-01 2.50000e+00 2.50000e+00
 -1 3900 3.75000e-01 2.50000e+00 2.43750e+00
 -1 3901 3.75000e-01 2.75000e+00 2.50000e+00
 -1 3902 3.75000e-01 2.50000e+00 2.62500e+00
 -1 3903 4.37500e-01 2.50000e+00 2.62500e+00
 -1 3904 3.75000e-01 2.50000e+00 2.56250e+00
 -1 3905 3.75000e-01 2.75000e+00 2.62500e+00
 -1 3906 3.75000e-01 2.50000e+00 2.75000e+00
 -1 3907 4.37500e-01 2.50000e+00 2.75000e+00
 -1 3908 3.75000e-01 2.50000e+00 2.68750e+00
 -1 3909 3.75000e-01 2.75000e+00 2.75000e+00
 -1 3910 3.75000e-01 2.50000e+00 2.87500e+00
 -1 3911 4.37500e-01 2.50000e+00 2.87500e+00
 -1 3912 3.75000e-01 2.50000e+00 2.81250e+00
 -1 3913 3.75000e-01 2.75000e+00 2.87500e+00
 -1 3914 3.75000e-01 2.50000e+00 3.00000e+00
 -1 3915 4.37500e-01 2.50000e+00 3.00000e+00
 -1 3916 3.75000e-01 2.50000e+00 2.93750e+00
 -1 3917 3.75000e-01 2.75000e+00 3.00000e+00
 -1 3918 3.75000e-01 2.50000e+00 3.12500e+00
 -1 3919 4.37500e-01 2.50000e+00 3.12500e+00
 -1 3920 3.75000e-01 2.50000e+00 3.06250e+00
 -1 3921 3.75000e-01 2.75000e+00 3.12500e+00
 -1 3922 3.75000e-01 2.50000e+00 3.25000e+00
 -1 3923 4.37500e-01 2.50000e+00 3.25000e+00
 -1 3924 3.75000e-01 2.50000e+00 3.18750e+00
 -1 3925 3.75000e-01 2.75000e+00 3.25000e+00
 -1 3926 3.75000e-01 2.50000e+00 3.37500e+00
 -1 3927 4.37500e-01 2.50000e+00 3.37500e+00
 -1 3928 3.75000e-01 2.50000e+00 3.31250e+00
 -1 3929 3.75000e-01 2.75000e+00 3.37500e+00
 -1 3930 3.75000e-01 2.50000e+00 3.50000e+00
 -1 3931 4.37500e-01 2.50000e+00 3.50000e+00
 -1 3932 3.75000e-01 2.50000e+00 3.43750e+00
 -1 3933 3.75000e-01 2.75000e+00 3.50000e+00
 -1 3934 3.75000e-01 2.50000e+00 3.62500e+00
 -1 3935 4.37500e-01 2.50000e+00 3.62500e+00
 -1 3936 3.75000e-01 2.50000e+00 3.56250e+00
 -1 3937 3.75000e-01 2.75000e+00 3.62500e+00
 -1 3938 3.75000e-01 2.50000e+00 3.75000e+00
 -1 3939 4.37500e-01 2.50000e+00 3.75000e+00
 -1 3940 3.75000e-01 2.50000e+00 3.68750e+00
 -1 3941 3.75000e-01 2.75000e+00 3.75000e+00
 -1 3942 3.75000e-01 2.50000e+00 3.87500e+00
 -1 3943 4.37500e-01 2.50000e+00 3.87500e+00
 -1 3944 3.75000e-01 2.50000e+00 3.81250e+00
 -1 3945 3.75000e-01 2.75000e+00 3.87500e+00
 -1 3946 3.75000e-01 2.50000e+00 4.00000e+00
 -1 3947 4.37500e-01 2.50000e+00 4.00000e+00
 -1 3948 3.75000e-01 2.50000e+00 3.93750e+00
 -1 3949 3.75000e-01 2.75000e+00 4.00000e+00
 -1 3950 2.50000e-01 2.50000e+00-2.22045e-16
 -1 3951 2.50000e-01 2.50000e+00 1.25000e-01
 -1 3952 3.12500e-01 2.50000e+00 0.00000e+00
 -1 3953 3.12500e-01 2.50000e+00 1.25000e-01
 -1 3954 2.50000e-01 2.75000e+00 0.00000e+00
 -1 3955 2.50000e-01 2.50000e+00 6.25000e-02
 -1 3956 2.50000e-01 2.75000e+00 1.25000e-01
 -1 3957 2.50000e-01 2.50000e+00 2.50000e-01
 -1 3958 3.12500e-01 2.50000e+00 2.50000e-01
 -1 3959 2.50000e-01 2.50000e+00 1.87500e-01
 -1 3960 2.50000e-01 2.75000e+00 2.50000e-01
 -1 3961 2.50000e-01 2.50000e+00 3.75000e-01
 -1 3962 3.12500e-01 2.50000e+00 3.75000e-01
 -1 3963 2.50000e-01 2.50000e+00 3.12500e-01
 -1 3964 2.50000e-01 2.75000e+00 3.75000e-01
 -1 3965 2.50000e-01 2.50000e+00 5.00000e-01
 -1 3966 3.12500e-01 2.50000e+00 5.00000e-01
 -1 3967 2.50000e-01 2.50000e+00 4.37500e-01
 -1 3968 2.50000e-01 2.75000e+00 5.00000e-01
 -1 3969 2.50000e-01 2.50000e+00 6.25000e-01
 -1 3970 3.12500e-01 2.50000e+00 6.25000e-01
 -1 3971 2.50000e-01 2.50000e+00 5.62500e-01
 -1 3972 2.50000e-01 2.75000e+00 6.25000e-01
 -1 3973 2.50000e-01 2.50000e+00 7.50000e-01
 -1 3974 3.12500e-01 2.50000e+00 7.50000e-01
 -1 3975 2.50000e-01 2.50000e+00 6.87500e-01
 -1 3976 2.50000e-01 2.75000e+00 7.50000e-01
 -1 3977 2.50000e-01 2.50000e+00 8.75000e-01
 -1 3978 3.12500e-01 2.50000e+00 8.75000e-01
 -1 3979 2.50000e-01 2.50000e+00 8.12500e-01
 -1 3980 2.50000e-01 2.75000e+00 8.75000e-01
 -1 3981 2.50000e-01 2.50000e+00 1.00000e+00
 -1 3982 3.12500e-01 2.50000e+00 1.00000e+00
 -1 3983 2.50000e-01 2.50000e+00 9.37500e-01
 -1 3984 2.50000e-01 2.75000e+00 1.00000e+00
 -1 3985 2.50000e-01 2.50000e+00 1.12500e+00
 -1 3986 3.12500e-01 2.50000e+00 1.12500e+00
 -1 3987 2.50000e-01 2.50000e+00 1.06250e+00
 -1 3988 2.50000e-01 2.75000e+00 1.12500e+00
 -1 3989 2.50000e-01 2.50000e+00 1.25000e+00
 -1 3990 3.12500e-01 2.50000e+00 1.25000e+00
 -1 3991 2.50000e-01 2.50000e+00 1.18750e+00
 -1 3992 2.50000e-01 2.75000e+00 1.25000e+00
 -1 3993 2.50000e-01 2.50000e+00 1.37500e+00
 -1 3994 3.12500e-01 2.50000e+00 1.37500e+00
 -1 3995 2.50000e-01 2.50000e+00 1.31250e+00
 -1 3996 2.50000e-01 2.75000e+00 1.37500e+00
 -1 3997 2.50000e-01 2.50000e+00 1.50000e+00
 -1 3998 3.12500e-01 2.50000e+00 1.50000e+00
 -1 3999 2.50000e-01 2.50000e+00 1.43750e+00
 -1 4000 2.50000e-01 2.75000e+00 1.50000e+00
 -1 4001 2.50000e-01 2.50000e+00 1.62500e+00
 -1 4002 3.12500e-01 2.50000e+00 1.62500e+00
 -1 4003 2.50000e-01 2.50000e+00 1.56250e+00
 -1 4004 2.50000e-01 2.75000e+00 1.62500e+00
 -1 4005 2.50000e-01 2.50000e+00 1.75000e+00
 -1 4006 3.12500e-01 2.50000e+00 1.75000e+00
 -1 4007 2.50000e-01 2.50000e+00 1.68750e+00
 -1 4008 2.50000e-01 2.75000e+00 1.75000e+00
 -1 4009 2.50000e-01 2.50000e+00 1.87500e+00
 -1 4010 3.12500e-01 2.50000e+00 1.87500e+00
 -1 4011 2.50000e-01 2.50000e+00 1.81250e+00
 -1 4012 2.50000e-01 2.75000e+00 1.87500e+00
 -1 4013 2.50000e-01 2.50000e+00 2.00000e+00
 -1 4014 3.12500e-01 2.50000e+00 2.00000e+00
 -1 4015 2.50000e-01 2.50000e+00 1.93750e+00
 -1 4016 2.50000e-01 2.75000e+00 2.00000e+00
 -1 4017 2.50000e-01 2.50000e+00 2.12500e+00
 -1 4018 3.12500e-01 2.50000e+00 2.12500e+00
 -1 4019 2.50000e-01 2.50000e+00 2.06250e+00
 -1 4020 2.50000e-01 2.75000e+00 2.12500e+00
 -1 4021 2.50000e-01 2.50000e+00 2.25000e+00
 -1 4022 3.12500e-01 2.50000e+00 2.25000e+00
 -1 4023 2.50000e-01 2.50000e+00 2.18750e+00
 -1 4024 2.50000e-01 2.75000e+00 2.25000e+00
 -1 4025 2.50000e-01 2.50000e+00 2.37500e+00
 -1 4026 3.12500e-01 2.50000e+00 2.37500e+00
 -1 4027 2.50000e-01 2.50000e+00 2.31250e+00
 -1 4028 2.50000e-01 2.75000e+00 2.37500e+00
 -1 4029 2.50000e-01 2.50000e+00 2.50000e+00
 -1 4030 3.12500e-01 2.50000e+00 2.50000e+00
 -1 4031 2.50000e-01 2.50000e+00 2.43750e+00
 -1 4032 2.50000e-01 2.75000e+00 2.50000e+00
 -1 4033 2.50000e-01 2.50000e+00 2.62500e+00
 -1 4034 3.12500e-01 2.50000e+00 2.62500e+00
 -1 4035 2.50000e-01 2.50000e+00 2.56250e+00
 -1 4036 2.50000e-01 2.75000e+00 2.62500e+00
 -1 4037 2.50000e-01 2.50000e+00 2.75000e+00
 -1 4038 3.12500e-01 2.50000e+00 2.75000e+00
 -1 4039 2.50000e-01 2.50000e+00 2.68750e+00
 -1 4040 2.50000e-01 2.75000e+00 2.75000e+00
 -1 4041 2.50000e-01 2.50000e+00 2.87500e+00
 -1 4042 3.12500e-01 2.50000e+00 2.87500e+00
 -1 4043 2.50000e-01 2.50000e+00 2.81250e+00
 -1 4044 2.50000e-01 2.75000e+00 2.87500e+00
 -1 4045 2.50000e-01 2.50000e+00 3.00000e+00
 -1 4046 3.12500e-01 2.50000e+00 3.00000e+00
 -1 4047 2.50000e-01 2.50000e+00 2.93750e+00
 -1 4048 2.50000e-01 2.75000e+00 3.00000e+00
 -1 4049 2.50000e-01 2.50000e+00 3.12500e+00
 -1 4050 3.12500e-01 2.50000e+00 3.12500e+00
 -1 4051 2.50000e-01 2.50000e+00 3.06250e+00
 -1 4052 2.50000e-01 2.75000e+00 3.12500e+00
 -1 4053 2.50000e-01 2.50000e+00 3.25000e+00
 -1 4054 3.12500e-01 2.50000e+00 3.25000e+00
 -1 4055 2.50000e-01 2.50000e+00 3.18750e+00
 -1 4056 2.50000e-01 2.75000e+00 3.25000e+00
 -1 4057 2.50000e-01 2.50000e+00 3.37500e+00
 -1 4058 3.12500e-01 2.50000e+00 3.37500e+00
 -1 4059 2.50000e-01 2.50000e+00 3.31250e+00
 -1 4060 2.50000e-01 2.75000e+00 3.37500e+00
 -1 4061 2.50000e-01 2.50000e+00 3.50000e+00
 -1 4062 3.12500e-01 2.50000e+00 3.50000e+00
 -1 4063 2.50000e-01 2.50000e+00 3.43750e+00
 -1 4064 2.50000e-01 2.75000e+00 3.50000e+00
 -1 4065 2.50000e-01 2.50000e+00 3.62500e+00
 -1 4066 3.12500e-01 2.50000e+00 3.62500e+00
 -1 4067 2.50000e-01 2.50000e+00 3.56250e+00
 -1 4068 2.50000e-01 2.75000e+00 3.62500e+00
 -1 4069 2.50000e-01 2.50000e+00 3.75000e+00
 -1 4070 3.12500e-01 2.50000e+00 3.75000e+00
 -1 4071 2.50000e-01 2.50000e+00 3.68750e+00
 -1 4072 2.50000e-01 2.75000e+00 3.75000e+00
 -1 4073 2.50000e-01 2.50000e+00 3.87500e+00
 -1 4074 3.12500e-01 2.50000e+00 3.87500e+00
 -1 4075 2.50000e-01 2.50000e+00 3.81250e+00
 -1 4076 2.50000e-01 2.75000e+00 3.87500e+00
 -1 4077 2.50000e-01 2.50000e+00 4.00000e+00
 -1 4078 3.12500e-01 2.50000e+00 4.00000e+00
 -1 4079 2.50000e-01 2.50000e+00 3.93750e+00
 -1 4080 2.50000e-01 2.75000e+00 4.00000e+00
 -1 4081 1.25000e-01 2.50000e+00 0.00000e+00
 -1 4082 1.25000e-01 2.50000e+00 1.25000e-01
 -1 4083 1.87500e-01 2.50000e+00 4.44089e-16
 -1 4084 1.87500e-01 2.50000e+00 1.25000e-01
 -1 4085 1.25000e-01 2.75000e+00 0.00000e+00
 -1 4086 1.25000e-01 2.50000e+00 6.25000e-02
 -1 4087 1.25000e-01 2.75000e+00 1.25000e-01
 -1 4088 1.25000e-01 2.50000e+00 2.50000e-01
 -1 4089 1.87500e-01 2.50000e+00 2.50000e-01
 -1 4090 1.25000e-01 2.50000e+00 1.87500e-01
 -1 4091 1.25000e-01 2.75000e+00 2.50000e-01
 -1 4092 1.25000e-01 2.50000e+00 3.75000e-01
 -1 4093 1.87500e-01 2.50000e+00 3.75000e-01
 -1 4094 1.25000e-01 2.50000e+00 3.12500e-01
 -1 4095 1.25000e-01 2.75000e+00 3.75000e-01
 -1 4096 1.25000e-01 2.50000e+00 5.00000e-01
 -1 4097 1.87500e-01 2.50000e+00 5.00000e-01
 -1 4098 1.25000e-01 2.50000e+00 4.37500e-01
 -1 4099 1.25000e-01 2.75000e+00 5.00000e-01
 -1 4100 1.25000e-01 2.50000e+00 6.25000e-01
 -1 4101 1.87500e-01 2.50000e+00 6.25000e-01
 -1 4102 1.25000e-01 2.50000e+00 5.62500e-01
 -1 4103 1.25000e-01 2.75000e+00 6.25000e-01
 -1 4104 1.25000e-01 2.50000e+00 7.50000e-01
 -1 4105 1.87500e-01 2.50000e+00 7.50000e-01
 -1 4106 1.25000e-01 2.50000e+00 6.87500e-01
 -1 4107 1.25000e-01 2.75000e+00 7.50000e-01
 -1 4108 1.25000e-01 2.50000e+00 8.75000e-01
 -1 4109 1.87500e-01 2.50000e+00 8.75000e-01
 -1 4110 1.25000e-01 2.50000e+00 8.12500e-01
 -1 4111 1.25000e-01 2.75000e+00 8.75000e-01
 -1 4112 1.25000e-01 2.50000e+00 1.00000e+00
 -1 4113 1.87500e-01 2.50000e+00 1.00000e+00
 -1 4114 1.25000e-01 2.50000e+00 9.37500e-01
 -1 4115 1.25000e-01 2.75000e+00 1.00000e+00
 -1 4116 1.25000e-01 2.50000e+00 1.12500e+00
 -1 4117 1.87500e-01 2.50000e+00 1.12500e+00
 -1 4118 1.25000e-01 2.50000e+00 1.06250e+00
 -1 4119 1.25000e-01 2.75000e+00 1.12500e+00
 -1 4120 1.25000e-01 2.50000e+00 1.25000e+00
 -1 4121 1.87500e-01 2.50000e+00 1.25000e+00
 -1 4122 1.25000e-01 2.50000e+00 1.18750e+00
 -1 4123 1.25000e-01 2.75000e+00 1.25000e+00
 -1 4124 1.25000e-01 2.50000e+00 1.37500e+00
 -1 4125 1.87500e-01 2.50000e+00 1.37500e+00
 -1 4126 1.25000e-01 2.50000e+00 1.31250e+00
 -1 4127 1.25000e-01 2.75000e+00 1.37500e+00
 -1 4128 1.25000e-01 2.50000e+00 1.50000e+00
 -1 4129 1.87500e-01 2.50000e+00 1.50000e+00
 -1 4130 1.25000e-01 2.50000e+00 1.43750e+00
 -1 4131 1.25000e-01 2.75000e+00 1.50000e+00
 -1 4132 1.25000e-01 2.50000e+00 1.62500e+00
 -1 4133 1.87500e-01 2.50000e+00 1.62500e+00
 -1 4134 1.25000e-01 2.50000e+00 1.56250e+00
 -1 4135 1.25000e-01 2.75000e+00 1.62500e+00
 -1 4136 1.25000e-01 2.50000e+00 1.75000e+00
 -1 4137 1.87500e-01 2.50000e+00 1.75000e+00
 -1 4138 1.25000e-01 2.50000e+00 1.68750e+00
 -1 4139 1.25000e-01 2.75000e+00 1.75000e+00
 -1 4140 1.25000e-01 2.50000e+00 1.87500e+00
 -1 4141 1.87500e-01 2.50000e+00 1.87500e+00
 -1 4142 1.25000e-01 2.50000e+00 1.81250e+00
 -1 4143 1.25000e-01 2.75000e+00 1.87500e+00
 -1 4144 1.25000e-01 2.50000e+00 2.00000e+00
 -1 4145 1.87500e-01 2.50000e+00 2.00000e+00
 -1 4146 1.25000e-01 2.50000e+00 1.93750e+00
 -1 4147 1.25000e-01 2.75000e+00 2.00000e+00
 -1 4148 1.25000e-01 2.50000e+00 2.12500e+00
 -1 4149 1.87500e-01 2.50000e+00 2.12500e+00
 -1 4150 1.25000e-01 2.50000e+00 2.06250e+00
 -1 4151 1.25000e-01 2.75000e+00 2.12500e+00
 -1 4152 1.25000e-01 2.50000e+00 2.25000e+00
 -1 4153 1.87500e-01 2.50000e+00 2.25000e+00
 -1 4154 1.25000e-01 2.50000e+00 2.18750e+00
 -1 4155 1.25000e-01 2.75000e+00 2.25000e+00
 -1 4156 1.25000e-01 2.50000e+00 2.37500e+00
 -1 4157 1.87500e-01 2.50000e+00 2.37500e+00
 -1 4158 1.25000e-01 2.50000e+00 2.31250e+00
 -1 4159 1.25000e-01 2.75000e+00 2.37500e+00
 -1 4160 1.25000e-01 2.50000e+00 2.50000e+00
 -1 4161 1.87500e-01 2.50000e+00 2.50000e+00
 -1 4162 1.25000e-01 2.50000e+00 2.43750e+00
 -1 4163 1.25000e-01 2.75000e+00 2.50000e+00
 -1 4164 1.25000e-01 2.50000e+00 2.62500e+00
 -1 4165 1.87500e-01 2.50000e+00 2.62500e+00
 -1 4166 1.25000e-01 2.50000e+00 2.56250e+00
 -1 4167 1.25000e-01 2.75000e+00 2.62500e+00
 -1 4168 1.25000e-01 2.50000e+00 2.75000e+00
 -1 4169 1.87500e-01 2.50000e+00 2.75000e+00
 -1 4170 1.25000e-01 2.50000e+00 2.68750e+00
 -1 4171 1.25000e-01 2.75000e+00 2.75000e+00
 -1 4172 1.25000e-01 2.50000e+00 2.87500e+00
 -1 4173 1.87500e-01 2.50000e+00 2.87500e+00
 -1 4174 1.25000e-01 2.50000e+00 2.81250e+00
 -1 4175 1.25000e-01 2.75000e+00 2.87500e+00
 -1 4176 1.25000e-01 2.50000e+00 3.00000e+00
 -1 4177 1.87500e-01 2.50000e+00 3.00000e+00
 -1 4178 1.25000e-01 2.50000e+00 2.93750e+00
 -1 4179 1.25000e-01 2.75000e+00 3.00000e+00
 -1 4180 1.25000e-01 2.50000e+00 3.12500e+00
 -1 4181 1.87500e-01 2.50000e+00 3.12500e+00
 -1 4182 1.25000e-01 2.50000e+00 3.06250e+00
 -1 4183 1.25000e-01 2.75000e+00 3.12500e+00
 -1 4184 1.25000e-01 2.50000e+00 3.25000e+00
 -1 4185 1.87500e-01 2.50000e+00 3.25000e+00
 -1 4186 1.25000e-01 2.50000e+00 3.18750e+00
 -1 4187 1.25000e-01 2.75000e+00 3.25000e+00
 -1 4188 1.25000e-01 2.50000e+00 3.37500e+00
 -1 4189 1.87500e-01 2.50000e+00 3.37500e+00
 -1 4190 1.25000e-01 2.50000e+00 3.31250e+00
 -1 4191 1.25000e-01 2.75000e+00 3.37500e+00
 -1 4192 1.25000e-01 2.50000e+00 3.50000e+00
 -1 4193 1.87500e-01 2.50000e+00 3.50000e+00
 -1 4194 1.25000e-01 2.50000e+00 3.43750e+00
 -1 4195 1.25000e-01 2.75000e+00 3.50000e+00
 -1 4196 1.25000e-01 2.50000e+00 3.62500e+00
 -1 4197 1.87500e-01 2.50000e+00 3.62500e+00
 -1 4198 1.25000e-01 2.50000e+00 3.56250e+00
 -1 4199 1.25000e-01 2.75000e+00 3.62500e+00
 -1 4200 1.25000e-01 2.50000e+00 3.75000e+00
 -1 4201 1.87500e-01 2.50000e+00 3.75000e+00
 -1 4202 1.25000e-01 2.50000e+00 3.68750e+00
 -1 4203 1.25000e-01 2.75000e+00 3.75000e+00
 -1 4204 1.25000e-01 2.50000e+00 3.87500e+00
 -1 4205 1.87500e-01 2.50000e+00 3.87500e+00
 -1 4206 1.25000e-01 2.50000e+00 3.81250e+00
 -1 4207 1.25000e-01 2.75000e+00 3.87500e+00
 -1 4208 1.25000e-01 2.50000e+00 4.00000e+00
 -1 4209 1.87500e-01 2.50000e+00 4.00000e+00
 -1 4210 1.25000e-01 2.50000e+00 3.93750e+00
 -1 4211 1.25000e-01 2.75000e+00 4.00000e+00
 -1 4212 0.00000e+00 2.50000e+00 0.00000e+00
 -1 4213 0.00000e+00 2.50000e+00 1.25000e-01
 -1 4214 6.25000e-02 2.50000e+00 0.00000e+00
 -1 4215 6.25000e-02 2.50000e+00 1.25000e-01
 -1 4216 0.00000e+00 2.75000e+00 0.00000e+00
 -1 4217 0.00000e+00 2.50000e+00 6.25000e-02
 -1 4218-1.11022e-16 2.75000e+00 1.25000e-01
 -1 4219 0.00000e+00 2.50000e+00 2.50000e-01
 -1 4220 6.25000e-02 2.50000e+00 2.50000e-01
 -1 4221 0.00000e+00 2.50000e+00 1.87500e-01
 -1 4222 0.00000e+00 2.75000e+00 2.50000e-01
 -1 4223 0.00000e+00 2.50000e+00 3.75000e-01
 -1 4224 6.25000e-02 2.50000e+00 3.75000e-01
 -1 4225 0.00000e+00 2.50000e+00 3.12500e-01
 -1 4226 0.00000e+00 2.75000e+00 3.75000e-01
 -1 4227 0.00000e+00 2.50000e+00 5.00000e-01
 -1 4228 6.25000e-02 2.50000e+00 5.00000e-01
 -1 4229 0.00000e+00 2.50000e+00 4.37500e-01
 -1 4230 0.00000e+00 2.75000e+00 5.00000e-01
 -1 4231 0.00000e+00 2.50000e+00 6.25000e-01
 -1 4232 6.25000e-02 2.50000e+00 6.25000e-01
 -1 4233 0.00000e+00 2.50000e+00 5.62500e-01
 -1 4234 0.00000e+00 2.75000e+00 6.25000e-01
 -1 4235 0.00000e+00 2.50000e+00 7.50000e-01
 -1 4236 6.25000e-02 2.50000e+00 7.50000e-01
 -1 4237 0.00000e+00 2.50000e+00 6.87500e-01
 -1 4238-1.11022e-16 2.75000e+00 7.50000e-01
 -1 4239 0.00000e+00 2.50000e+00 8.75000e-01
 -1 4240 6.25000e-02 2.50000e+00 8.75000e-01
 -1 4241 0.00000e+00 2.50000e+00 8.12500e-01
 -1 4242 0.00000e+00 2.75000e+00 8.75000e-01
 -1 4243 0.00000e+00 2.50000e+00 1.00000e+00
 -1 4244 6.25000e-02 2.50000e+00 1.00000e+00
 -1 4245 0.00000e+00 2.50000e+00 9.37500e-01
 -1 4246 0.00000e+00 2.75000e+00 1.00000e+00
 -1 4247-1.11022e-16 2.50000e+00 1.12500e+00
 -1 4248 6.25000e-02 2.50000e+00 1.12500e+00
 -1 4249-1.11022e-16 2.50000e+00 1.06250e+00
 -1 4250-1.11022e-16 2.75000e+00 1.12500e+00
 -1 4251 0.00000e+00 2.50000e+00 1.25000e+00
 -1 4252 6.25000e-02 2.50000e+00 1.25000e+00
 -1 4253 0.00000e+00 2.50000e+00 1.18750e+00
 -1 4254 0.00000e+00 2.75000e+00 1.25000e+00
 -1 4255-1.11022e-16 2.50000e+00 1.37500e+00
 -1 4256 6.25000e-02 2.50000e+00 1.37500e+00
 -1 4257 1.11022e-16 2.50000e+00 1.31250e+00
 -1 4258-1.11022e-16 2.75000e+00 1.37500e+00
 -1 4259 0.00000e+00 2.50000e+00 1.50000e+00
 -1 4260 6.25000e-02 2.50000e+00 1.50000e+00
 -1 4261 0.00000e+00 2.50000e+00 1.43750e+00
 -1 4262 0.00000e+00 2.75000e+00 1.50000e+00
 -1 4263 0.00000e+00 2.50000e+00 1.62500e+00
 -1 4264 6.25000e-02 2.50000e+00 1.62500e+00
 -1 4265 0.00000e+00 2.50000e+00 1.56250e+00
 -1 4266 0.00000e+00 2.75000e+00 1.62500e+00
 -1 4267 0.00000e+00 2.50000e+00 1.75000e+00
 -1 4268 6.25000e-02 2.50000e+00 1.75000e+00
 -1 4269-1.11022e-16 2.50000e+00 1.68750e+00
 -1 4270 0.00000e+00 2.75000e+00 1.75000e+00
 -1 4271 0.00000e+00 2.50000e+00 1.87500e+00
 -1 4272 6.25000e-02 2.50000e+00 1.87500e+00
 -1 4273 0.00000e+00 2.50000e+00 1.81250e+00
 -1 4274 0.00000e+00 2.75000e+00 1.87500e+00
 -1 4275-1.11022e-16 2.50000e+00 2.00000e+00
 -1 4276 6.25000e-02 2.50000e+00 2.00000e+00
 -1 4277 0.00000e+00 2.50000e+00 1.93750e+00
 -1 4278-1.11022e-16 2.75000e+00 2.00000e+00
 -1 4279 0.00000e+00 2.50000e+00 2.12500e+00
 -1 4280 6.25000e-02 2.50000e+00 2.12500e+00
 -1 4281 0.00000e+00 2.50000e+00 2.06250e+00
 -1 4282 0.00000e+00 2.75000e+00 2.12500e+00
 -1 4283 0.00000e+00 2.50000e+00 2.25000e+00
 -1 4284 6.25000e-02 2.50000e+00 2.25000e+00
 -1 4285 0.00000e+00 2.50000e+00 2.18750e+00
 -1 4286 0.00000e+00 2.75000e+00 2.25000e+00
 -1 4287 0.00000e+00 2.50000e+00 2.37500e+00
 -1 4288 6.25000e-02 2.50000e+00 2.37500e+00
 -1 4289-1.11022e-16 2.50000e+00 2.31250e+00
 -1 4290 0.00000e+00 2.75000e+00 2.37500e+00
 -1 4291 0.00000e+00 2.50000e+00 2.50000e+00
 -1 4292 6.25000e-02 2.50000e+00 2.50000e+00
 -1 4293 0.00000e+00 2.50000e+00 2.43750e+00
 -1 4294 0.00000e+00 2.75000e+00 2.50000e+00
 -1 4295-1.11022e-16 2.50000e+00 2.62500e+00
 -1 4296 6.25000e-02 2.50000e+00 2.62500e+00
 -1 4297 0.00000e+00 2.50000e+00 2.56250e+00
 -1 4298-1.11022e-16 2.75000e+00 2.62500e+00
 -1 4299 0.00000e+00 2.50000e+00 2.75000e+00
 -1 4300 6.25000e-02 2.50000e+00 2.75000e+00
 -1 4301 0.00000e+00 2.50000e+00 2.68750e+00
 -1 4302 0.00000e+00 2.75000e+00 2.75000e+00
 -1 4303 0.00000e+00 2.50000e+00 2.87500e+00
 -1 4304 6.25000e-02 2.50000e+00 2.87500e+00
 -1 4305 0.00000e+00 2.50000e+00 2.81250e+00
 -1 4306 0.00000e+00 2.75000e+00 2.87500e+00
 -1 4307 0.00000e+00 2.50000e+00 3.00000e+00
 -1 4308 6.25000e-02 2.50000e+00 3.00000e+00
 -1 4309-1.11022e-16 2.50000e+00 2.93750e+00
 -1 4310 0.00000e+00 2.75000e+00 3.00000e+00
 -1 4311 0.00000e+00 2.50000e+00 3.12500e+00
 -1 4312 6.25000e-02 2.50000e+00 3.12500e+00
 -1 4313 0.00000e+00 2.50000e+00 3.06250e+00
 -1 4314 0.00000e+00 2.75000e+00 3.12500e+00
 -1 4315-1.11022e-16 2.50000e+00 3.25000e+00
 -1 4316 6.25000e-02 2.50000e+00 3.25000e+00
 -1 4317 0.00000e+00 2.50000e+00 3.18750e+00
 -1 4318-3.33067e-16 2.75000e+00 3.25000e+00
 -1 4319 0.00000e+00 2.50000e+00 3.37500e+00
 -1 4320 6.25000e-02 2.50000e+00 3.37500e+00
 -1 4321 0.00000e+00 2.50000e+00 3.31250e+00
 -1 4322 0.00000e+00 2.75000e+00 3.37500e+00
 -1 4323 0.00000e+00 2.50000e+00 3.50000e+00
 -1 4324 6.25000e-02 2.50000e+00 3.50000e+00
 -1 4325 0.00000e+00 2.50000e+00 3.43750e+00
 -1 4326 1.11022e-16 2.75000e+00 3.50000e+00
 -1 4327 0.00000e+00 2.50000e+00 3.62500e+00
 -1 4328 6.25000e-02 2.50000e+00 3.62500e+00
 -1 4329-1.11022e-16 2.50000e+00 3.56250e+00
 -1 4330 0.00000e+00 2.75000e+00 3.62500e+00
 -1 4331 0.00000e+00 2.50000e+00 3.75000e+00
 -1 4332 6.25000e-02 2.50000e+00 3.75000e+00
 -1 4333 0.00000e+00 2.50000e+00 3.68750e+00
 -1 4334 0.00000e+00 2.75000e+00 3.75000e+00
 -1 4335 0.00000e+00 2.50000e+00 3.87500e+00
 -1 4336 6.25000e-02 2.50000e+00 3.87500e+00
 -1 4337 0.00000e+00 2.50000e+00 3.81250e+00
 -1 4338-3.33067e-16 2.75000e+00 3.87500e+00
 -1 4339 0.00000e+00 2.50000e+00 4.00000e+00
 -1 4340 6.25000e-02 2.50000e+00 4.00000e+00
 -1 4341 0.00000e+00 2.50000e+00 3.93750e+00
 -1 4342 0.00000e+00 2.75000e+00 4.00000e+00
 -1 4343 1.00000e+00 2.00000e+00 0.00000e+00
 -1 4344 1.00000e+00 2.00000e+00 1.25000e-01
 -1 4345 8.75000e-01 2.00000e+00 4.44089e-16
 -1 4346 8.75000e-01 2.00000e+00 1.25000e-01
 -1 4347 1.00000e+00 2.25000e+00 0.00000e+00
 -1 4348 1.00000e+00 2.00000e+00 6.25000e-02
 -1 4349 1.00000e+00 2.25000e+00 1.25000e-01
 -1 4350 9.37500e-01 2.00000e+00-8.88178e-16
 -1 4351 9.37500e-01 2.00000e+00 1.25000e-01
 -1 4352 8.75000e-01 2.25000e+00-2.22045e-16
 -1 4353 8.75000e-01 2.00000e+00 6.25000e-02
 -1 4354 8.75000e-01 2.25000e+00 1.25000e-01
 -1 4355 1.00000e+00 2.00000e+00 2.50000e-01
 -1 4356 8.75000e-01 2.00000e+00 2.50000e-01
 -1 4357 1.00000e+00 2.00000e+00 1.87500e-01
 -1 4358 1.00000e+00 2.25000e+00 2.50000e-01
 -1 4359 9.37500e-01 2.00000e+00 2.50000e-01
 -1 4360 8.75000e-01 2.00000e+00 1.87500e-01
 -1 4361 8.75000e-01 2.25000e+00 2.50000e-01
 -1 4362 1.00000e+00 2.00000e+00 3.75000e-01
 -1 4363 8.75000e-01 2.00000e+00 3.75000e-01
 -1 4364 1.00000e+00 2.00000e+00 3.12500e-01
 -1 4365 1.00000e+00 2.25000e+00 3.75000e-01
 -1 4366 9.37500e-01 2.00000e+00 3.75000e-01
 -1 4367 8.75000e-01 2.00000e+00 3.12500e-01
 -1 4368 8.75000e-01 2.25000e+00 3.75000e-01
 -1 4369 1.00000e+00 2.00000e+00 5.00000e-01
 -1 4370 8.75000e-01 2.00000e+00 5.00000e-01
 -1 4371 1.00000e+00 2.00000e+00 4.37500e-01
 -1 4372 1.00000e+00 2.25000e+00 5.00000e-01
 -1 4373 9.37500e-01 2.00000e+00 5.00000e-01
 -1 4374 8.75000e-01 2.00000e+00 4.37500e-01
 -1 4375 8.75000e-01 2.25000e+00 5.00000e-01
 -1 4376 1.00000e+00 2.00000e+00 6.25000e-01
 -1 4377 8.75000e-01 2.00000e+00 6.25000e-01
 -1 4378 1.00000e+00 2.00000e+00 5.62500e-01
 -1 4379 1.00000e+00 2.25000e+00 6.25000e-01
 -1 4380 9.37500e-01 2.00000e+00 6.25000e-01
 -1 4381 8.75000e-01 2.00000e+00 5.62500e-01
 -1 4382 8.75000e-01 2.25000e+00 6.25000e-01
 -1 4383 1.00000e+00 2.00000e+00 7.50000e-01
 -1 4384 8.75000e-01 2.00000e+00 7.50000e-01
 -1 4385 1.00000e+00 2.00000e+00 6.87500e-01
 -1 4386 1.00000e+00 2.25000e+00 7.50000e-01
 -1 4387 9.37500e-01 2.00000e+00 7.50000e-01
 -1 4388 8.75000e-01 2.00000e+00 6.87500e-01
 -1 4389 8.75000e-01 2.25000e+00 7.50000e-01
 -1 4390 1.00000e+00 2.00000e+00 8.75000e-01
 -1 4391 8.75000e-01 2.00000e+00 8.75000e-01
 -1 4392 1.00000e+00 2.00000e+00 8.12500e-01
 -1 4393 1.00000e+00 2.25000e+00 8.75000e-01
 -1 4394 9.37500e-01 2.00000e+00 8.75000e-01
 -1 4395 8.75000e-01 2.00000e+00 8.12500e-01
 -1 4396 8.75000e-01 2.25000e+00 8.75000e-01
 -1 4397 1.00000e+00 2.00000e+00 1.00000e+00
 -1 4398 8.75000e-01 2.00000e+00 1.00000e+00
 -1 4399 1.00000e+00 2.00000e+00 9.37500e-01
 -1 4400 1.00000e+00 2.25000e+00 1.00000e+00
 -1 4401 9.37500e-01 2.00000e+00 1.00000e+00
 -1 4402 8.75000e-01 2.00000e+00 9.37500e-01
 -1 4403 8.75000e-01 2.25000e+00 1.00000e+00
 -1 4404 1.00000e+00 2.00000e+00 1.12500e+00
 -1 4405 8.75000e-01 2.00000e+00 1.12500e+00
 -1 4406 1.00000e+00 2.00000e+00 1.06250e+00
 -1 4407 1.00000e+00 2.25000e+00 1.12500e+00
 -1 4408 9.37500e-01 2.00000e+00 1.12500e+00
 -1 4409 8.75000e-01 2.00000e+00 1.06250e+00
 -1 4410 8.75000e-01 2.25000e+00 1.12500e+00
 -1 4411 1.00000e+00 2.00000e+00 1.25000e+00
 -1 4412 8.75000e-01 2.00000e+00 1.25000e+00
 -1 4413 1.00000e+00 2.00000e+00 1.18750e+00
 -1 4414 1.00000e+00 2.25000e+00 1.25000e+00
 -1 4415 9.37500e-01 2.00000e+00 1.25000e+00
 -1 4416 8.75000e-01 2.00000e+00 1.18750e+00
 -1 4417 8.75000e-01 2.25000e+00 1.25000e+00
 -1 4418 1.00000e+00 2.00000e+00 1.37500e+00
 -1 4419 8.75000e-01 2.00000e+00 1.37500e+00
 -1 4420 1.00000e+00 2.00000e+00 1.31250e+00
 -1 4421 1.00000e+00 2.25000e+00 1.37500e+00
 -1 4422 9.37500e-01 2.00000e+00 1.37500e+00
 -1 4423 8.75000e-01 2.00000e+00 1.31250e+00
 -1 4424 8.75000e-01 2.25000e+00 1.37500e+00
 -1 4425 1.00000e+00 2.00000e+00 1.50000e+00
 -1 4426 8.75000e-01 2.00000e+00 1.50000e+00
 -1 4427 1.00000e+00 2.00000e+00 1.43750e+00
 -1 4428 1.00000e+00 2.25000e+00 1.50000e+00
 -1 4429 9.37500e-01 2.00000e+00 1.50000e+00
 -1 4430 8.75000e-01 2.00000e+00 1.43750e+00
 -1 4431 8.75000e-01 2.25000e+00 1.50000e+00
 -1 4432 1.00000e+00 2.00000e+00 1.62500e+00
 -1 4433 8.75000e-01 2.00000e+00 1.62500e+00
 -1 4434 1.00000e+00 2.00000e+00 1.56250e+00
 -1 4435 1.00000e+00 2.25000e+00 1.62500e+00
 -1 4436 9.37500e-01 2.00000e+00 1.62500e+00
 -1 4437 8.75000e-01 2.00000e+00 1.56250e+00
 -1 4438 8.75000e-01 2.25000e+00 1.62500e+00
 -1 4439 1.00000e+00 2.00000e+00 1.75000e+00
 -1 4440 8.75000e-01 2.00000e+00 1.75000e+00
 -1 4441 1.00000e+00 2.00000e+00 1.68750e+00
 -1 4442 1.00000e+00 2.25000e+00 1.75000e+00
 -1 4443 9.37500e-01 2.00000e+00 1.75000e+00
 -1 4444 8.75000e-01 2.00000e+00 1.68750e+00
 -1 4445 8.75000e-01 2.25000e+00 1.75000e+00
 -1 4446 1.00000e+00 2.00000e+00 1.87500e+00
 -1 4447 8.75000e-01 2.00000e+00 1.87500e+00
 -1 4448 1.00000e+00 2.00000e+00 1.81250e+00
 -1 4449 1.00000e+00 2.25000e+00 1.87500e+00
 -1 4450 9.37500e-01 2.00000e+00 1.87500e+00
 -1 4451 8.75000e-01 2.00000e+00 1.81250e+00
 -1 4452 8.75000e-01 2.25000e+00 1.87500e+00
 -1 4453 1.00000e+00 2.00000e+00 2.00000e+00
 -1 4454 8.75000e-01 2.00000e+00 2.00000e+00
 -1 4455 1.00000e+00 2.00000e+00 1.93750e+00
 -1 4456 1.00000e+00 2.25000e+00 2.00000e+00
 -1 4457 9.37500e-01 2.00000e+00 2.00000e+00
 -1 4458 8.75000e-01 2.00000e+00 1.93750e+00
 -1 4459 8.75000e-01 2.25000e+00 2.00000e+00
 -1 4460 1.00000e+00 2.00000e+00 2.12500e+00
 -1 4461 8.75000e-01 2.00000e+00 2.12500e+00
 -1 4462 1.00000e+00 2.00000e+00 2.06250e+00
 -1 4463 1.00000e+00 2.25000e+00 2.12500e+00
 -1 4464 9.37500e-01 2.00000e+00 2.12500e+00
 -1 4465 8.75000e-01 2.00000e+00 2.06250e+00
 -1 4466 8.75000e-01 2.25000e+00 2.12500e+00
 -1 4467 1.00000e+00 2.00000e+00 2.25000e+00
 -1 4468 8.75000e-01 2.00000e+00 2.25000e+00
 -1 4469 1.00000e+00 2.00000e+00 2.18750e+00
 -1 4470 1.00000e+00 2.25000e+00 2.25000e+00
 -1 4471 9.37500e-01 2.00000e+00 2.25000e+00
 -1 4472 8.75000e-01 2.00000e+00 2.18750e+00
 -1 4473 8.75000e-01 2.25000e+00 2.25000e+00
 -1 4474 1.00000e+00 2.00000e+00 2.37500e+00
 -1 4475 8.75000e-01 2.00000e+00 2.37500e+00
 -1 4476 1.00000e+00 2.00000e+00 2.31250e+00
 -1 4477 1.00000e+00 2.25000e+00 2.37500e+00
 -1 4478 9.37500e-01 2.00000e+00 2.37500e+00
 -1 4479 8.75000e-01 2.00000e+00 2.31250e+00
 -1 4480 8.75000e-01 2.25000e+00 2.37500e+00
 -1 4481 1.00000e+00 2.00000e+00 2.50000e+00
 -1 4482 8.75000e-01 2.00000e+00 2.50000e+00
 -1 4483 1.00000e+00 2.00000e+00 2.43750e+00
 -1 4484 1.00000e+00 2.25000e+00 2.50000e+00
 -1 4485 9.37500e-01 2.00000e+00 2.50000e+00
 -1 4486 8.75000e-01 2.00000e+00 2.43750e+00
 -1 4487 8.75000e-01 2.25000e+00 2.50000e+00
 -1 4488 1.00000e+00 2.00000e+00 2.62500e+00
 -1 4489 8.75000e-01 2.00000e+00 2.62500e+00
 -1 4490 1.00000e+00 2.00000e+00 2.56250e+00
 -1 4491 1.00000e+00 2.25000e+00 2.62500e+00
 -1 4492 9.37500e-01 2.00000e+00 2.62500e+00
 -1 4493 8.75000e-01 2.00000e+00 2.56250e+00
 -1 4494 8.75000e-01 2.25000e+00 2.62500e+00
 -1 4495 1.00000e+00 2.00000e+00 2.75000e+00
 -1 4496 8.75000e-01 2.00000e+00 2.75000e+00
 -1 4497 1.00000e+00 2.00000e+00 2.68750e+00
 -1 4498 1.00000e+00 2.25000e+00 2.75000e+00
 -1 4499 9.37500e-01 2.00000e+00 2.75000e+00
 -1 4500 8.75000e-01 2.00000e+00 2.68750e+00
 -1 4501 8.75000e-01 2.25000e+00 2.75000e+00
 -1 4502 1.00000e+00 2.00000e+00 2.87500e+00
 -1 4503 8.75000e-01 2.00000e+00 2.87500e+00
 -1 4504 1.00000e+00 2.00000e+00 2.81250e+00
 -1 4505 1.00000e+00 2.25000e+00 2.87500e+00
 -1 4506 9.37500e-01 2.00000e+00 2.87500e+00
 -1 4507 8.75000e-01 2.00000e+00 2.81250e+00
 -1 4508 8.75000e-01 2.25000e+00 2.87500e+00
 -1 4509 1.00000e+00 2.00000e+00 3.00000e+00
 -1 4510 8.75000e-01 2.00000e+00 3.00000e+00
 -1 4511 1.00000e+00 2.00000e+00 2.93750e+00
 -1 4512 1.00000e+00 2.25000e+00 3.00000e+00
 -1 4513 9.37500e-01 2.00000e+00 3.00000e+00
 -1 4514 8.75000e-01 2.00000e+00 2.93750e+00
 -1 4515 8.75000e-01 2.25000e+00 3.00000e+00
 -1 4516 1.00000e+00 2.00000e+00 3.12500e+00
 -1 4517 8.75000e-01 2.00000e+00 3.12500e+00
 -1 4518 1.00000e+00 2.00000e+00 3.06250e+00
 -1 4519 1.00000e+00 2.25000e+00 3.12500e+00
 -1 4520 9.37500e-01 2.00000e+00 3.12500e+00
 -1 4521 8.75000e-01 2.00000e+00 3.06250e+00
 -1 4522 8.75000e-01 2.25000e+00 3.12500e+00
 -1 4523 1.00000e+00 2.00000e+00 3.25000e+00
 -1 4524 8.75000e-01 2.00000e+00 3.25000e+00
 -1 4525 1.00000e+00 2.00000e+00 3.18750e+00
 -1 4526 1.00000e+00 2.25000e+00 3.25000e+00
 -1 4527 9.37500e-01 2.00000e+00 3.25000e+00
 -1 4528 8.75000e-01 2.00000e+00 3.18750e+00
 -1 4529 8.75000e-01 2.25000e+00 3.25000e+00
 -1 4530 1.00000e+00 2.00000e+00 3.37500e+00
 -1 4531 8.75000e-01 2.00000e+00 3.37500e+00
 -1 4532 1.00000e+00 2.00000e+00 3.31250e+00
 -1 4533 1.00000e+00 2.25000e+00 3.37500e+00
 -1 4534 9.37500e-01 2.00000e+00 3.37500e+00
 -1 4535 8.75000e-01 2.00000e+00 3.31250e+00
 -1 4536 8.75000e-01 2.25000e+00 3.37500e+00
 -1 4537 1.00000e+00 2.00000e+00 3.50000e+00
 -1 4538 8.75000e-01 2.00000e+00 3.50000e+00
 -1 4539 1.00000e+00 2.00000e+00 3.43750e+00
 -1 4540 1.00000e+00 2.25000e+00 3.50000e+00
 -1 4541 9.37500e-01 2.00000e+00 3.50000e+00
 -1 4542 8.75000e-01 2.00000e+00 3.43750e+00
 -1 4543 8.75000e-01 2.25000e+00 3.50000e+00
 -1 4544 1.00000e+00 2.00000e+00 3.62500e+00
 -1 4545 8.75000e-01 2.00000e+00 3.62500e+00
 -1 4546 1.00000e+00 2.00000e+00 3.56250e+00
 -1 4547 1.00000e+00 2.25000e+00 3.62500e+00
 -1 4548 9.37500e-01 2.00000e+00 3.62500e+00
 -1 4549 8.75000e-01 2.00000e+00 3.56250e+00
 -1 4550 8.75000e-01 2.25000e+00 3.62500e+00
 -1 4551 1.00000e+00 2.00000e+00 3.75000e+00
 -1 4552 8.75000e-01 2.00000e+00 3.75000e+00
 -1 4553 1.00000e+00 2.00000e+00 3.68750e+00
 -1 4554 1.00000e+00 2.25000e+00 3.75000e+00
 -1 4555 9.37500e-01 2.00000e+00 3.75000e+00
 -1 4556 8.75000e-01 2.00000e+00 3.68750e+00
 -1 4557 8.75000e-01 2.25000e+00 3.75000e+00
 -1 4558 1.00000e+00 2.00000e+00 3.87500e+00
 -1 4559 8.75000e-01 2.00000e+00 3.87500e+00
 -1 4560 1.00000e+00 2.00000e+00 3.81250e+00
 -1 4561 1.00000e+00 2.25000e+00 3.87500e+00
 -1 4562 9.37500e-01 2.00000e+00 3.87500e+00
 -1 4563 8.75000e-01 2.00000e+00 3.81250e+00
 -1 4564 8.75000e-01 2.25000e+00 3.87500e+00
 -1 4565 1.00000e+00 2.00000e+00 4.00000e+00
 -1 4566 8.75000e-01 2.00000e+00 4.00000e+00
 -1 4567 1.00000e+00 2.00000e+00 3.93750e+00
 -1 4568 1.00000e+00 2.25000e+00 4.00000e+00
 -1 4569 9.37500e-01 2.00000e+00 4.00000e+00
 -1 4570 8.75000e-01 2.00000e+00 3.93750e+00
 -1 4571 8.75000e-01 2.25000e+00 4.00000e+00
 -1 4572 7.50000e-01 2.00000e+00 4.44089e-16
 -1 4573 7.50000e-01 2.00000e+00 1.25000e-01
 -1 4574 8.12500e-01 2.00000e+00-8.88178e-16
 -1 4575 8.12500e-01 2.00000e+00 1.25000e-01
 -1 4576 7.50000e-01 2.25000e+00 4.44089e-16
 -1 4577 7.50000e-01 2.00000e+00 6.25000e-02
 -1 4578 7.50000e-01 2.25000e+00 1.25000e-01
 -1 4579 7.50000e-01 2.00000e+00 2.50000e-01
 -1 4580 8.12500e-01 2.00000e+00 2.50000e-01
 -1 4581 7.50000e-01 2.00000e+00 1.87500e-01
 -1 4582 7.50000e-01 2.25000e+00 2.50000e-01
 -1 4583 7.50000e-01 2.00000e+00 3.75000e-01
 -1 4584 8.12500e-01 2.00000e+00 3.75000e-01
 -1 4585 7.50000e-01 2.00000e+00 3.12500e-01
 -1 4586 7.50000e-01 2.25000e+00 3.75000e-01
 -1 4587 7.50000e-01 2.00000e+00 5.00000e-01
 -1 4588 8.12500e-01 2.00000e+00 5.00000e-01
 -1 4589 7.50000e-01 2.00000e+00 4.37500e-01
 -1 4590 7.50000e-01 2.25000e+00 5.00000e-01
 -1 4591 7.50000e-01 2.00000e+00 6.25000e-01
 -1 4592 8.12500e-01 2.00000e+00 6.25000e-01
 -1 4593 7.50000e-01 2.00000e+00 5.62500e-01
 -1 4594 7.50000e-01 2.25000e+00 6.25000e-01
 -1 4595 7.50000e-01 2.00000e+00 7.50000e-01
 -1 4596 8.12500e-01 2.00000e+00 7.50000e-01
 -1 4597 7.50000e-01 2.00000e+00 6.87500e-01
 -1 4598 7.50000e-01 2.25000e+00 7.50000e-01
 -1 4599 7.50000e-01 2.00000e+00 8.75000e-01
 -1 4600 8.12500e-01 2.00000e+00 8.75000e-01
 -1 4601 7.50000e-01 2.00000e+00 8.12500e-01
 -1 4602 7.50000e-01 2.25000e+00 8.75000e-01
 -1 4603 7.50000e-01 2.00000e+00 1.00000e+00
 -1 4604 8.12500e-01 2.00000e+00 1.00000e+00
 -1 4605 7.50000e-01 2.00000e+00 9.37500e-01
 -1 4606 7.50000e-01 2.25000e+00 1.00000e+00
 -1 4607 7.50000e-01 2.00000e+00 1.12500e+00
 -1 4608 8.12500e-01 2.00000e+00 1.12500e+00
 -1 4609 7.50000e-01 2.00000e+00 1.06250e+00
 -1 4610 7.50000e-01 2.25000e+00 1.12500e+00
 -1 4611 7.50000e-01 2.00000e+00 1.25000e+00
 -1 4612 8.12500e-01 2.00000e+00 1.25000e+00
 -1 4613 7.50000e-01 2.00000e+00 1.18750e+00
 -1 4614 7.50000e-01 2.25000e+00 1.25000e+00
 -1 4615 7.50000e-01 2.00000e+00 1.37500e+00
 -1 4616 8.12500e-01 2.00000e+00 1.37500e+00
 -1 4617 7.50000e-01 2.00000e+00 1.31250e+00
 -1 4618 7.50000e-01 2.25000e+00 1.37500e+00
 -1 4619 7.50000e-01 2.00000e+00 1.50000e+00
 -1 4620 8.12500e-01 2.00000e+00 1.50000e+00
 -1 4621 7.50000e-01 2.00000e+00 1.43750e+00
 -1 4622 7.50000e-01 2.25000e+00 1.50000e+00
 -1 4623 7.50000e-01 2.00000e+00 1.62500e+00
 -1 4624 8.12500e-01 2.00000e+00 1.62500e+00
 -1 4625 7.50000e-01 2.00000e+00 1.56250e+00
 -1 4626 7.50000e-01 2.25000e+00 1.62500e+00
 -1 4627 7.50000e-01 2.00000e+00 1.75000e+00
 -1 4628 8.12500e-01 2.00000e+00 1.75000e+00
 -1 4629 7.50000e-01 2.00000e+00 1.68750e+00
 -1 4630 7.50000e-01 2.25000e+00 1.75000e+00
 -1 4631 7.50000e-01 2.00000e+00 1.87500e+00
 -1 4632 8.12500e-01 2.00000e+00 1.87500e+00
 -1 4633 7.50000e-01 2.00000e+00 1.81250e+00
 -1 4634 7.50000e-01 2.25000e+00 1.87500e+00
 -1 4635 7.50000e-01 2.00000e+00 2.00000e+00
 -1 4636 8.12500e-01 2.00000e+00 2.00000e+00
 -1 4637 7.50000e-01 2.00000e+00 1.93750e+00
 -1 4638 7.50000e-01 2.25000e+00 2.00000e+00
 -1 4639 7.50000e-01 2.00000e+00 2.12500e+00
 -1 4640 8.12500e-01 2.00000e+00 2.12500e+00
 -1 4641 7.50000e-01 2.00000e+00 2.06250e+00
 -1 4642 7.50000e-01 2.25000e+00 2.12500e+00
 -1 4643 7.50000e-01 2.00000e+00 2.25000e+00
 -1 4644 8.12500e-01 2.00000e+00 2.25000e+00
 -1 4645 7.50000e-01 2.00000e+00 2.18750e+00
 -1 4646 7.50000e-01 2.25000e+00 2.25000e+00
 -1 4647 7.50000e-01 2.00000e+00 2.37500e+00
 -1 4648 8.12500e-01 2.00000e+00 2.37500e+00
 -1 4649 7.50000e-01 2.00000e+00 2.31250e+00
 -1 4650 7.50000e-01 2.25000e+00 2.37500e+00
 -1 4651 7.50000e-01 2.00000e+00 2.50000e+00
 -1 4652 8.12500e-01 2.00000e+00 2.50000e+00
 -1 4653 7.50000e-01 2.00000e+00 2.43750e+00
 -1 4654 7.50000e-01 2.25000e+00 2.50000e+00
 -1 4655 7.50000e-01 2.00000e+00 2.62500e+00
 -1 4656 8.12500e-01 2.00000e+00 2.62500e+00
 -1 4657 7.50000e-01 2.00000e+00 2.56250e+00
 -1 4658 7.50000e-01 2.25000e+00 2.62500e+00
 -1 4659 7.50000e-01 2.00000e+00 2.75000e+00
 -1 4660 8.12500e-01 2.00000e+00 2.75000e+00
 -1 4661 7.50000e-01 2.00000e+00 2.68750e+00
 -1 4662 7.50000e-01 2.25000e+00 2.75000e+00
 -1 4663 7.50000e-01 2.00000e+00 2.87500e+00
 -1 4664 8.12500e-01 2.00000e+00 2.87500e+00
 -1 4665 7.50000e-01 2.00000e+00 2.81250e+00
 -1 4666 7.50000e-01 2.25000e+00 2.87500e+00
 -1 4667 7.50000e-01 2.00000e+00 3.00000e+00
 -1 4668 8.12500e-01 2.00000e+00 3.00000e+00
 -1 4669 7.50000e-01 2.00000e+00 2.93750e+00
 -1 4670 7.50000e-01 2.25000e+00 3.00000e+00
 -1 4671 7.50000e-01 2.00000e+00 3.12500e+00
 -1 4672 8.12500e-01 2.00000e+00 3.12500e+00
 -1 4673 7.50000e-01 2.00000e+00 3.06250e+00
 -1 4674 7.50000e-01 2.25000e+00 3.12500e+00
 -1 4675 7.50000e-01 2.00000e+00 3.25000e+00
 -1 4676 8.12500e-01 2.00000e+00 3.25000e+00
 -1 4677 7.50000e-01 2.00000e+00 3.18750e+00
 -1 4678 7.50000e-01 2.25000e+00 3.25000e+00
 -1 4679 7.50000e-01 2.00000e+00 3.37500e+00
 -1 4680 8.12500e-01 2.00000e+00 3.37500e+00
 -1 4681 7.50000e-01 2.00000e+00 3.31250e+00
 -1 4682 7.50000e-01 2.25000e+00 3.37500e+00
 -1 4683 7.50000e-01 2.00000e+00 3.50000e+00
 -1 4684 8.12500e-01 2.00000e+00 3.50000e+00
 -1 4685 7.50000e-01 2.00000e+00 3.43750e+00
 -1 4686 7.50000e-01 2.25000e+00 3.50000e+00
 -1 4687 7.50000e-01 2.00000e+00 3.62500e+00
 -1 4688 8.12500e-01 2.00000e+00 3.62500e+00
 -1 4689 7.50000e-01 2.00000e+00 3.56250e+00
 -1 4690 7.50000e-01 2.25000e+00 3.62500e+00
 -1 4691 7.50000e-01 2.00000e+00 3.75000e+00
 -1 4692 8.12500e-01 2.00000e+00 3.75000e+00
 -1 4693 7.50000e-01 2.00000e+00 3.68750e+00
 -1 4694 7.50000e-01 2.25000e+00 3.75000e+00
 -1 4695 7.50000e-01 2.00000e+00 3.87500e+00
 -1 4696 8.12500e-01 2.00000e+00 3.87500e+00
 -1 4697 7.50000e-01 2.00000e+00 3.81250e+00
 -1 4698 7.50000e-01 2.25000e+00 3.87500e+00
 -1 4699 7.50000e-01 2.00000e+00 4.00000e+00
 -1 4700 8.12500e-01 2.00000e+00 4.00000e+00
 -1 4701 7.50000e-01 2.00000e+00 3.93750e+00
 -1 4702 7.50000e-01 2.25000e+00 4.00000e+00
 -1 4703 6.25000e-01 2.00000e+00 4.44089e-16
 -1 4704 6.25000e-01 2.00000e+00 1.25000e-01
 -1 4705 6.87500e-01 2.00000e+00-8.88178e-16
 -1 4706 6.87500e-01 2.00000e+00 1.25000e-01
 -1 4707 6.25000e-01 2.25000e+00 0.00000e+00
 -1 4708 6.25000e-01 2.00000e+00 6.25000e-02
 -1 4709 6.25000e-01 2.25000e+00 1.25000e-01
 -1 4710 6.25000e-01 2.00000e+00 2.50000e-01
 -1 4711 6.87500e-01 2.00000e+00 2.50000e-01
 -1 4712 6.25000e-01 2.00000e+00 1.87500e-01
 -1 4713 6.25000e-01 2.25000e+00 2.50000e-01
 -1 4714 6.25000e-01 2.00000e+00 3.75000e-01
 -1 4715 6.87500e-01 2.00000e+00 3.75000e-01
 -1 4716 6.25000e-01 2.00000e+00 3.12500e-01
 -1 4717 6.25000e-01 2.25000e+00 3.75000e-01
 -1 4718 6.25000e-01 2.00000e+00 5.00000e-01
 -1 4719 6.87500e-01 2.00000e+00 5.00000e-01
 -1 4720 6.25000e-01 2.00000e+00 4.37500e-01
 -1 4721 6.25000e-01 2.25000e+00 5.00000e-01
 -1 4722 6.25000e-01 2.00000e+00 6.25000e-01
 -1 4723 6.87500e-01 2.00000e+00 6.25000e-01
 -1 4724 6.25000e-01 2.00000e+00 5.62500e-01
 -1 4725 6.25000e-01 2.25000e+00 6.25000e-01
 -1 4726 6.25000e-01 2.00000e+00 7.50000e-01
 -1 4727 6.87500e-01 2.00000e+00 7.50000e-01
 -1 4728 6.25000e-01 2.00000e+00 6.87500e-01
 -1 4729 6.25000e-01 2.25000e+00 7.50000e-01
 -1 4730 6.25000e-01 2.00000e+00 8.75000e-01
 -1 4731 6.87500e-01 2.00000e+00 8.75000e-01
 -1 4732 6.25000e-01 2.00000e+00 8.12500e-01
 -1 4733 6.25000e-01 2.25000e+00 8.75000e-01
 -1 4734 6.25000e-01 2.00000e+00 1.00000e+00
 -1 4735 6.87500e-01 2.00000e+00 1.00000e+00
 -1 4736 6.25000e-01 2.00000e+00 9.37500e-01
 -1 4737 6.25000e-01 2.25000e+00 1.00000e+00
 -1 4738 6.25000e-01 2.00000e+00 1.12500e+00
 -1 4739 6.87500e-01 2.00000e+00 1.12500e+00
 -1 4740 6.25000e-01 2.00000e+00 1.06250e+00
 -1 4741 6.25000e-01 2.25000e+00 1.12500e+00
 -1 4742 6.25000e-01 2.00000e+00 1.25000e+00
 -1 4743 6.87500e-01 2.00000e+00 1.25000e+00
 -1 4744 6.25000e-01 2.00000e+00 1.18750e+00
 -1 4745 6.25000e-01 2.25000e+00 1.25000e+00
 -1 4746 6.25000e-01 2.00000e+00 1.37500e+00
 -1 4747 6.87500e-01 2.00000e+00 1.37500e+00
 -1 4748 6.25000e-01 2.00000e+00 1.31250e+00
 -1 4749 6.25000e-01 2.25000e+00 1.37500e+00
 -1 4750 6.25000e-01 2.00000e+00 1.50000e+00
 -1 4751 6.87500e-01 2.00000e+00 1.50000e+00
 -1 4752 6.25000e-01 2.00000e+00 1.43750e+00
 -1 4753 6.25000e-01 2.25000e+00 1.50000e+00
 -1 4754 6.25000e-01 2.00000e+00 1.62500e+00
 -1 4755 6.87500e-01 2.00000e+00 1.62500e+00
 -1 4756 6.25000e-01 2.00000e+00 1.56250e+00
 -1 4757 6.25000e-01 2.25000e+00 1.62500e+00
 -1 4758 6.25000e-01 2.00000e+00 1.75000e+00
 -1 4759 6.87500e-01 2.00000e+00 1.75000e+00
 -1 4760 6.25000e-01 2.00000e+00 1.68750e+00
 -1 4761 6.25000e-01 2.25000e+00 1.75000e+00
 -1 4762 6.25000e-01 2.00000e+00 1.87500e+00
 -1 4763 6.87500e-01 2.00000e+00 1.87500e+00
 -1 4764 6.25000e-01 2.00000e+00 1.81250e+00
 -1 4765 6.25000e-01 2.25000e+00 1.87500e+00
 -1 4766 6.25000e-01 2.00000e+00 2.00000e+00
 -1 4767 6.87500e-01 2.00000e+00 2.00000e+00
 -1 4768 6.25000e-01 2.00000e+00 1.93750e+00
 -1 4769 6.25000e-01 2.25000e+00 2.00000e+00
 -1 4770 6.25000e-01 2.00000e+00 2.12500e+00
 -1 4771 6.87500e-01 2.00000e+00 2.12500e+00
 -1 4772 6.25000e-01 2.00000e+00 2.06250e+00
 -1 4773 6.25000e-01 2.25000e+00 2.12500e+00
 -1 4774 6.25000e-01 2.00000e+00 2.25000e+00
 -1 4775 6.87500e-01 2.00000e+00 2.25000e+00
 -1 4776 6.25000e-01 2.00000e+00 2.18750e+00
 -1 4777 6.25000e-01 2.25000e+00 2.25000e+00
 -1 4778 6.25000e-01 2.00000e+00 2.37500e+00
 -1 4779 6.87500e-01 2.00000e+00 2.37500e+00
 -1 4780 6.25000e-01 2.00000e+00 2.31250e+00
 -1 4781 6.25000e-01 2.25000e+00 2.37500e+00
 -1 4782 6.25000e-01 2.00000e+00 2.50000e+00
 -1 4783 6.87500e-01 2.00000e+00 2.50000e+00
 -1 4784 6.25000e-01 2.00000e+00 2.43750e+00
 -1 4785 6.25000e-01 2.25000e+00 2.50000e+00
 -1 4786 6.25000e-01 2.00000e+00 2.62500e+00
 -1 4787 6.87500e-01 2.00000e+00 2.62500e+00
 -1 4788 6.25000e-01 2.00000e+00 2.56250e+00
 -1 4789 6.25000e-01 2.25000e+00 2.62500e+00
 -1 4790 6.25000e-01 2.00000e+00 2.75000e+00
 -1 4791 6.87500e-01 2.00000e+00 2.75000e+00
 -1 4792 6.25000e-01 2.00000e+00 2.68750e+00
 -1 4793 6.25000e-01 2.25000e+00 2.75000e+00
 -1 4794 6.25000e-01 2.00000e+00 2.87500e+00
 -1 4795 6.87500e-01 2.00000e+00 2.87500e+00
 -1 4796 6.25000e-01 2.00000e+00 2.81250e+00
 -1 4797 6.25000e-01 2.25000e+00 2.87500e+00
 -1 4798 6.25000e-01 2.00000e+00 3.00000e+00
 -1 4799 6.87500e-01 2.00000e+00 3.00000e+00
 -1 4800 6.25000e-01 2.00000e+00 2.93750e+00
 -1 4801 6.25000e-01 2.25000e+00 3.00000e+00
 -1 4802 6.25000e-01 2.00000e+00 3.12500e+00
 -1 4803 6.87500e-01 2.00000e+00 3.12500e+00
 -1 4804 6.25000e-01 2.00000e+00 3.06250e+00
 -1 4805 6.25000e-01 2.25000e+00 3.12500e+00
 -1 4806 6.25000e-01 2.00000e+00 3.25000e+00
 -1 4807 6.87500e-01 2.00000e+00 3.25000e+00
 -1 4808 6.25000e-01 2.00000e+00 3.18750e+00
 -1 4809 6.25000e-01 2.25000e+00 3.25000e+00
 -1 4810 6.25000e-01 2.00000e+00 3.37500e+00
 -1 4811 6.87500e-01 2.00000e+00 3.37500e+00
 -1 4812 6.25000e-01 2.00000e+00 3.31250e+00
 -1 4813 6.25000e-01 2.25000e+00 3.37500e+00
 -1 4814 6.25000e-01 2.00000e+00 3.50000e+00
 -1 4815 6.87500e-01 2.00000e+00 3.50000e+00
 -1 4816 6.25000e-01 2.00000e+00 3.43750e+00
 -1 4817 6.25000e-01 2.25000e+00 3.50000e+00
 -1 4818 6.25000e-01 2.00000e+00 3.62500e+00
 -1 4819 6.87500e-01 2.00000e+00 3.62500e+00
 -1 4820 6.25000e-01 2.00000e+00 3.56250e+00
 -1 4821 6.25000e-01 2.25000e+00 3.62500e+00
 -1 4822 6.25000e-01 2.00000e+00 3.75000e+00
 -1 4823 6.87500e-01 2.00000e+00 3.75000e+00
 -1 4824 6.25000e-01 2.00000e+00 3.68750e+00
 -1 4825 6.25000e-01 2.25000e+00 3.75000e+00
 -1 4826 6.25000e-01 2.00000e+00 3.87500e+00
 -1 4827 6.87500e-01 2.00000e+00 3.87500e+00
 -1 4828 6.25000e-01 2.00000e+00 3.81250e+00
 -1 4829 6.25000e-01 2.25000e+00 3.87500e+00
 -1 4830 6.25000e-01 2.00000e+00 4.00000e+00
 -1 4831 6.87500e-01 2.00000e+00 4.00000e+00
 -1 4832 6.25000e-01 2.00000e+00 3.93750e+00
 -1 4833 6.25000e-01 2.25000e+00 4.00000e+00
 -1 4834 5.00000e-01 2.00000e+00-8.88178e-16
 -1 4835 5.00000e-01 2.00000e+00 1.25000e-01
 -1 4836 5.62500e-01 2.00000e+00-2.22045e-16
 -1 4837 5.62500e-01 2.00000e+00 1.25000e-01
 -1 4838 5.00000e-01 2.25000e+00 4.44089e-16
 -1 4839 5.00000e-01 2.00000e+00 6.25000e-02
 -1 4840 5.00000e-01 2.25000e+00 1.25000e-01
 -1 4841 5.00000e-01 2.00000e+00 2.50000e-01
 -1 4842 5.62500e-01 2.00000e+00 2.50000e-01
 -1 4843 5.00000e-01 2.00000e+00 1.87500e-01
 -1 4844 5.00000e-01 2.25000e+00 2.50000e-01
 -1 4845 5.00000e-01 2.00000e+00 3.75000e-01
 -1 4846 5.62500e-01 2.00000e+00 3.75000e-01
 -1 4847 5.00000e-01 2.00000e+00 3.12500e-01
 -1 4848 5.00000e-01 2.25000e+00 3.75000e-01
 -1 4849 5.00000e-01 2.00000e+00 5.00000e-01
 -1 4850 5.62500e-01 2.00000e+00 5.00000e-01
 -1 4851 5.00000e-01 2.00000e+00 4.37500e-01
 -1 4852 5.00000e-01 2.25000e+00 5.00000e-01
 -1 4853 5.00000e-01 2.00000e+00 6.25000e-01
 -1 4854 5.62500e-01 2.00000e+00 6.25000e-01
 -1 4855 5.00000e-01 2.00000e+00 5.62500e-01
 -1 4856 5.00000e-01 2.25000e+00 6.25000e-01
 -1 4857 5.00000e-01 2.00000e+00 7.50000e-01
 -1 4858 5.62500e-01 2.00000e+00 7.50000e-01
 -1 4859 5.00000e-01 2.00000e+00 6.87500e-01
 -1 4860 5.00000e-01 2.25000e+00 7.50000e-01
 -1 4861 5.00000e-01 2.00000e+00 8.75000e-01
 -1 4862 5.62500e-01 2.00000e+00 8.75000e-01
 -1 4863 5.00000e-01 2.00000e+00 8.12500e-01
 -1 4864 5.00000e-01 2.25000e+00 8.75000e-01
 -1 4865 5.00000e-01 2.00000e+00 1.00000e+00
 -1 4866 5.62500e-01 2.00000e+00 1.00000e+00
 -1 4867 5.00000e-01 2.00000e+00 9.37500e-01
 -1 4868 5.00000e-01 2.25000e+00 1.00000e+00
 -1 4869 5.00000e-01 2.00000e+00 1.12500e+00
 -1 4870 5.62500e-01 2.00000e+00 1.12500e+00
 -1 4871 5.00000e-01 2.00000e+00 1.06250e+00
 -1 4872 5.00000e-01 2.25000e+00 1.12500e+00
 -1 4873 5.00000e-01 2.00000e+00 1.25000e+00
 -1 4874 5.62500e-01 2.00000e+00 1.25000e+00
 -1 4875 5.00000e-01 2.00000e+00 1.18750e+00
 -1 4876 5.00000e-01 2.25000e+00 1.25000e+00
 -1 4877 5.00000e-01 2.00000e+00 1.37500e+00
 -1 4878 5.62500e-01 2.00000e+00 1.37500e+00
 -1 4879 5.00000e-01 2.00000e+00 1.31250e+00
 -1 4880 5.00000e-01 2.25000e+00 1.37500e+00
 -1 4881 5.00000e-01 2.00000e+00 1.50000e+00
 -1 4882 5.62500e-01 2.00000e+00 1.50000e+00
 -1 4883 5.00000e-01 2.00000e+00 1.43750e+00
 -1 4884 5.00000e-01 2.25000e+00 1.50000e+00
 -1 4885 5.00000e-01 2.00000e+00 1.62500e+00
 -1 4886 5.62500e-01 2.00000e+00 1.62500e+00
 -1 4887 5.00000e-01 2.00000e+00 1.56250e+00
 -1 4888 5.00000e-01 2.25000e+00 1.62500e+00
 -1 4889 5.00000e-01 2.00000e+00 1.75000e+00
 -1 4890 5.62500e-01 2.00000e+00 1.75000e+00
 -1 4891 5.00000e-01 2.00000e+00 1.68750e+00
 -1 4892 5.00000e-01 2.25000e+00 1.75000e+00
 -1 4893 5.00000e-01 2.00000e+00 1.87500e+00
 -1 4894 5.62500e-01 2.00000e+00 1.87500e+00
 -1 4895 5.00000e-01 2.00000e+00 1.81250e+00
 -1 4896 5.00000e-01 2.25000e+00 1.87500e+00
 -1 4897 5.00000e-01 2.00000e+00 2.00000e+00
 -1 4898 5.62500e-01 2.00000e+00 2.00000e+00
 -1 4899 5.00000e-01 2.00000e+00 1.93750e+00
 -1 4900 5.00000e-01 2.25000e+00 2.00000e+00
 -1 4901 5.00000e-01 2.00000e+00 2.12500e+00
 -1 4902 5.62500e-01 2.00000e+00 2.12500e+00
 -1 4903 5.00000e-01 2.00000e+00 2.06250e+00
 -1 4904 5.00000e-01 2.25000e+00 2.12500e+00
 -1 4905 5.00000e-01 2.00000e+00 2.25000e+00
 -1 4906 5.62500e-01 2.00000e+00 2.25000e+00
 -1 4907 5.00000e-01 2.00000e+00 2.18750e+00
 -1 4908 5.00000e-01 2.25000e+00 2.25000e+00
 -1 4909 5.00000e-01 2.00000e+00 2.37500e+00
 -1 4910 5.62500e-01 2.00000e+00 2.37500e+00
 -1 4911 5.00000e-01 2.00000e+00 2.31250e+00
 -1 4912 5.00000e-01 2.25000e+00 2.37500e+00
 -1 4913 5.00000e-01 2.00000e+00 2.50000e+00
 -1 4914 5.62500e-01 2.00000e+00 2.50000e+00
 -1 4915 5.00000e-01 2.00000e+00 2.43750e+00
 -1 4916 5.00000e-01 2.25000e+00 2.50000e+00
 -1 4917 5.00000e-01 2.00000e+00 2.62500e+00
 -1 4918 5.62500e-01 2.00000e+00 2.62500e+00
 -1 4919 5.00000e-01 2.00000e+00 2.56250e+00
 -1 4920 5.00000e-01 2.25000e+00 2.62500e+00
 -1 4921 5.00000e-01 2.00000e+00 2.75000e+00
 -1 4922 5.62500e-01 2.00000e+00 2.75000e+00
 -1 4923 5.00000e-01 2.00000e+00 2.68750e+00
 -1 4924 5.00000e-01 2.25000e+00 2.75000e+00
 -1 4925 5.00000e-01 2.00000e+00 2.87500e+00
 -1 4926 5.62500e-01 2.00000e+00 2.87500e+00
 -1 4927 5.00000e-01 2.00000e+00 2.81250e+00
 -1 4928 5.00000e-01 2.25000e+00 2.87500e+00
 -1 4929 5.00000e-01 2.00000e+00 3.00000e+00
 -1 4930 5.62500e-01 2.00000e+00 3.00000e+00
 -1 4931 5.00000e-01 2.00000e+00 2.93750e+00
 -1 4932 5.00000e-01 2.25000e+00 3.00000e+00
 -1 4933 5.00000e-01 2.00000e+00 3.12500e+00
 -1 4934 5.62500e-01 2.00000e+00 3.12500e+00
 -1 4935 5.00000e-01 2.00000e+00 3.06250e+00
 -1 4936 5.00000e-01 2.25000e+00 3.12500e+00
 -1 4937 5.00000e-01 2.00000e+00 3.25000e+00
 -1 4938 5.62500e-01 2.00000e+00 3.25000e+00
 -1 4939 5.00000e-01 2.00000e+00 3.18750e+00
 -1 4940 5.00000e-01 2.25000e+00 3.25000e+00
 -1 4941 5.00000e-01 2.00000e+00 3.37500e+00
 -1 4942 5.62500e-01 2.00000e+00 3.37500e+00
 -1 4943 5.00000e-01 2.00000e+00 3.31250e+00
 -1 4944 5.00000e-01 2.25000e+00 3.37500e+00
 -1 4945 5.00000e-01 2.00000e+00 3.50000e+00
 -1 4946 5.62500e-01 2.00000e+00 3.50000e+00
 -1 4947 5.00000e-01 2.00000e+00 3.43750e+00
 -1 4948 5.00000e-01 2.25000e+00 3.50000e+00
 -1 4949 5.00000e-01 2.00000e+00 3.62500e+00
 -1 4950 5.62500e-01 2.00000e+00 3.62500e+00
 -1 4951 5.00000e-01 2.00000e+00 3.56250e+00
 -1 4952 5.00000e-01 2.25000e+00 3.62500e+00
 -1 4953 5.00000e-01 2.00000e+00 3.75000e+00
 -1 4954 5.62500e-01 2.00000e+00 3.75000e+00
 -1 4955 5.00000e-01 2.00000e+00 3.68750e+00
 -1 4956 5.00000e-01 2.25000e+00 3.75000e+00
 -1 4957 5.00000e-01 2.00000e+00 3.87500e+00
 -1 4958 5.62500e-01 2.00000e+00 3.87500e+00
 -1 4959 5.00000e-01 2.00000e+00 3.81250e+00
 -1 4960 5.00000e-01 2.25000e+00 3.87500e+00
 -1 4961 5.00000e-01 2.00000e+00 4.00000e+00
 -1 4962 5.62500e-01 2.00000e+00 4.00000e+00
 -1 4963 5.00000e-01 2.00000e+00 3.93750e+00
 -1 4964 5.00000e-01 2.25000e+00 4.00000e+00
 -1 4965 3.75000e-01 2.00000e+00-2.22045e-16
 -1 4966 3.75000e-01 2.00000e+00 1.25000e-01
 -1 4967 4.37500e-01 2.00000e+00 0.00000e+00
 -1 4968 4.37500e-01 2.00000e+00 1.25000e-01
 -1 4969 3.75000e-01 2.25000e+00 0.00000e+00
 -1 4970 3.75000e-01 2.00000e+00 6.25000e-02
 -1 4971 3.75000e-01 2.25000e+00 1.25000e-01
 -1 4972 3.75000e-01 2.00000e+00 2.50000e-01
 -1 4973 4.37500e-01 2.00000e+00 2.50000e-01
 -1 4974 3.75000e-01 2.00000e+00 1.87500e-01
 -1 4975 3.75000e-01 2.25000e+00 2.50000e-01
 -1 4976 3.75000e-01 2.00000e+00 3.75000e-01
 -1 4977 4.37500e-01 2.00000e+00 3.75000e-01
 -1 4978 3.75000e-01 2.00000e+00 3.12500e-01
 -1 4979 3.75000e-01 2.25000e+00 3.75000e-01
 -1 4980 3.75000e-01 2.00000e+00 5.00000e-01
 -1 4981 4.37500e-01 2.00000e+00 5.00000e-01
 -1 4982 3.75000e-01 2.00000e+00 4.37500e-01
 -1 4983 3.75000e-01 2.25000e+00 5.00000e-01
 -1 4984 3.75000e-01 2.00000e+00 6.25000e-01
 -1 4985 4.37500e-01 2.00000e+00 6.25000e-01
 -1 4986 3.75000e-01 2.00000e+00 5.62500e-01
 -1 4987 3.75000e-01 2.25000e+00 6.25000e-01
 -1 4988 3.75000e-01 2.00000e+00 7.50000e-01
 -1 4989 4.37500e-01 2.00000e+00 7.50000e-01
 -1 4990 3.75000e-01 2.00000e+00 6.87500e-01
 -1 4991 3.75000e-01 2.25000e+00 7.50000e-01
 -1 4992 3.75000e-01 2.00000e+00 8.75000e-01
 -1 4993 4.37500e-01 2.00000e+00 8.75000e-01
 -1 4994 3.75000e-01 2.00000e+00 8.12500e-01
 -1 4995 3.75000e-01 2.25000e+00 8.75000e-01
 -1 4996 3.75000e-01 2.00000e+00 1.00000e+00
 -1 4997 4.37500e-01 2.00000e+00 1.00000e+00
 -1 4998 3.75000e-01 2.00000e+00 9.37500e-01
 -1 4999 3.75000e-01 2.25000e+00 1.00000e+00
 -1 5000 3.75000e-01 2.00000e+00 1.12500e+00
 -1 5001 4.37500e-01 2.00000e+00 1.12500e+00
 -1 5002 3.75000e-01 2.00000e+00 1.06250e+00
 -1 5003 3.75000e-01 2.25000e+00 1.12500e+00
 -1 5004 3.75000e-01 2.00000e+00 1.25000e+00
 -1 5005 4.37500e-01 2.00000e+00 1.25000e+00
 -1 5006 3.75000e-01 2.00000e+00 1.18750e+00
 -1 5007 3.75000e-01 2.25000e+00 1.25000e+00
 -1 5008 3.75000e-01 2.00000e+00 1.37500e+00
 -1 5009 4.37500e-01 2.00000e+00 1.37500e+00
 -1 5010 3.75000e-01 2.00000e+00 1.31250e+00
 -1 5011 3.75000e-01 2.25000e+00 1.37500e+00
 -1 5012 3.75000e-01 2.00000e+00 1.50000e+00
 -1 5013 4.37500e-01 2.00000e+00 1.50000e+00
 -1 5014 3.75000e-01 2.00000e+00 1.43750e+00
 -1 5015 3.75000e-01 2.25000e+00 1.50000e+00
 -1 5016 3.75000e-01 2.00000e+00 1.62500e+00
 -1 5017 4.37500e-01 2.00000e+00 1.62500e+00
 -1 5018 3.75000e-01 2.00000e+00 1.56250e+00
 -1 5019 3.75000e-01 2.25000e+00 1.62500e+00
 -1 5020 3.75000e-01 2.00000e+00 1.75000e+00
 -1 5021 4.37500e-01 2.00000e+00 1.75000e+00
 -1 5022 3.75000e-01 2.00000e+00 1.68750e+00
 -1 5023 3.75000e-01 2.25000e+00 1.75000e+00
 -1 5024 3.75000e-01 2.00000e+00 1.87500e+00
 -1 5025 4.37500e-01 2.00000e+00 1.87500e+00
 -1 5026 3.75000e-01 2.00000e+00 1.81250e+00
 -1 5027 3.75000e-01 2.25000e+00 1.87500e+00
 -1 5028 3.75000e-01 2.00000e+00 2.00000e+00
 -1 5029 4.37500e-01 2.00000e+00 2.00000e+00
 -1 5030 3.75000e-01 2.00000e+00 1.93750e+00
 -1 5031 3.75000e-01 2.25000e+00 2.00000e+00
 -1 5032 3.75000e-01 2.00000e+00 2.12500e+00
 -1 5033 4.37500e-01 2.00000e+00 2.12500e+00
 -1 5034 3.75000e-01 2.00000e+00 2.06250e+00
 -1 5035 3.75000e-01 2.25000e+00 2.12500e+00
 -1 5036 3.75000e-01 2.00000e+00 2.25000e+00
 -1 5037 4.37500e-01 2.00000e+00 2.25000e+00
 -1 5038 3.75000e-01 2.00000e+00 2.18750e+00
 -1 5039 3.75000e-01 2.25000e+00 2.25000e+00
 -1 5040 3.75000e-01 2.00000e+00 2.37500e+00
 -1 5041 4.37500e-01 2.00000e+00 2.37500e+00
 -1 5042 3.75000e-01 2.00000e+00 2.31250e+00
 -1 5043 3.75000e-01 2.25000e+00 2.37500e+00
 -1 5044 3.75000e-01 2.00000e+00 2.50000e+00
 -1 5045 4.37500e-01 2.00000e+00 2.50000e+00
 -1 5046 3.75000e-01 2.00000e+00 2.43750e+00
 -1 5047 3.75000e-01 2.25000e+00 2.50000e+00
 -1 5048 3.75000e-01 2.00000e+00 2.62500e+00
 -1 5049 4.37500e-01 2.00000e+00 2.62500e+00
 -1 5050 3.75000e-01 2.00000e+00 2.56250e+00
 -1 5051 3.75000e-01 2.25000e+00 2.62500e+00
 -1 5052 3.75000e-01 2.00000e+00 2.75000e+00
 -1 5053 4.37500e-01 2.00000e+00 2.75000e+00
 -1 5054 3.75000e-01 2.00000e+00 2.68750e+00
 -1 5055 3.75000e-01 2.25000e+00 2.75000e+00
 -1 5056 3.75000e-01 2.00000e+00 2.87500e+00
 -1 5057 4.37500e-01 2.00000e+00 2.87500e+00
 -1 5058 3.75000e-01 2.00000e+00 2.81250e+00
 -1 5059 3.75000e-01 2.25000e+00 2.87500e+00
 -1 5060 3.75000e-01 2.00000e+00 3.00000e+00
 -1 5061 4.37500e-01 2.00000e+00 3.00000e+00
 -1 5062 3.75000e-01 2.00000e+00 2.93750e+00
 -1 5063 3.75000e-01 2.25000e+00 3.00000e+00
 -1 5064 3.75000e-01 2.00000e+00 3.12500e+00
 -1 5065 4.37500e-01 2.00000e+00 3.12500e+00
 -1 5066 3.75000e-01 2.00000e+00 3.06250e+00
 -1 5067 3.75000e-01 2.25000e+00 3.12500e+00
 -1 5068 3.75000e-01 2.00000e+00 3.25000e+00
 -1 5069 4.37500e-01 2.00000e+00 3.25000e+00
 -1 5070 3.75000e-01 2.00000e+00 3.18750e+00
 -1 5071 3.75000e-01 2.25000e+00 3.25000e+00
 -1 5072 3.75000e-01 2.00000e+00 3.37500e+00
 -1 5073 4.37500e-01 2.00000e+00 3.37500e+00
 -1 5074 3.75000e-01 2.00000e+00 3.31250e+00
 -1 5075 3.75000e-01 2.25000e+00 3.37500e+00
 -1 5076 3.75000e-01 2.00000e+00 3.50000e+00
 -1 5077 4.37500e-01 2.00000e+00 3.50000e+00
 -1 5078 3.75000e-01 2.00000e+00 3.43750e+00
 -1 5079 3.75000e-01 2.25000e+00 3.50000e+00
 -1 5080 3.75000e-01 2.00000e+00 3.62500e+00
 -1 5081 4.37500e-01 2.00000e+00 3.62500e+00
 -1 5082 3.75000e-01 2.00000e+00 3.56250e+00
 -1 5083 3.75000e-01 2.25000e+00 3.62500e+00
 -1 5084 3.75000e-01 2.00000e+00 3.75000e+00
 -1 5085 4.37500e-01 2.00000e+00 3.75000e+00
 -1 5086 3.75000e-01 2.00000e+00 3.68750e+00
 -1 5087 3.75000e-01 2.25000e+00 3.75000e+00
 -1 5088 3.75000e-01 2.00000e+00 3.87500e+00
 -1 5089 4.37500e-01 2.00000e+00 3.87500e+00
 -1 5090 3.75000e-01 2.00000e+00 3.81250e+00
 -1 5091 3.75000e-01 2.25000e+00 3.87500e+00
 -1 5092 3.75000e-01 2.00000e+00 4.00000e+00
 -1 5093 4.37500e-01 2.00000e+00 4.00000e+00
 -1 5094 3.75000e-01 2.00000e+00 3.93750e+00
 -1 5095 3.75000e-01 2.25000e+00 4.00000e+00
 -1 5096 2.50000e-01 2.00000e+00 0.00000e+00
 -1 5097 2.50000e-01 2.00000e+00 1.25000e-01
 -1 5098 3.12500e-01 2.00000e+00-8.88178e-16
 -1 5099 3.12500e-01 2.00000e+00 1.25000e-01
 -1 5100 2.50000e-01 2.25000e+00-2.22045e-16
 -1 5101 2.50000e-01 2.00000e+00 6.25000e-02
 -1 5102 2.50000e-01 2.25000e+00 1.25000e-01
 -1 5103 2.50000e-01 2.00000e+00 2.50000e-01
 -1 5104 3.12500e-01 2.00000e+00 2.50000e-01
 -1 5105 2.50000e-01 2.00000e+00 1.87500e-01
 -1 5106 2.50000e-01 2.25000e+00 2.50000e-01
 -1 5107 2.50000e-01 2.00000e+00 3.75000e-01
 -1 5108 3.12500e-01 2.00000e+00 3.75000e-01
 -1 5109 2.50000e-01 2.00000e+00 3.12500e-01
 -1 5110 2.50000e-01 2.25000e+00 3.75000e-01
 -1 5111 2.50000e-01 2.00000e+00 5.00000e-01
 -1 5112 3.12500e-01 2.00000e+00 5.00000e-01
 -1 5113 2.50000e-01 2.00000e+00 4.37500e-01
 -1 5114 2.50000e-01 2.25000e+00 5.00000e-01
 -1 5115 2.50000e-01 2.00000e+00 6.25000e-01
 -1 5116 3.12500e-01 2.00000e+00 6.25000e-01
 -1 5117 2.50000e-01 2.00000e+00 5.62500e-01
 -1 5118 2.50000e-01 2.25000e+00 6.25000e-01
 -1 5119 2.50000e-01 2.00000e+00 7.50000e-01
 -1 5120 3.12500e-01 2.00000e+00 7.50000e-01
 -1 5121 2.50000e-01 2.00000e+00 6.87500e-01
 -1 5122 2.50000e-01 2.25000e+00 7.50000e-01
 -1 5123 2.50000e-01 2.00000e+00 8.75000e-01
 -1 5124 3.12500e-01 2.00000e+00 8.75000e-01
 -1 5125 2.50000e-01 2.00000e+00 8.12500e-01
 -1 5126 2.50000e-01 2.25000e+00 8.75000e-01
 -1 5127 2.50000e-01 2.00000e+00 1.00000e+00
 -1 5128 3.12500e-01 2.00000e+00 1.00000e+00
 -1 5129 2.50000e-01 2.00000e+00 9.37500e-01
 -1 5130 2.50000e-01 2.25000e+00 1.00000e+00
 -1 5131 2.50000e-01 2.00000e+00 1.12500e+00
 -1 5132 3.12500e-01 2.00000e+00 1.12500e+00
 -1 5133 2.50000e-01 2.00000e+00 1.06250e+00
 -1 5134 2.50000e-01 2.25000e+00 1.12500e+00
 -1 5135 2.50000e-01 2.00000e+00 1.25000e+00
 -1 5136 3.12500e-01 2.00000e+00 1.25000e+00
 -1 5137 2.50000e-01 2.00000e+00 1.18750e+00
 -1 5138 2.50000e-01 2.25000e+00 1.25000e+00
 -1 5139 2.50000e-01 2.00000e+00 1.37500e+00
 -1 5140 3.12500e-01 2.00000e+00 1.37500e+00
 -1 5141 2.50000e-01 2.00000e+00 1.31250e+00
 -1 5142 2.50000e-01 2.25000e+00 1.37500e+00
 -1 5143 2.50000e-01 2.00000e+00 1.50000e+00
 -1 5144 3.12500e-01 2.00000e+00 1.50000e+00
 -1 5145 2.50000e-01 2.00000e+00 1.43750e+00
 -1 5146 2.50000e-01 2.25000e+00 1.50000e+00
 -1 5147 2.50000e-01 2.00000e+00 1.62500e+00
 -1 5148 3.12500e-01 2.00000e+00 1.62500e+00
 -1 5149 2.50000e-01 2.00000e+00 1.56250e+00
 -1 5150 2.50000e-01 2.25000e+00 1.62500e+00
 -1 5151 2.50000e-01 2.00000e+00 1.75000e+00
 -1 5152 3.12500e-01 2.00000e+00 1.75000e+00
 -1 5153 2.50000e-01 2.00000e+00 1.68750e+00
 -1 5154 2.50000e-01 2.25000e+00 1.75000e+00
 -1 5155 2.50000e-01 2.00000e+00 1.87500e+00
 -1 5156 3.12500e-01 2.00000e+00 1.87500e+00
 -1 5157 2.50000e-01 2.00000e+00 1.81250e+00
 -1 5158 2.50000e-01 2.25000e+00 1.87500e+00
 -1 5159 2.50000e-01 2.00000e+00 2.00000e+00
 -1 5160 3.12500e-01 2.00000e+00 2.00000e+00
 -1 5161 2.50000e-01 2.00000e+00 1.93750e+00
 -1 5162 2.50000e-01 2.25000e+00 2.00000e+00
 -1 5163 2.50000e-01 2.00000e+00 2.12500e+00
 -1 5164 3.12500e-01 2.00000e+00 2.12500e+00
 -1 5165 2.50000e-01 2.00000e+00 2.06250e+00
 -1 5166 2.50000e-01 2.25000e+00 2.12500e+00
 -1 5167 2.50000e-01 2.00000e+00 2.25000e+00
 -1 5168 3.12500e-01 2.00000e+00 2.25000e+00
 -1 5169 2.50000e-01 2.00000e+00 2.18750e+00
 -1 5170 2.50000e-01 2.25000e+00 2.25000e+00
 -1 5171 2.50000e-01 2.00000e+00 2.37500e+00
 -1 5172 3.12500e-01 2.00000e+00 2.37500e+00
 -1 5173 2.50000e-01 2.00000e+00 2.31250e+00
 -1 5174 2.50000e-01 2.25000e+00 2.37500e+00
 -1 5175 2.50000e-01 2.00000e+00 2.50000e+00
 -1 5176 3.12500e-01 2.00000e+00 2.50000e+00
 -1 5177 2.50000e-01 2.00000e+00 2.43750e+00
 -1 5178 2.50000e-01 2.25000e+00 2.50000e+00
 -1 5179 2.50000e-01 2.00000e+00 2.62500e+00
 -1 5180 3.12500e-01 2.00000e+00 2.62500e+00
 -1 5181 2.50000e-01 2.00000e+00 2.56250e+00
 -1 5182 2.50000e-01 2.25000e+00 2.62500e+00
 -1 5183 2.50000e-01 2.00000e+00 2.75000e+00
 -1 5184 3.12500e-01 2.00000e+00 2.75000e+00
 -1 5185 2.50000e-01 2.00000e+00 2.68750e+00
 -1 5186 2.50000e-01 2.25000e+00 2.75000e+00
 -1 5187 2.50000e-01 2.00000e+00 2.87500e+00
 -1 5188 3.12500e-01 2.00000e+00 2.87500e+00
 -1 5189 2.50000e-01 2.00000e+00 2.81250e+00
 -1 5190 2.50000e-01 2.25000e+00 2.87500e+00
 -1 5191 2.50000e-01 2.00000e+00 3.00000e+00
 -1 5192 3.12500e-01 2.00000e+00 3.00000e+00
 -1 5193 2.50000e-01 2.00000e+00 2.93750e+00
 -1 5194 2.50000e-01 2.25000e+00 3.00000e+00
 -1 5195 2.50000e-01 2.00000e+00 3.12500e+00
 -1 5196 3.12500e-01 2.00000e+00 3.12500e+00
 -1 5197 2.50000e-01 2.00000e+00 3.06250e+00
 -1 5198 2.50000e-01 2.25000e+00 3.12500e+00
 -1 5199 2.50000e-01 2.00000e+00 3.25000e+00
 -1 5200 3.12500e-01 2.00000e+00 3.25000e+00
 -1 5201 2.50000e-01 2.00000e+00 3.18750e+00
 -1 5202 2.50000e-01 2.25000e+00 3.25000e+00
 -1 5203 2.50000e-01 2.00000e+00 3.37500e+00
 -1 5204 3.12500e-01 2.00000e+00 3.37500e+00
 -1 5205 2.50000e-01 2.00000e+00 3.31250e+00
 -1 5206 2.50000e-01 2.25000e+00 3.37500e+00
 -1 5207 2.50000e-01 2.00000e+00 3.50000e+00
 -1 5208 3.12500e-01 2.00000e+00 3.50000e+00
 -1 5209 2.50000e-01 2.00000e+00 3.43750e+00
 -1 5210 2.50000e-01 2.25000e+00 3.50000e+00
 -1 5211 2.50000e-01 2.00000e+00 3.62500e+00
 -1 5212 3.12500e-01 2.00000e+00 3.62500e+00
 -1 5213 2.50000e-01 2.00000e+00 3.56250e+00
 -1 5214 2.50000e-01 2.25000e+00 3.62500e+00
 -1 5215 2.50000e-01 2.00000e+00 3.75000e+00
 -1 5216 3.12500e-01 2.00000e+00 3.75000e+00
 -1 5217 2.50000e-01 2.00000e+00 3.68750e+00
 -1 5218 2.50000e-01 2.25000e+00 3.75000e+00
 -1 5219 2.50000e-01 2.00000e+00 3.87500e+00
 -1 5220 3.12500e-01 2.00000e+00 3.87500e+00
 -1 5221 2.50000e-01 2.00000e+00 3.81250e+00
 -1 5222 2.50000e-01 2.25000e+00 3.87500e+00
 -1 5223 2.50000e-01 2.00000e+00 4.00000e+00
 -1 5224 3.12500e-01 2.00000e+00 4.00000e+00
 -1 5225 2.50000e-01 2.00000e+00 3.93750e+00
 -1 5226 2.50000e-01 2.25000e+00 4.00000e+00
 -1 5227 1.25000e-01 2.00000e+00-2.22045e-16
 -1 5228 1.25000e-01 2.00000e+00 1.25000e-01
 -1 5229 1.87500e-01 2.00000e+00 0.00000e+00
 -1 5230 1.87500e-01 2.00000e+00 1.25000e-01
 -1 5231 1.25000e-01 2.25000e+00-8.88178e-16
 -1 5232 1.25000e-01 2.00000e+00 6.25000e-02
 -1 5233 1.25000e-01 2.25000e+00 1.25000e-01
 -1 5234 1.25000e-01 2.00000e+00 2.50000e-01
 -1 5235 1.87500e-01 2.00000e+00 2.50000e-01
 -1 5236 1.25000e-01 2.00000e+00 1.87500e-01
 -1 5237 1.25000e-01 2.25000e+00 2.50000e-01
 -1 5238 1.25000e-01 2.00000e+00 3.75000e-01
 -1 5239 1.87500e-01 2.00000e+00 3.75000e-01
 -1 5240 1.25000e-01 2.00000e+00 3.12500e-01
 -1 5241 1.25000e-01 2.25000e+00 3.75000e-01
 -1 5242 1.25000e-01 2.00000e+00 5.00000e-01
 -1 5243 1.87500e-01 2.00000e+00 5.00000e-01
 -1 5244 1.25000e-01 2.00000e+00 4.37500e-01
 -1 5245 1.25000e-01 2.25000e+00 5.00000e-01
 -1 5246 1.25000e-01 2.00000e+00 6.25000e-01
 -1 5247 1.87500e-01 2.00000e+00 6.25000e-01
 -1 5248 1.25000e-01 2.00000e+00 5.62500e-01
 -1 5249 1.25000e-01 2.25000e+00 6.25000e-01
 -1 5250 1.25000e-01 2.00000e+00 7.50000e-01
 -1 5251 1.87500e-01 2.00000e+00 7.50000e-01
 -1 5252 1.25000e-01 2.00000e+00 6.87500e-01
 -1 5253 1.25000e-01 2.25000e+00 7.50000e-01
 -1 5254 1.25000e-01 2.00000e+00 8.75000e-01
 -1 5255 1.87500e-01 2.00000e+00 8.75000e-01
 -1 5256 1.25000e-01 2.00000e+00 8.12500e-01
 -1 5257 1.25000e-01 2.25000e+00 8.75000e-01
 -1 5258 1.25000e-01 2.00000e+00 1.00000e+00
 -1 5259 1.87500e-01 2.00000e+00 1.00000e+00
 -1 5260 1.25000e-01 2.00000e+00 9.37500e-01
 -1 5261 1.25000e-01 2.25000e+00 1.00000e+00
 -1 5262 1.25000e-01 2.00000e+00 1.12500e+00
 -1 5263 1.87500e-01 2.00000e+00 1.12500e+00
 -1 5264 1.25000e-01 2.00000e+00 1.06250e+00
 -1 5265 1.25000e-01 2.25000e+00 1.12500e+00
 -1 5266 1.25000e-01 2.00000e+00 1.25000e+00
 -1 5267 1.87500e-01 2.00000e+00 1.25000e+00
 -1 5268 1.25000e-01 2.00000e+00 1.18750e+00
 -1 5269 1.25000e-01 2.25000e+00 1.25000e+00
 -1 5270 1.25000e-01 2.00000e+00 1.37500e+00
 -1 5271 1.87500e-01 2.00000e+00 1.37500e+00
 -1 5272 1.25000e-01 2.00000e+00 1.31250e+00
 -1 5273 1.25000e-01 2.25000e+00 1.37500e+00
 -1 5274 1.25000e-01 2.00000e+00 1.50000e+00
 -1 5275 1.87500e-01 2.00000e+00 1.50000e+00
 -1 5276 1.25000e-01 2.00000e+00 1.43750e+00
 -1 5277 1.25000e-01 2.25000e+00 1.50000e+00
 -1 5278 1.25000e-01 2.00000e+00 1.62500e+00
 -1 5279 1.87500e-01 2.00000e+00 1.62500e+00
 -1 5280 1.25000e-01 2.00000e+00 1.56250e+00
 -1 5281 1.25000e-01 2.25000e+00 1.62500e+00
 -1 5282 1.25000e-01 2.00000e+00 1.75000e+00
 -1 5283 1.87500e-01 2.00000e+00 1.75000e+00
 -1 5284 1.25000e-01 2.00000e+00 1.68750e+00
 -1 5285 1.25000e-01 2.25000e+00 1.75000e+00
 -1 5286 1.25000e-01 2.00000e+00 1.87500e+00
 -1 5287 1.87500e-01 2.00000e+00 1.87500e+00
 -1 5288 1.25000e-01 2.00000e+00 1.81250e+00
 -1 5289 1.25000e-01 2.25000e+00 1.87500e+00
 -1 5290 1.25000e-01 2.00000e+00 2.00000e+00
 -1 5291 1.87500e-01 2.00000e+00 2.00000e+00
 -1 5292 1.25000e-01 2.00000e+00 1.93750e+00
 -1 5293 1.25000e-01 2.25000e+00 2.00000e+00
 -1 5294 1.25000e-01 2.00000e+00 2.12500e+00
 -1 5295 1.87500e-01 2.00000e+00 2.12500e+00
 -1 5296 1.25000e-01 2.00000e+00 2.06250e+00
 -1 5297 1.25000e-01 2.25000e+00 2.12500e+00
 -1 5298 1.25000e-01 2.00000e+00 2.25000e+00
 -1 5299 1.87500e-01 2.00000e+00 2.25000e+00
 -1 5300 1.25000e-01 2.00000e+00 2.18750e+00
 -1 5301 1.25000e-01 2.25000e+00 2.25000e+00
 -1 5302 1.25000e-01 2.00000e+00 2.37500e+00
 -1 5303 1.87500e-01 2.00000e+00 2.37500e+00
 -1 5304 1.25000e-01 2.00000e+00 2.31250e+00
 -1 5305 1.25000e-01 2.25000e+00 2.37500e+00
 -1 5306 1.25000e-01 2.00000e+00 2.50000e+00
 -1 5307 1.87500e-01 2.00000e+00 2.50000e+00
 -1 5308 1.25000e-01 2.00000e+00 2.43750e+00
 -1 5309 1.25000e-01 2.25000e+00 2.50000e+00
 -1 5310 1.25000e-01 2.00000e+00 2.62500e+00
 -1 5311 1.87500e-01 2.00000e+00 2.62500e+00
 -1 5312 1.25000e-01 2.00000e+00 2.56250e+00
 -1 5313 1.25000e-01 2.25000e+00 2.62500e+00
 -1 5314 1.25000e-01 2.00000e+00 2.75000e+00
 -1 5315 1.87500e-01 2.00000e+00 2.75000e+00
 -1 5316 1.25000e-01 2.00000e+00 2.68750e+00
 -1 5317 1.25000e-01 2.25000e+00 2.75000e+00
 -1 5318 1.25000e-01 2.00000e+00 2.87500e+00
 -1 5319 1.87500e-01 2.00000e+00 2.87500e+00
 -1 5320 1.25000e-01 2.00000e+00 2.81250e+00
 -1 5321 1.25000e-01 2.25000e+00 2.87500e+00
 -1 5322 1.25000e-01 2.00000e+00 3.00000e+00
 -1 5323 1.87500e-01 2.00000e+00 3.00000e+00
 -1 5324 1.25000e-01 2.00000e+00 2.93750e+00
 -1 5325 1.25000e-01 2.25000e+00 3.00000e+00
 -1 5326 1.25000e-01 2.00000e+00 3.12500e+00
 -1 5327 1.87500e-01 2.00000e+00 3.12500e+00
 -1 5328 1.25000e-01 2.00000e+00 3.06250e+00
 -1 5329 1.25000e-01 2.25000e+00 3.12500e+00
 -1 5330 1.25000e-01 2.00000e+00 3.25000e+00
 -1 5331 1.87500e-01 2.00000e+00 3.25000e+00
 -1 5332 1.25000e-01 2.00000e+00 3.18750e+00
 -1 5333 1.25000e-01 2.25000e+00 3.25000e+00
 -1 5334 1.25000e-01 2.00000e+00 3.37500e+00
 -1 5335 1.87500e-01 2.00000e+00 3.37500e+00
 -1 5336 1.25000e-01 2.00000e+00 3.31250e+00
 -1 5337 1.25000e-01 2.25000e+00 3.37500e+00
 -1 5338 1.25000e-01 2.00000e+00 3.50000e+00
 -1 5339 1.87500e-01 2.00000e+00 3.50000e+00
 -1 5340 1.25000e-01 2.00000e+00 3.43750e+00
 -1 5341 1.25000e-01 2.25000e+00 3.50000e+00
 -1 5342 1.25000e-01 2.00000e+00 3.62500e+00
 -1 5343 1.87500e-01 2.00000e+00 3.62500e+00
 -1 5344 1.25000e-01 2.00000e+00 3.56250e+00
 -1 5345 1.25000e-01 2.25000e+00 3.62500e+00
 -1 5346 1.25000e-01 2.00000e+00 3.75000e+00
 -1 5347 1.87500e-01 2.00000e+00 3.75000e+00
 -1 5348 1.25000e-01 2.00000e+00 3.68750e+00
 -1 5349 1.25000e-01 2.25000e+00 3.75000e+00
 -1 5350 1.25000e-01 2.00000e+00 3.87500e+00
 -1 5351 1.87500e-01 2.00000e+00 3.87500e+00
 -1 5352 1.25000e-01 2.00000e+00 3.81250e+00
 -1 5353 1.25000e-01 2.25000e+00 3.87500e+00
 -1 5354 1.25000e-01 2.00000e+00 4.00000e+00
 -1 5355 1.87500e-01 2.00000e+00 4.00000e+00
 -1 5356 1.25000e-01 2.00000e+00 3.93750e+00
 -1 5357 1.25000e-01 2.25000e+00 4.00000e+00
 -1 5358 0.00000e+00 2.00000e+00 0.00000e+00
 -1 5359-3.33067e-16 2.00000e+00 1.25000e-01
 -1 5360 6.25000e-02 2.00000e+00-8.88178e-16
 -1 5361 6.25000e-02 2.00000e+00 1.25000e-01
 -1 5362 0.00000e+00 2.25000e+00 0.00000e+00
 -1 5363 0.00000e+00 2.00000e+00 6.25000e-02
 -1 5364 0.00000e+00 2.25000e+00 1.25000e-01
 -1 5365 0.00000e+00 2.00000e+00 2.50000e-01
 -1 5366 6.25000e-02 2.00000e+00 2.50000e-01
 -1 5367 1.11022e-16 2.00000e+00 1.87500e-01
 -1 5368-1.11022e-16 2.25000e+00 2.50000e-01
 -1 5369 0.00000e+00 2.00000e+00 3.75000e-01
 -1 5370 6.25000e-02 2.00000e+00 3.75000e-01
 -1 5371-1.11022e-16 2.00000e+00 3.12500e-01
 -1 5372-1.11022e-16 2.25000e+00 3.75000e-01
 -1 5373 1.11022e-16 2.00000e+00 5.00000e-01
 -1 5374 6.25000e-02 2.00000e+00 5.00000e-01
 -1 5375-3.33067e-16 2.00000e+00 4.37500e-01
 -1 5376 0.00000e+00 2.25000e+00 5.00000e-01
 -1 5377-1.11022e-16 2.00000e+00 6.25000e-01
 -1 5378 6.25000e-02 2.00000e+00 6.25000e-01
 -1 5379 0.00000e+00 2.00000e+00 5.62500e-01
 -1 5380 0.00000e+00 2.25000e+00 6.25000e-01
 -1 5381-3.33067e-16 2.00000e+00 7.50000e-01
 -1 5382 6.25000e-02 2.00000e+00 7.50000e-01
 -1 5383 0.00000e+00 2.00000e+00 6.87500e-01
 -1 5384 0.00000e+00 2.25000e+00 7.50000e-01
 -1 5385 0.00000e+00 2.00000e+00 8.75000e-01
 -1 5386 6.25000e-02 2.00000e+00 8.75000e-01
 -1 5387 1.11022e-16 2.00000e+00 8.12500e-01
 -1 5388-1.11022e-16 2.25000e+00 8.75000e-01
 -1 5389 0.00000e+00 2.00000e+00 1.00000e+00
 -1 5390 6.25000e-02 2.00000e+00 1.00000e+00
 -1 5391-1.11022e-16 2.00000e+00 9.37500e-01
 -1 5392-1.11022e-16 2.25000e+00 1.00000e+00
 -1 5393 1.11022e-16 2.00000e+00 1.12500e+00
 -1 5394 6.25000e-02 2.00000e+00 1.12500e+00
 -1 5395-3.33067e-16 2.00000e+00 1.06250e+00
 -1 5396 0.00000e+00 2.25000e+00 1.12500e+00
 -1 5397-3.33067e-16 2.00000e+00 1.25000e+00
 -1 5398 6.25000e-02 2.00000e+00 1.25000e+00
 -1 5399 0.00000e+00 2.00000e+00 1.18750e+00
 -1 5400 0.00000e+00 2.25000e+00 1.25000e+00
 -1 5401-3.33067e-16 2.00000e+00 1.37500e+00
 -1 5402 6.25000e-02 2.00000e+00 1.37500e+00
 -1 5403 1.11022e-16 2.00000e+00 1.31250e+00
 -1 5404 0.00000e+00 2.25000e+00 1.37500e+00
 -1 5405 0.00000e+00 2.00000e+00 1.50000e+00
 -1 5406 6.25000e-02 2.00000e+00 1.50000e+00
 -1 5407 1.11022e-16 2.00000e+00 1.43750e+00
 -1 5408 0.00000e+00 2.25000e+00 1.50000e+00
 -1 5409 0.00000e+00 2.00000e+00 1.62500e+00
 -1 5410 6.25000e-02 2.00000e+00 1.62500e+00
 -1 5411-3.33067e-16 2.00000e+00 1.56250e+00
 -1 5412-1.11022e-16 2.25000e+00 1.62500e+00
 -1 5413 1.11022e-16 2.00000e+00 1.75000e+00
 -1 5414 6.25000e-02 2.00000e+00 1.75000e+00
 -1 5415-3.33067e-16 2.00000e+00 1.68750e+00
 -1 5416 1.11022e-16 2.25000e+00 1.75000e+00
 -1 5417-3.33067e-16 2.00000e+00 1.87500e+00
 -1 5418 6.25000e-02 2.00000e+00 1.87500e+00
 -1 5419 0.00000e+00 2.00000e+00 1.81250e+00
 -1 5420 0.00000e+00 2.25000e+00 1.87500e+00
 -1 5421-3.33067e-16 2.00000e+00 2.00000e+00
 -1 5422 6.25000e-02 2.00000e+00 2.00000e+00
 -1 5423 0.00000e+00 2.00000e+00 1.93750e+00
 -1 5424 0.00000e+00 2.25000e+00 2.00000e+00
 -1 5425-1.11022e-16 2.00000e+00 2.12500e+00
 -1 5426 6.25000e-02 2.00000e+00 2.12500e+00
 -1 5427 1.11022e-16 2.00000e+00 2.06250e+00
 -1 5428 0.00000e+00 2.25000e+00 2.12500e+00
 -1 5429 0.00000e+00 2.00000e+00 2.25000e+00
 -1 5430 6.25000e-02 2.00000e+00 2.25000e+00
 -1 5431-3.33067e-16 2.00000e+00 2.18750e+00
 -1 5432-1.11022e-16 2.25000e+00 2.25000e+00
 -1 5433 1.11022e-16 2.00000e+00 2.37500e+00
 -1 5434 6.25000e-02 2.00000e+00 2.37500e+00
 -1 5435-3.33067e-16 2.00000e+00 2.31250e+00
 -1 5436 0.00000e+00 2.25000e+00 2.37500e+00
 -1 5437-3.33067e-16 2.00000e+00 2.50000e+00
 -1 5438 6.25000e-02 2.00000e+00 2.50000e+00
 -1 5439-1.11022e-16 2.00000e+00 2.43750e+00
 -1 5440 0.00000e+00 2.25000e+00 2.50000e+00
 -1 5441-3.33067e-16 2.00000e+00 2.62500e+00
 -1 5442 6.25000e-02 2.00000e+00 2.62500e+00
 -1 5443 1.11022e-16 2.00000e+00 2.56250e+00
 -1 5444 1.11022e-16 2.25000e+00 2.62500e+00
 -1 5445-1.11022e-16 2.00000e+00 2.75000e+00
 -1 5446 6.25000e-02 2.00000e+00 2.75000e+00
 -1 5447 1.11022e-16 2.00000e+00 2.68750e+00
 -1 5448 0.00000e+00 2.25000e+00 2.75000e+00
 -1 5449 1.11022e-16 2.00000e+00 2.87500e+00
 -1 5450 6.25000e-02 2.00000e+00 2.87500e+00
 -1 5451-3.33067e-16 2.00000e+00 2.81250e+00
 -1 5452-1.11022e-16 2.25000e+00 2.87500e+00
 -1 5453-3.33067e-16 2.00000e+00 3.00000e+00
 -1 5454 6.25000e-02 2.00000e+00 3.00000e+00
 -1 5455-3.33067e-16 2.00000e+00 2.93750e+00
 -1 5456 0.00000e+00 2.25000e+00 3.00000e+00
 -1 5457-3.33067e-16 2.00000e+00 3.12500e+00
 -1 5458 6.25000e-02 2.00000e+00 3.12500e+00
 -1 5459-1.11022e-16 2.00000e+00 3.06250e+00
 -1 5460 0.00000e+00 2.25000e+00 3.12500e+00
 -1 5461-3.33067e-16 2.00000e+00 3.25000e+00
 -1 5462 6.25000e-02 2.00000e+00 3.25000e+00
 -1 5463 1.11022e-16 2.00000e+00 3.18750e+00
 -1 5464 1.11022e-16 2.25000e+00 3.25000e+00
 -1 5465-1.11022e-16 2.00000e+00 3.37500e+00
 -1 5466 6.25000e-02 2.00000e+00 3.37500e+00
 -1 5467-3.33067e-16 2.00000e+00 3.31250e+00
 -1 5468 0.00000e+00 2.25000e+00 3.37500e+00
 -1 5469 1.11022e-16 2.00000e+00 3.50000e+00
 -1 5470 6.25000e-02 2.00000e+00 3.50000e+00
 -1 5471-3.33067e-16 2.00000e+00 3.43750e+00
 -1 5472-1.11022e-16 2.25000e+00 3.50000e+00
 -1 5473-3.33067e-16 2.00000e+00 3.62500e+00
 -1 5474 6.25000e-02 2.00000e+00 3.62500e+00
 -1 5475-3.33067e-16 2.00000e+00 3.56250e+00
 -1 5476 0.00000e+00 2.25000e+00 3.62500e+00
 -1 5477-3.33067e-16 2.00000e+00 3.75000e+00
 -1 5478 6.25000e-02 2.00000e+00 3.75000e+00
 -1 5479-1.11022e-16 2.00000e+00 3.68750e+00
 -1 5480 0.00000e+00 2.25000e+00 3.75000e+00
 -1 5481-3.33067e-16 2.00000e+00 3.87500e+00
 -1 5482 6.25000e-02 2.00000e+00 3.87500e+00
 -1 5483 1.11022e-16 2.00000e+00 3.81250e+00
 -1 5484 1.11022e-16 2.25000e+00 3.87500e+00
 -1 5485 0.00000e+00 2.00000e+00 4.00000e+00
 -1 5486 6.25000e-02 2.00000e+00 4.00000e+00
 -1 5487-3.33067e-16 2.00000e+00 3.93750e+00
 -1 5488 0.00000e+00 2.25000e+00 4.00000e+00
 -1 5489 1.00000e+00 1.50000e+00 0.00000e+00
 -1 5490 1.00000e+00 1.50000e+00 1.25000e-01
 -1 5491 8.75000e-01 1.50000e+00 4.44089e-16
 -1 5492 8.75000e-01 1.50000e+00 1.25000e-01
 -1 5493 1.00000e+00 1.75000e+00 0.00000e+00
 -1 5494 1.00000e+00 1.50000e+00 6.25000e-02
 -1 5495 1.00000e+00 1.75000e+00 1.25000e-01
 -1 5496 9.37500e-01 1.50000e+00 0.00000e+00
 -1 5497 9.37500e-01 1.50000e+00 1.25000e-01
 -1 5498 8.75000e-01 1.75000e+00-2.22045e-16
 -1 5499 8.75000e-01 1.50000e+00 6.25000e-02
 -1 5500 8.75000e-01 1.75000e+00 1.25000e-01
 -1 5501 1.00000e+00 1.50000e+00 2.50000e-01
 -1 5502 8.75000e-01 1.50000e+00 2.50000e-01
 -1 5503 1.00000e+00 1.50000e+00 1.87500e-01
 -1 5504 1.00000e+00 1.75000e+00 2.50000e-01
 -1 5505 9.37500e-01 1.50000e+00 2.50000e-01
 -1 5506 8.75000e-01 1.50000e+00 1.87500e-01
 -1 5507 8.75000e-01 1.75000e+00 2.50000e-01
 -1 5508 1.00000e+00 1.50000e+00 3.75000e-01
 -1 5509 8.75000e-01 1.50000e+00 3.75000e-01
 -1 5510 1.00000e+00 1.50000e+00 3.12500e-01
 -1 5511 1.00000e+00 1.75000e+00 3.75000e-01
 -1 5512 9.37500e-01 1.50000e+00 3.75000e-01
 -1 5513 8.75000e-01 1.50000e+00 3.12500e-01
 -1 5514 8.75000e-01 1.75000e+00 3.75000e-01
 -1 5515 1.00000e+00 1.50000e+00 5.00000e-01
 -1 5516 8.75000e-01 1.50000e+00 5.00000e-01
 -1 5517 1.00000e+00 1.50000e+00 4.37500e-01
 -1 5518 1.00000e+00 1.75000e+00 5.00000e-01
 -1 5519 9.37500e-01 1.50000e+00 5.00000e-01
 -1 5520 8.75000e-01 1.50000e+00 4.37500e-01
 -1 5521 8.75000e-01 1.75000e+00 5.00000e-01
 -1 5522 1.00000e+00 1.50000e+00 6.25000e-01
 -1 5523 8.75000e-01 1.50000e+00 6.25000e-01
 -1 5524 1.00000e+00 1.50000e+00 5.62500e-01
 -1 5525 1.00000e+00 1.75000e+00 6.25000e-01
 -1 5526 9.37500e-01 1.50000e+00 6.25000e-01
 -1 5527 8.75000e-01 1.50000e+00 5.62500e-01
 -1 5528 8.75000e-01 1.75000e+00 6.25000e-01
 -1 5529 1.00000e+00 1.50000e+00 7.50000e-01
 -1 5530 8.75000e-01 1.50000e+00 7.50000e-01
 -1 5531 1.00000e+00 1.50000e+00 6.87500e-01
 -1 5532 1.00000e+00 1.75000e+00 7.50000e-01
 -1 5533 9.37500e-01 1.50000e+00 7.50000e-01
 -1 5534 8.75000e-01 1.50000e+00 6.87500e-01
 -1 5535 8.75000e-01 1.75000e+00 7.50000e-01
 -1 5536 1.00000e+00 1.50000e+00 8.75000e-01
 -1 5537 8.75000e-01 1.50000e+00 8.75000e-01
 -1 5538 1.00000e+00 1.50000e+00 8.12500e-01
 -1 5539 1.00000e+00 1.75000e+00 8.75000e-01
 -1 5540 9.37500e-01 1.50000e+00 8.75000e-01
 -1 5541 8.75000e-01 1.50000e+00 8.12500e-01
 -1 5542 8.75000e-01 1.75000e+00 8.75000e-01
 -1 5543 1.00000e+00 1.50000e+00 1.00000e+00
 -1 5544 8.75000e-01 1.50000e+00 1.00000e+00
 -1 5545 1.00000e+00 1.50000e+00 9.37500e-01
 -1 5546 1.00000e+00 1.75000e+00 1.00000e+00
 -1 5547 9.37500e-01 1.50000e+00 1.00000e+00
 -1 5548 8.75000e-01 1.50000e+00 9.37500e-01
 -1 5549 8.75000e-01 1.75000e+00 1.00000e+00
 -1 5550 1.00000e+00 1.50000e+00 1.12500e+00
 -1 5551 8.75000e-01 1.50000e+00 1.12500e+00
 -1 5552 1.00000e+00 1.50000e+00 1.06250e+00
 -1 5553 1.00000e+00 1.75000e+00 1.12500e+00
 -1 5554 9.37500e-01 1.50000e+00 1.12500e+00
 -1 5555 8.75000e-01 1.50000e+00 1.06250e+00
 -1 5556 8.75000e-01 1.75000e+00 1.12500e+00
 -1 5557 1.00000e+00 1.50000e+00 1.25000e+00
 -1 5558 8.75000e-01 1.50000e+00 1.25000e+00
 -1 5559 1.00000e+00 1.50000e+00 1.18750e+00
 -1 5560 1.00000e+00 1.75000e+00 1.25000e+00
 -1 5561 9.37500e-01 1.50000e+00 1.25000e+00
 -1 5562 8.75000e-01 1.50000e+00 1.18750e+00
 -1 5563 8.75000e-01 1.75000e+00 1.25000e+00
 -1 5564 1.00000e+00 1.50000e+00 1.37500e+00
 -1 5565 8.75000e-01 1.50000e+00 1.37500e+00
 -1 5566 1.00000e+00 1.50000e+00 1.31250e+00
 -1 5567 1.00000e+00 1.75000e+00 1.37500e+00
 -1 5568 9.37500e-01 1.50000e+00 1.37500e+00
 -1 5569 8.75000e-01 1.50000e+00 1.31250e+00
 -1 5570 8.75000e-01 1.75000e+00 1.37500e+00
 -1 5571 1.00000e+00 1.50000e+00 1.50000e+00
 -1 5572 8.75000e-01 1.50000e+00 1.50000e+00
 -1 5573 1.00000e+00 1.50000e+00 1.43750e+00
 -1 5574 1.00000e+00 1.75000e+00 1.50000e+00
 -1 5575 9.37500e-01 1.50000e+00 1.50000e+00
 -1 5576 8.75000e-01 1.50000e+00 1.43750e+00
 -1 5577 8.75000e-01 1.75000e+00 1.50000e+00
 -1 5578 1.00000e+00 1.50000e+00 1.62500e+00
 -1 5579 8.75000e-01 1.50000e+00 1.62500e+00
 -1 5580 1.00000e+00 1.50000e+00 1.56250e+00
 -1 5581 1.00000e+00 1.75000e+00 1.62500e+00
 -1 5582 9.37500e-01 1.50000e+00 1.62500e+00
 -1 5583 8.75000e-01 1.50000e+00 1.56250e+00
 -1 5584 8.75000e-01 1.75000e+00 1.62500e+00
 -1 5585 1.00000e+00 1.50000e+00 1.75000e+00
 -1 5586 8.75000e-01 1.50000e+00 1.75000e+00
 -1 5587 1.00000e+00 1.50000e+00 1.68750e+00
 -1 5588 1.00000e+00 1.75000e+00 1.75000e+00
 -1 5589 9.37500e-01 1.50000e+00 1.75000e+00
 -1 5590 8.75000e-01 1.50000e+00 1.68750e+00
 -1 5591 8.75000e-01 1.75000e+00 1.75000e+00
 -1 5592 1.00000e+00 1.50000e+00 1.87500e+00
 -1 5593 8.75000e-01 1.50000e+00 1.87500e+00
 -1 5594 1.00000e+00 1.50000e+00 1.81250e+00
 -1 5595 1.00000e+00 1.75000e+00 1.87500e+00
 -1 5596 9.37500e-01 1.50000e+00 1.87500e+00
 -1 5597 8.75000e-01 1.50000e+00 1.81250e+00
 -1 5598 8.75000e-01 1.75000e+00 1.87500e+00
 -1 5599 1.00000e+00 1.50000e+00 2.00000e+00
 -1 5600 8.75000e-01 1.50000e+00 2.00000e+00
 -1 5601 1.00000e+00 1.50000e+00 1.93750e+00
 -1 5602 1.00000e+00 1.75000e+00 2.00000e+00
 -1 5603 9.37500e-01 1.50000e+00 2.00000e+00
 -1 5604 8.75000e-01 1.50000e+00 1.93750e+00
 -1 5605 8.75000e-01 1.75000e+00 2.00000e+00
 -1 5606 1.00000e+00 1.50000e+00 2.12500e+00
 -1 5607 8.75000e-01 1.50000e+00 2.12500e+00
 -1 5608 1.00000e+00 1.50000e+00 2.06250e+00
 -1 5609 1.00000e+00 1.75000e+00 2.12500e+00
 -1 5610 9.37500e-01 1.50000e+00 2.12500e+00
 -1 5611 8.75000e-01 1.50000e+00 2.06250e+00
 -1 5612 8.75000e-01 1.75000e+00 2.12500e+00
 -1 5613 1.00000e+00 1.50000e+00 2.25000e+00
 -1 5614 8.75000e-01 1.50000e+00 2.25000e+00
 -1 5615 1.00000e+00 1.50000e+00 2.18750e+00
 -1 5616 1.00000e+00 1.75000e+00 2.25000e+00
 -1 5617 9.37500e-01 1.50000e+00 2.25000e+00
 -1 5618 8.75000e-01 1.50000e+00 2.18750e+00
 -1 5619 8.75000e-01 1.75000e+00 2.25000e+00
 -1 5620 1.00000e+00 1.50000e+00 2.37500e+00
 -1 5621 8.75000e-01 1.50000e+00 2.37500e+00
 -1 5622 1.00000e+00 1.50000e+00 2.31250e+00
 -1 5623 1.00000e+00 1.75000e+00 2.37500e+00
 -1 5624 9.37500e-01 1.50000e+00 2.37500e+00
 -1 5625 8.75000e-01 1.50000e+00 2.31250e+00
 -1 5626 8.75000e-01 1.75000e+00 2.37500e+00
 -1 5627 1.00000e+00 1.50000e+00 2.50000e+00
 -1 5628 8.75000e-01 1.50000e+00 2.50000e+00
 -1 5629 1.00000e+00 1.50000e+00 2.43750e+00
 -1 5630 1.00000e+00 1.75000e+00 2.50000e+00
 -1 5631 9.37500e-01 1.50000e+00 2.50000e+00
 -1 5632 8.75000e-01 1.50000e+00 2.43750e+00
 -1 5633 8.75000e-01 1.75000e+00 2.50000e+00
 -1 5634 1.00000e+00 1.50000e+00 2.62500e+00
 -1 5635 8.75000e-01 1.50000e+00 2.62500e+00
 -1 5636 1.00000e+00 1.50000e+00 2.56250e+00
 -1 5637 1.00000e+00 1.75000e+00 2.62500e+00
 -1 5638 9.37500e-01 1.50000e+00 2.62500e+00
 -1 5639 8.75000e-01 1.50000e+00 2.56250e+00
 -1 5640 8.75000e-01 1.75000e+00 2.62500e+00
 -1 5641 1.00000e+00 1.50000e+00 2.75000e+00
 -1 5642 8.75000e-01 1.50000e+00 2.75000e+00
 -1 5643 1.00000e+00 1.50000e+00 2.68750e+00
 -1 5644 1.00000e+00 1.75000e+00 2.75000e+00
 -1 5645 9.37500e-01 1.50000e+00 2.75000e+00
 -1 5646 8.75000e-01 1.50000e+00 2.68750e+00
 -1 5647 8.75000e-01 1.75000e+00 2.75000e+00
 -1 5648 1.00000e+00 1.50000e+00 2.87500e+00
 -1 5649 8.75000e-01 1.50000e+00 2.87500e+00
 -1 5650 1.00000e+00 1.50000e+00 2.81250e+00
 -1 5651 1.00000e+00 1.75000e+00 2.87500e+00
 -1 5652 9.37500e-01 1.50000e+00 2.87500e+00
 -1 5653 8.75000e-01 1.50000e+00 2.81250e+00
 -1 5654 8.75000e-01 1.75000e+00 2.87500e+00
 -1 5655 1.00000e+00 1.50000e+00 3.00000e+00
 -1 5656 8.75000e-01 1.50000e+00 3.00000e+00
 -1 5657 1.00000e+00 1.50000e+00 2.93750e+00
 -1 5658 1.00000e+00 1.75000e+00 3.00000e+00
 -1 5659 9.37500e-01 1.50000e+00 3.00000e+00
 -1 5660 8.75000e-01 1.50000e+00 2.93750e+00
 -1 5661 8.75000e-01 1.75000e+00 3.00000e+00
 -1 5662 1.00000e+00 1.50000e+00 3.12500e+00
 -1 5663 8.75000e-01 1.50000e+00 3.12500e+00
 -1 5664 1.00000e+00 1.50000e+00 3.06250e+00
 -1 5665 1.00000e+00 1.75000e+00 3.12500e+00
 -1 5666 9.37500e-01 1.50000e+00 3.12500e+00
 -1 5667 8.75000e-01 1.50000e+00 3.06250e+00
 -1 5668 8.75000e-01 1.75000e+00 3.12500e+00
 -1 5669 1.00000e+00 1.50000e+00 3.25000e+00
 -1 5670 8.75000e-01 1.50000e+00 3.25000e+00
 -1 5671 1.00000e+00 1.50000e+00 3.18750e+00
 -1 5672 1.00000e+00 1.75000e+00 3.25000e+00
 -1 5673 9.37500e-01 1.50000e+00 3.25000e+00
 -1 5674 8.75000e-01 1.50000e+00 3.18750e+00
 -1 5675 8.75000e-01 1.75000e+00 3.25000e+00
 -1 5676 1.00000e+00 1.50000e+00 3.37500e+00
 -1 5677 8.75000e-01 1.50000e+00 3.37500e+00
 -1 5678 1.00000e+00 1.50000e+00 3.31250e+00
 -1 5679 1.00000e+00 1.75000e+00 3.37500e+00
 -1 5680 9.37500e-01 1.50000e+00 3.37500e+00
 -1 5681 8.75000e-01 1.50000e+00 3.31250e+00
 -1 5682 8.75000e-01 1.75000e+00 3.37500e+00
 -1 5683 1.00000e+00 1.50000e+00 3.50000e+00
 -1 5684 8.75000e-01 1.50000e+00 3.50000e+00
 -1 5685 1.00000e+00 1.50000e+00 3.43750e+00
 -1 5686 1.00000e+00 1.75000e+00 3.50000e+00
 -1 5687 9.37500e-01 1.50000e+00 3.50000e+00
 -1 5688 8.75000e-01 1.50000e+00 3.43750e+00
 -1 5689 8.75000e-01 1.75000e+00 3.50000e+00
 -1 5690 1.00000e+00 1.50000e+00 3.62500e+00
 -1 5691 8.75000e-01 1.50000e+00 3.62500e+00
 -1 5692 1.00000e+00 1.50000e+00 3.56250e+00
 -1 5693 1.00000e+00 1.75000e+00 3.62500e+00
 -1 5694 9.37500e-01 1.50000e+00 3.62500e+00
 -1 5695 8.75000e-01 1.50000e+00 3.56250e+00
 -1 5696 8.75000e-01 1.75000e+00 3.62500e+00
 -1 5697 1.00000e+00 1.50000e+00 3.75000e+00
 -1 5698 8.75000e-01 1.50000e+00 3.75000e+00
 -1 5699 1.00000e+00 1.50000e+00 3.68750e+00
 -1 5700 1.00000e+00 1.75000e+00 3.75000e+00
 -1 5701 9.37500e-01 1.50000e+00 3.75000e+00
 -1 5702 8.75000e-01 1.50000e+00 3.68750e+00
 -1 5703 8.75000e-01 1.75000e+00 3.75000e+00
 -1 5704 1.00000e+00 1.50000e+00 3.87500e+00
 -1 5705 8.75000e-01 1.50000e+00 3.87500e+00
 -1 5706 1.00000e+00 1.50000e+00 3.81250e+00
 -1 5707 1.00000e+00 1.75000e+00 3.87500e+00
 -1 5708 9.37500e-01 1.50000e+00 3.87500e+00
 -1 5709 8.75000e-01 1.50000e+00 3.81250e+00
 -1 5710 8.75000e-01 1.75000e+00 3.87500e+00
 -1 5711 1.00000e+00 1.50000e+00 4.00000e+00
 -1 5712 8.75000e-01 1.50000e+00 4.00000e+00
 -1 5713 1.00000e+00 1.50000e+00 3.93750e+00
 -1 5714 1.00000e+00 1.75000e+00 4.00000e+00
 -1 5715 9.37500e-01 1.50000e+00 4.00000e+00
 -1 5716 8.75000e-01 1.50000e+00 3.93750e+00
 -1 5717 8.75000e-01 1.75000e+00 4.00000e+00
 -1 5718 7.50000e-01 1.50000e+00 0.00000e+00
 -1 5719 7.50000e-01 1.50000e+00 1.25000e-01
 -1 5720 8.12500e-01 1.50000e+00-2.22045e-16
 -1 5721 8.12500e-01 1.50000e+00 1.25000e-01
 -1 5722 7.50000e-01 1.75000e+00 0.00000e+00
 -1 5723 7.50000e-01 1.50000e+00 6.25000e-02
 -1 5724 7.50000e-01 1.75000e+00 1.25000e-01
 -1 5725 7.50000e-01 1.50000e+00 2.50000e-01
 -1 5726 8.12500e-01 1.50000e+00 2.50000e-01
 -1 5727 7.50000e-01 1.50000e+00 1.87500e-01
 -1 5728 7.50000e-01 1.75000e+00 2.50000e-01
 -1 5729 7.50000e-01 1.50000e+00 3.75000e-01
 -1 5730 8.12500e-01 1.50000e+00 3.75000e-01
 -1 5731 7.50000e-01 1.50000e+00 3.12500e-01
 -1 5732 7.50000e-01 1.75000e+00 3.75000e-01
 -1 5733 7.50000e-01 1.50000e+00 5.00000e-01
 -1 5734 8.12500e-01 1.50000e+00 5.00000e-01
 -1 5735 7.50000e-01 1.50000e+00 4.37500e-01
 -1 5736 7.50000e-01 1.75000e+00 5.00000e-01
 -1 5737 7.50000e-01 1.50000e+00 6.25000e-01
 -1 5738 8.12500e-01 1.50000e+00 6.25000e-01
 -1 5739 7.50000e-01 1.50000e+00 5.62500e-01
 -1 5740 7.50000e-01 1.75000e+00 6.25000e-01
 -1 5741 7.50000e-01 1.50000e+00 7.50000e-01
 -1 5742 8.12500e-01 1.50000e+00 7.50000e-01
 -1 5743 7.50000e-01 1.50000e+00 6.87500e-01
 -1 5744 7.50000e-01 1.75000e+00 7.50000e-01
 -1 5745 7.50000e-01 1.50000e+00 8.75000e-01
 -1 5746 8.12500e-01 1.50000e+00 8.75000e-01
 -1 5747 7.50000e-01 1.50000e+00 8.12500e-01
 -1 5748 7.50000e-01 1.75000e+00 8.75000e-01
 -1 5749 7.50000e-01 1.50000e+00 1.00000e+00
 -1 5750 8.12500e-01 1.50000e+00 1.00000e+00
 -1 5751 7.50000e-01 1.50000e+00 9.37500e-01
 -1 5752 7.50000e-01 1.75000e+00 1.00000e+00
 -1 5753 7.50000e-01 1.50000e+00 1.12500e+00
 -1 5754 8.12500e-01 1.50000e+00 1.12500e+00
 -1 5755 7.50000e-01 1.50000e+00 1.06250e+00
 -1 5756 7.50000e-01 1.75000e+00 1.12500e+00
 -1 5757 7.50000e-01 1.50000e+00 1.25000e+00
 -1 5758 8.12500e-01 1.50000e+00 1.25000e+00
 -1 5759 7.50000e-01 1.50000e+00 1.18750e+00
 -1 5760 7.50000e-01 1.75000e+00 1.25000e+00
 -1 5761 7.50000e-01 1.50000e+00 1.37500e+00
 -1 5762 8.12500e-01 1.50000e+00 1.37500e+00
 -1 5763 7.50000e-01 1.50000e+00 1.31250e+00
 -1 5764 7.50000e-01 1.75000e+00 1.37500e+00
 -1 5765 7.50000e-01 1.50000e+00 1.50000e+00
 -1 5766 8.12500e-01 1.50000e+00 1.50000e+00
 -1 5767 7.50000e-01 1.50000e+00 1.43750e+00
 -1 5768 7.50000e-01 1.75000e+00 1.50000e+00
 -1 5769 7.50000e-01 1.50000e+00 1.62500e+00
 -1 5770 8.12500e-01 1.50000e+00 1.62500e+00
 -1 5771 7.50000e-01 1.50000e+00 1.56250e+00
 -1 5772 7.50000e-01 1.75000e+00 1.62500e+00
 -1 5773 7.50000e-01 1.50000e+00 1.75000e+00
 -1 5774 8.12500e-01 1.50000e+00 1.75000e+00
 -1 5775 7.50000e-01 1.50000e+00 1.68750e+00
 -1 5776 7.50000e-01 1.75000e+00 1.75000e+00
 -1 5777 7.50000e-01 1.50000e+00 1.87500e+00
 -1 5778 8.12500e-01 1.50000e+00 1.87500e+00
 -1 5779 7.50000e-01 1.50000e+00 1.81250e+00
 -1 5780 7.50000e-01 1.75000e+00 1.87500e+00
 -1 5781 7.50000e-01 1.50000e+00 2.00000e+00
 -1 5782 8.12500e-01 1.50000e+00 2.00000e+00
 -1 5783 7.50000e-01 1.50000e+00 1.93750e+00
 -1 5784 7.50000e-01 1.75000e+00 2.00000e+00
 -1 5785 7.50000e-01 1.50000e+00 2.12500e+00
 -1 5786 8.12500e-01 1.50000e+00 2.12500e+00
 -1 5787 7.50000e-01 1.50000e+00 2.06250e+00
 -1 5788 7.50000e-01 1.75000e+00 2.12500e+00
 -1 5789 7.50000e-01 1.50000e+00 2.25000e+00
 -1 5790 8.12500e-01 1.50000e+00 2.25000e+00
 -1 5791 7.50000e-01 1.50000e+00 2.18750e+00
 -1 5792 7.50000e-01 1.75000e+00 2.25000e+00
 -1 5793 7.50000e-01 1.50000e+00 2.37500e+00
 -1 5794 8.12500e-01 1.50000e+00 2.37500e+00
 -1 5795 7.50000e-01 1.50000e+00 2.31250e+00
 -1 5796 7.50000e-01 1.75000e+00 2.37500e+00
 -1 5797 7.50000e-01 1.50000e+00 2.50000e+00
 -1 5798 8.12500e-01 1.50000e+00 2.50000e+00
 -1 5799 7.50000e-01 1.50000e+00 2.43750e+00
 -1 5800 7.50000e-01 1.75000e+00 2.50000e+00
 -1 5801 7.50000e-01 1.50000e+00 2.62500e+00
 -1 5802 8.12500e-01 1.50000e+00 2.62500e+00
 -1 5803 7.50000e-01 1.50000e+00 2.56250e+00
 -1 5804 7.50000e-01 1.75000e+00 2.62500e+00
 -1 5805 7.50000e-01 1.50000e+00 2.75000e+00
 -1 5806 8.12500e-01 1.50000e+00 2.75000e+00
 -1 5807 7.50000e-01 1.50000e+00 2.68750e+00
 -1 5808 7.50000e-01 1.75000e+00 2.75000e+00
 -1 5809 7.50000e-01 1.50000e+00 2.87500e+00
 -1 5810 8.12500e-01 1.50000e+00 2.87500e+00
 -1 5811 7.50000e-01 1.50000e+00 2.81250e+00
 -1 5812 7.50000e-01 1.75000e+00 2.87500e+00
 -1 5813 7.50000e-01 1.50000e+00 3.00000e+00
 -1 5814 8.12500e-01 1.50000e+00 3.00000e+00
 -1 5815 7.50000e-01 1.50000e+00 2.93750e+00
 -1 5816 7.50000e-01 1.75000e+00 3.00000e+00
 -1 5817 7.50000e-01 1.50000e+00 3.12500e+00
 -1 5818 8.12500e-01 1.50000e+00 3.12500e+00
 -1 5819 7.50000e-01 1.50000e+00 3.06250e+00
 -1 5820 7.50000e-01 1.75000e+00 3.12500e+00
 -1 5821 7.50000e-01 1.50000e+00 3.25000e+00
 -1 5822 8.12500e-01 1.50000e+00 3.25000e+00
 -1 5823 7.50000e-01 1.50000e+00 3.18750e+00
 -1 5824 7.50000e-01 1.75000e+00 3.25000e+00
 -1 5825 7.50000e-01 1.50000e+00 3.37500e+00
 -1 5826 8.12500e-01 1.50000e+00 3.37500e+00
 -1 5827 7.50000e-01 1.50000e+00 3.31250e+00
 -1 5828 7.50000e-01 1.75000e+00 3.37500e+00
 -1 5829 7.50000e-01 1.50000e+00 3.50000e+00
 -1 5830 8.12500e-01 1.50000e+00 3.50000e+00
 -1 5831 7.50000e-01 1.50000e+00 3.43750e+00
 -1 5832 7.50000e-01 1.75000e+00 3.50000e+00
 -1 5833 7.50000e-01 1.50000e+00 3.62500e+00
 -1 5834 8.12500e-01 1.50000e+00 3.62500e+00
 -1 5835 7.50000e-01 1.50000e+00 3.56250e+00
 -1 5836 7.50000e-01 1.75000e+00 3.62500e+00
 -1 5837 7.50000e-01 1.50000e+00 3.75000e+00
 -1 5838 8.12500e-01 1.50000e+00 3.75000e+00
 -1 5839 7.50000e-01 1.50000e+00 3.68750e+00
 -1 5840 7.50000e-01 1.75000e+00 3.75000e+00
 -1 5841 7.50000e-01 1.50000e+00 3.87500e+00
 -1 5842 8.12500e-01 1.50000e+00 3.87500e+00
 -1 5843 7.50000e-01 1.50000e+00 3.81250e+00
 -1 5844 7.50000e-01 1.75000e+00 3.87500e+00
 -1 5845 7.50000e-01 1.50000e+00 4.00000e+00
 -1 5846 8.12500e-01 1.50000e+00 4.00000e+00
 -1 5847 7.50000e-01 1.50000e+00 3.93750e+00
 -1 5848 7.50000e-01 1.75000e+00 4.00000e+00
 -1 5849 6.25000e-01 1.50000e+00 0.00000e+00
 -1 5850 6.25000e-01 1.50000e+00 1.25000e-01
 -1 5851 6.87500e-01 1.50000e+00 0.00000e+00
 -1 5852 6.87500e-01 1.50000e+00 1.25000e-01
 -1 5853 6.25000e-01 1.75000e+00 4.44089e-16
 -1 5854 6.25000e-01 1.50000e+00 6.25000e-02
 -1 5855 6.25000e-01 1.75000e+00 1.25000e-01
 -1 5856 6.25000e-01 1.50000e+00 2.50000e-01
 -1 5857 6.87500e-01 1.50000e+00 2.50000e-01
 -1 5858 6.25000e-01 1.50000e+00 1.87500e-01
 -1 5859 6.25000e-01 1.75000e+00 2.50000e-01
 -1 5860 6.25000e-01 1.50000e+00 3.75000e-01
 -1 5861 6.87500e-01 1.50000e+00 3.75000e-01
 -1 5862 6.25000e-01 1.50000e+00 3.12500e-01
 -1 5863 6.25000e-01 1.75000e+00 3.75000e-01
 -1 5864 6.25000e-01 1.50000e+00 5.00000e-01
 -1 5865 6.87500e-01 1.50000e+00 5.00000e-01
 -1 5866 6.25000e-01 1.50000e+00 4.37500e-01
 -1 5867 6.25000e-01 1.75000e+00 5.00000e-01
 -1 5868 6.25000e-01 1.50000e+00 6.25000e-01
 -1 5869 6.87500e-01 1.50000e+00 6.25000e-01
 -1 5870 6.25000e-01 1.50000e+00 5.62500e-01
 -1 5871 6.25000e-01 1.75000e+00 6.25000e-01
 -1 5872 6.25000e-01 1.50000e+00 7.50000e-01
 -1 5873 6.87500e-01 1.50000e+00 7.50000e-01
 -1 5874 6.25000e-01 1.50000e+00 6.87500e-01
 -1 5875 6.25000e-01 1.75000e+00 7.50000e-01
 -1 5876 6.25000e-01 1.50000e+00 8.75000e-01
 -1 5877 6.87500e-01 1.50000e+00 8.75000e-01
 -1 5878 6.25000e-01 1.50000e+00 8.12500e-01
 -1 5879 6.25000e-01 1.75000e+00 8.75000e-01
 -1 5880 6.25000e-01 1.50000e+00 1.00000e+00
 -1 5881 6.87500e-01 1.50000e+00 1.00000e+00
 -1 5882 6.25000e-01 1.50000e+00 9.37500e-01
 -1 5883 6.25000e-01 1.75000e+00 1.00000e+00
 -1 5884 6.25000e-01 1.50000e+00 1.12500e+00
 -1 5885 6.87500e-01 1.50000e+00 1.12500e+00
 -1 5886 6.25000e-01 1.50000e+00 1.06250e+00
 -1 5887 6.25000e-01 1.75000e+00 1.12500e+00
 -1 5888 6.25000e-01 1.50000e+00 1.25000e+00
 -1 5889 6.87500e-01 1.50000e+00 1.25000e+00
 -1 5890 6.25000e-01 1.50000e+00 1.18750e+00
 -1 5891 6.25000e-01 1.75000e+00 1.25000e+00
 -1 5892 6.25000e-01 1.50000e+00 1.37500e+00
 -1 5893 6.87500e-01 1.50000e+00 1.37500e+00
 -1 5894 6.25000e-01 1.50000e+00 1.31250e+00
 -1 5895 6.25000e-01 1.75000e+00 1.37500e+00
 -1 5896 6.25000e-01 1.50000e+00 1.50000e+00
 -1 5897 6.87500e-01 1.50000e+00 1.50000e+00
 -1 5898 6.25000e-01 1.50000e+00 1.43750e+00
 -1 5899 6.25000e-01 1.75000e+00 1.50000e+00
 -1 5900 6.25000e-01 1.50000e+00 1.62500e+00
 -1 5901 6.87500e-01 1.50000e+00 1.62500e+00
 -1 5902 6.25000e-01 1.50000e+00 1.56250e+00
 -1 5903 6.25000e-01 1.75000e+00 1.62500e+00
 -1 5904 6.25000e-01 1.50000e+00 1.75000e+00
 -1 5905 6.87500e-01 1.50000e+00 1.75000e+00
 -1 5906 6.25000e-01 1.50000e+00 1.68750e+00
 -1 5907 6.25000e-01 1.75000e+00 1.75000e+00
 -1 5908 6.25000e-01 1.50000e+00 1.87500e+00
 -1 5909 6.87500e-01 1.50000e+00 1.87500e+00
 -1 5910 6.25000e-01 1.50000e+00 1.81250e+00
 -1 5911 6.25000e-01 1.75000e+00 1.87500e+00
 -1 5912 6.25000e-01 1.50000e+00 2.00000e+00
 -1 5913 6.87500e-01 1.50000e+00 2.00000e+00
 -1 5914 6.25000e-01 1.50000e+00 1.93750e+00
 -1 5915 6.25000e-01 1.75000e+00 2.00000e+00
 -1 5916 6.25000e-01 1.50000e+00 2.12500e+00
 -1 5917 6.87500e-01 1.50000e+00 2.12500e+00
 -1 5918 6.25000e-01 1.50000e+00 2.06250e+00
 -1 5919 6.25000e-01 1.75000e+00 2.12500e+00
 -1 5920 6.25000e-01 1.50000e+00 2.25000e+00
 -1 5921 6.87500e-01 1.50000e+00 2.25000e+00
 -1 5922 6.25000e-01 1.50000e+00 2.18750e+00
 -1 5923 6.25000e-01 1.75000e+00 2.25000e+00
 -1 5924 6.25000e-01 1.50000e+00 2.37500e+00
 -1 5925 6.87500e-01 1.50000e+00 2.37500e+00
 -1 5926 6.25000e-01 1.50000e+00 2.31250e+00
 -1 5927 6.25000e-01 1.75000e+00 2.37500e+00
 -1 5928 6.25000e-01 1.50000e+00 2.50000e+00
 -1 5929 6.87500e-01 1.50000e+00 2.50000e+00
 -1 5930 6.25000e-01 1.50000e+00 2.43750e+00
 -1 5931 6.25000e-01 1.75000e+00 2.50000e+00
 -1 5932 6.25000e-01 1.50000e+00 2.62500e+00
 -1 5933 6.87500e-01 1.50000e+00 2.62500e+00
 -1 5934 6.25000e-01 1.50000e+00 2.56250e+00
 -1 5935 6.25000e-01 1.75000e+00 2.62500e+00
 -1 5936 6.25000e-01 1.50000e+00 2.75000e+00
 -1 5937 6.87500e-01 1.50000e+00 2.75000e+00
 -1 5938 6.25000e-01 1.50000e+00 2.68750e+00
 -1 5939 6.25000e-01 1.75000e+00 2.75000e+00
 -1 5940 6.25000e-01 1.50000e+00 2.87500e+00
 -1 5941 6.87500e-01 1.50000e+00 2.87500e+00
 -1 5942 6.25000e-01 1.50000e+00 2.81250e+00
 -1 5943 6.25000e-01 1.75000e+00 2.87500e+00
 -1 5944 6.25000e-01 1.50000e+00 3.00000e+00
 -1 5945 6.87500e-01 1.50000e+00 3.00000e+00
 -1 5946 6.25000e-01 1.50000e+00 2.93750e+00
 -1 5947 6.25000e-01 1.75000e+00 3.00000e+00
 -1 5948 6.25000e-01 1.50000e+00 3.12500e+00
 -1 5949 6.87500e-01 1.50000e+00 3.12500e+00
 -1 5950 6.25000e-01 1.50000e+00 3.06250e+00
 -1 5951 6.25000e-01 1.75000e+00 3.12500e+00
 -1 5952 6.25000e-01 1.50000e+00 3.25000e+00
 -1 5953 6.87500e-01 1.50000e+00 3.25000e+00
 -1 5954 6.25000e-01 1.50000e+00 3.18750e+00
 -1 5955 6.25000e-01 1.75000e+00 3.25000e+00
 -1 5956 6.25000e-01 1.50000e+00 3.37500e+00
 -1 5957 6.87500e-01 1.50000e+00 3.37500e+00
 -1 5958 6.25000e-01 1.50000e+00 3.31250e+00
 -1 5959 6.25000e-01 1.75000e+00 3.37500e+00
 -1 5960 6.25000e-01 1.50000e+00 3.50000e+00
 -1 5961 6.87500e-01 1.50000e+00 3.50000e+00
 -1 5962 6.25000e-01 1.50000e+00 3.43750e+00
 -1 5963 6.25000e-01 1.75000e+00 3.50000e+00
 -1 5964 6.25000e-01 1.50000e+00 3.62500e+00
 -1 5965 6.87500e-01 1.50000e+00 3.62500e+00
 -1 5966 6.25000e-01 1.50000e+00 3.56250e+00
 -1 5967 6.25000e-01 1.75000e+00 3.62500e+00
 -1 5968 6.25000e-01 1.50000e+00 3.75000e+00
 -1 5969 6.87500e-01 1.50000e+00 3.75000e+00
 -1 5970 6.25000e-01 1.50000e+00 3.68750e+00
 -1 5971 6.25000e-01 1.75000e+00 3.75000e+00
 -1 5972 6.25000e-01 1.50000e+00 3.87500e+00
 -1 5973 6.87500e-01 1.50000e+00 3.87500e+00
 -1 5974 6.25000e-01 1.50000e+00 3.81250e+00
 -1 5975 6.25000e-01 1.75000e+00 3.87500e+00
 -1 5976 6.25000e-01 1.50000e+00 4.00000e+00
 -1 5977 6.87500e-01 1.50000e+00 4.00000e+00
 -1 5978 6.25000e-01 1.50000e+00 3.93750e+00
 -1 5979 6.25000e-01 1.75000e+00 4.00000e+00
 -1 5980 5.00000e-01 1.50000e+00 0.00000e+00
 -1 5981 5.00000e-01 1.50000e+00 1.25000e-01
 -1 5982 5.62500e-01 1.50000e+00 0.00000e+00
 -1 5983 5.62500e-01 1.50000e+00 1.25000e-01
 -1 5984 5.00000e-01 1.75000e+00 4.44089e-16
 -1 5985 5.00000e-01 1.50000e+00 6.25000e-02
 -1 5986 5.00000e-01 1.75000e+00 1.25000e-01
 -1 5987 5.00000e-01 1.50000e+00 2.50000e-01
 -1 5988 5.62500e-01 1.50000e+00 2.50000e-01
 -1 5989 5.00000e-01 1.50000e+00 1.87500e-01
 -1 5990 5.00000e-01 1.75000e+00 2.50000e-01
 -1 5991 5.00000e-01 1.50000e+00 3.75000e-01
 -1 5992 5.62500e-01 1.50000e+00 3.75000e-01
 -1 5993 5.00000e-01 1.50000e+00 3.12500e-01
 -1 5994 5.00000e-01 1.75000e+00 3.75000e-01
 -1 5995 5.00000e-01 1.50000e+00 5.00000e-01
 -1 5996 5.62500e-01 1.50000e+00 5.00000e-01
 -1 5997 5.00000e-01 1.50000e+00 4.37500e-01
 -1 5998 5.00000e-01 1.75000e+00 5.00000e-01
 -1 5999 5.00000e-01 1.50000e+00 6.25000e-01
 -1 6000 5.62500e-01 1.50000e+00 6.25000e-01
 -1 6001 5.00000e-01 1.50000e+00 5.62500e-01
 -1 6002 5.00000e-01 1.75000e+00 6.25000e-01
 -1 6003 5.00000e-01 1.50000e+00 7.50000e-01
 -1 6004 5.62500e-01 1.50000e+00 7.50000e-01
 -1 6005 5.00000e-01 1.50000e+00 6.87500e-01
 -1 6006 5.00000e-01 1.75000e+00 7.50000e-01
 -1 6007 5.00000e-01 1.50000e+00 8.75000e-01
 -1 6008 5.62500e-01 1.50000e+00 8.75000e-01
 -1 6009 5.00000e-01 1.50000e+00 8.12500e-01
 -1 6010 5.00000e-01 1.75000e+00 8.75000e-01
 -1 6011 5.00000e-01 1.50000e+00 1.00000e+00
 -1 6012 5.62500e-01 1.50000e+00 1.00000e+00
 -1 6013 5.00000e-01 1.50000e+00 9.37500e-01
 -1 6014 5.00000e-01 1.75000e+00 1.00000e+00
 -1 6015 5.00000e-01 1.50000e+00 1.12500e+00
 -1 6016 5.62500e-01 1.50000e+00 1.12500e+00
 -1 6017 5.00000e-01 1.50000e+00 1.06250e+00
 -1 6018 5.00000e-01 1.75000e+00 1.12500e+00
 -1 6019 5.00000e-01 1.50000e+00 1.25000e+00
 -1 6020 5.62500e-01 1.50000e+00 1.25000e+00
 -1 6021 5.00000e-01 1.50000e+00 1.18750e+00
 -1 6022 5.00000e-01 1.75000e+00 1.25000e+00
 -1 6023 5.00000e-01 1.50000e+00 1.37500e+00
 -1 6024 5.62500e-01 1.50000e+00 1.37500e+00
 -1 6025 5.00000e-01 1.50000e+00 1.31250e+00
 -1 6026 5.00000e-01 1.75000e+00 1.37500e+00
 -1 6027 5.00000e-01 1.50000e+00 1.50000e+00
 -1 6028 5.62500e-01 1.50000e+00 1.50000e+00
 -1 6029 5.00000e-01 1.50000e+00 1.43750e+00
 -1 6030 5.00000e-01 1.75000e+00 1.50000e+00
 -1 6031 5.00000e-01 1.50000e+00 1.62500e+00
 -1 6032 5.62500e-01 1.50000e+00 1.62500e+00
 -1 6033 5.00000e-01 1.50000e+00 1.56250e+00
 -1 6034 5.00000e-01 1.75000e+00 1.62500e+00
 -1 6035 5.00000e-01 1.50000e+00 1.75000e+00
 -1 6036 5.62500e-01 1.50000e+00 1.75000e+00
 -1 6037 5.00000e-01 1.50000e+00 1.68750e+00
 -1 6038 5.00000e-01 1.75000e+00 1.75000e+00
 -1 6039 5.00000e-01 1.50000e+00 1.87500e+00
 -1 6040 5.62500e-01 1.50000e+00 1.87500e+00
 -1 6041 5.00000e-01 1.50000e+00 1.81250e+00
 -1 6042 5.00000e-01 1.75000e+00 1.87500e+00
 -1 6043 5.00000e-01 1.50000e+00 2.00000e+00
 -1 6044 5.62500e-01 1.50000e+00 2.00000e+00
 -1 6045 5.00000e-01 1.50000e+00 1.93750e+00
 -1 6046 5.00000e-01 1.75000e+00 2.00000e+00
 -1 6047 5.00000e-01 1.50000e+00 2.12500e+00
 -1 6048 5.62500e-01 1.50000e+00 2.12500e+00
 -1 6049 5.00000e-01 1.50000e+00 2.06250e+00
 -1 6050 5.00000e-01 1.75000e+00 2.12500e+00
 -1 6051 5.00000e-01 1.50000e+00 2.25000e+00
 -1 6052 5.62500e-01 1.50000e+00 2.25000e+00
 -1 6053 5.00000e-01 1.50000e+00 2.18750e+00
 -1 6054 5.00000e-01 1.75000e+00 2.25000e+00
 -1 6055 5.00000e-01 1.50000e+00 2.37500e+00
 -1 6056 5.62500e-01 1.50000e+00 2.37500e+00
 -1 6057 5.00000e-01 1.50000e+00 2.31250e+00
 -1 6058 5.00000e-01 1.75000e+00 2.37500e+00
 -1 6059 5.00000e-01 1.50000e+00 2.50000e+00
 -1 6060 5.62500e-01 1.50000e+00 2.50000e+00
 -1 6061 5.00000e-01 1.50000e+00 2.43750e+00
 -1 6062 5.00000e-01 1.75000e+00 2.50000e+00
 -1 6063 5.00000e-01 1.50000e+00 2.62500e+00
 -1 6064 5.62500e-01 1.50000e+00 2.62500e+00
 -1 6065 5.00000e-01 1.50000e+00 2.56250e+00
 -1 6066 5.00000e-01 1.75000e+00 2.62500e+00
 -1 6067 5.00000e-01 1.50000e+00 2.75000e+00
 -1 6068 5.62500e-01 1.50000e+00 2.75000e+00
 -1 6069 5.00000e-01 1.50000e+00 2.68750e+00
 -1 6070 5.00000e-01 1.75000e+00 2.75000e+00
 -1 6071 5.00000e-01 1.50000e+00 2.87500e+00
 -1 6072 5.62500e-01 1.50000e+00 2.87500e+00
 -1 6073 5.00000e-01 1.50000e+00 2.81250e+00
 -1 6074 5.00000e-01 1.75000e+00 2.87500e+00
 -1 6075 5.00000e-01 1.50000e+00 3.00000e+00
 -1 6076 5.62500e-01 1.50000e+00 3.00000e+00
 -1 6077 5.00000e-01 1.50000e+00 2.93750e+00
 -1 6078 5.00000e-01 1.75000e+00 3.00000e+00
 -1 6079 5.00000e-01 1.50000e+00 3.12500e+00
 -1 6080 5.62500e-01 1.50000e+00 3.12500e+00
 -1 6081 5.00000e-01 1.50000e+00 3.06250e+00
 -1 6082 5.00000e-01 1.75000e+00 3.12500e+00
 -1 6083 5.00000e-01 1.50000e+00 3.25000e+00
 -1 6084 5.62500e-01 1.50000e+00 3.25000e+00
 -1 6085 5.00000e-01 1.50000e+00 3.18750e+00
 -1 6086 5.00000e-01 1.75000e+00 3.25000e+00
 -1 6087 5.00000e-01 1.50000e+00 3.37500e+00
 -1 6088 5.62500e-01 1.50000e+00 3.37500e+00
 -1 6089 5.00000e-01 1.50000e+00 3.31250e+00
 -1 6090 5.00000e-01 1.75000e+00 3.37500e+00
 -1 6091 5.00000e-01 1.50000e+00 3.50000e+00
 -1 6092 5.62500e-01 1.50000e+00 3.50000e+00
 -1 6093 5.00000e-01 1.50000e+00 3.43750e+00
 -1 6094 5.00000e-01 1.75000e+00 3.50000e+00
 -1 6095 5.00000e-01 1.50000e+00 3.62500e+00
 -1 6096 5.62500e-01 1.50000e+00 3.62500e+00
 -1 6097 5.00000e-01 1.50000e+00 3.56250e+00
 -1 6098 5.00000e-01 1.75000e+00 3.62500e+00
 -1 6099 5.00000e-01 1.50000e+00 3.75000e+00
 -1 6100 5.62500e-01 1.50000e+00 3.75000e+00
 -1 6101 5.00000e-01 1.50000e+00 3.68750e+00
 -1 6102 5.00000e-01 1.75000e+00 3.75000e+00
 -1 6103 5.00000e-01 1.50000e+00 3.87500e+00
 -1 6104 5.62500e-01 1.50000e+00 3.87500e+00
 -1 6105 5.00000e-01 1.50000e+00 3.81250e+00
 -1 6106 5.00000e-01 1.75000e+00 3.87500e+00
 -1 6107 5.00000e-01 1.50000e+00 4.00000e+00
 -1 6108 5.62500e-01 1.50000e+00 4.00000e+00
 -1 6109 5.00000e-01 1.50000e+00 3.93750e+00
 -1 6110 5.00000e-01 1.75000e+00 4.00000e+00
 -1 6111 3.75000e-01 1.50000e+00 0.00000e+00
 -1 6112 3.75000e-01 1.50000e+00 1.25000e-01
 -1 6113 4.37500e-01 1.50000e+00-2.22045e-16
 -1 6114 4.37500e-01 1.50000e+00 1.25000e-01
 -1 6115 3.75000e-01 1.75000e+00-2.22045e-16
 -1 6116 3.75000e-01 1.50000e+00 6.25000e-02
 -1 6117 3.75000e-01 1.75000e+00 1.25000e-01
 -1 6118 3.75000e-01 1.50000e+00 2.50000e-01
 -1 6119 4.37500e-01 1.50000e+00 2.50000e-01
 -1 6120 3.75000e-01 1.50000e+00 1.87500e-01
 -1 6121 3.75000e-01 1.75000e+00 2.50000e-01
 -1 6122 3.75000e-01 1.50000e+00 3.75000e-01
 -1 6123 4.37500e-01 1.50000e+00 3.75000e-01
 -1 6124 3.75000e-01 1.50000e+00 3.12500e-01
 -1 6125 3.75000e-01 1.75000e+00 3.75000e-01
 -1 6126 3.75000e-01 1.50000e+00 5.00000e-01
 -1 6127 4.37500e-01 1.50000e+00 5.00000e-01
 -1 6128 3.75000e-01 1.50000e+00 4.37500e-01
 -1 6129 3.75000e-01 1.75000e+00 5.00000e-01
 -1 6130 3.75000e-01 1.50000e+00 6.25000e-01
 -1 6131 4.37500e-01 1.50000e+00 6.25000e-01
 -1 6132 3.75000e-01 1.50000e+00 5.62500e-01
 -1 6133 3.75000e-01 1.75000e+00 6.25000e-01
 -1 6134 3.75000e-01 1.50000e+00 7.50000e-01
 -1 6135 4.37500e-01 1.50000e+00 7.50000e-01
 -1 6136 3.75000e-01 1.50000e+00 6.87500e-01
 -1 6137 3.75000e-01 1.75000e+00 7.50000e-01
 -1 6138 3.75000e-01 1.50000e+00 8.75000e-01
 -1 6139 4.37500e-01 1.50000e+00 8.75000e-01
 -1 6140 3.75000e-01 1.50000e+00 8.12500e-01
 -1 6141 3.75000e-01 1.75000e+00 8.75000e-01
 -1 6142 3.75000e-01 1.50000e+00 1.00000e+00
 -1 6143 4.37500e-01 1.50000e+00 1.00000e+00
 -1 6144 3.75000e-01 1.50000e+00 9.37500e-01
 -1 6145 3.75000e-01 1.75000e+00 1.00000e+00
 -1 6146 3.75000e-01 1.50000e+00 1.12500e+00
 -1 6147 4.37500e-01 1.50000e+00 1.12500e+00
 -1 6148 3.75000e-01 1.50000e+00 1.06250e+00
 -1 6149 3.75000e-01 1.75000e+00 1.12500e+00
 -1 6150 3.75000e-01 1.50000e+00 1.25000e+00
 -1 6151 4.37500e-01 1.50000e+00 1.25000e+00
 -1 6152 3.75000e-01 1.50000e+00 1.18750e+00
 -1 6153 3.75000e-01 1.75000e+00 1.25000e+00
 -1 6154 3.75000e-01 1.50000e+00 1.37500e+00
 -1 6155 4.37500e-01 1.50000e+00 1.37500e+00
 -1 6156 3.75000e-01 1.50000e+00 1.31250e+00
 -1 6157 3.75000e-01 1.75000e+00 1.37500e+00
 -1 6158 3.75000e-01 1.50000e+00 1.50000e+00
 -1 6159 4.37500e-01 1.50000e+00 1.50000e+00
 -1 6160 3.75000e-01 1.50000e+00 1.43750e+00
 -1 6161 3.75000e-01 1.75000e+00 1.50000e+00
 -1 6162 3.75000e-01 1.50000e+00 1.62500e+00
 -1 6163 4.37500e-01 1.50000e+00 1.62500e+00
 -1 6164 3.75000e-01 1.50000e+00 1.56250e+00
 -1 6165 3.75000e-01 1.75000e+00 1.62500e+00
 -1 6166 3.75000e-01 1.50000e+00 1.75000e+00
 -1 6167 4.37500e-01 1.50000e+00 1.75000e+00
 -1 6168 3.75000e-01 1.50000e+00 1.68750e+00
 -1 6169 3.75000e-01 1.75000e+00 1.75000e+00
 -1 6170 3.75000e-01 1.50000e+00 1.87500e+00
 -1 6171 4.37500e-01 1.50000e+00 1.87500e+00
 -1 6172 3.75000e-01 1.50000e+00 1.81250e+00
 -1 6173 3.75000e-01 1.75000e+00 1.87500e+00
 -1 6174 3.75000e-01 1.50000e+00 2.00000e+00
 -1 6175 4.37500e-01 1.50000e+00 2.00000e+00
 -1 6176 3.75000e-01 1.50000e+00 1.93750e+00
 -1 6177 3.75000e-01 1.75000e+00 2.00000e+00
 -1 6178 3.75000e-01 1.50000e+00 2.12500e+00
 -1 6179 4.37500e-01 1.50000e+00 2.12500e+00
 -1 6180 3.75000e-01 1.50000e+00 2.06250e+00
 -1 6181 3.75000e-01 1.75000e+00 2.12500e+00
 -1 6182 3.75000e-01 1.50000e+00 2.25000e+00
 -1 6183 4.37500e-01 1.50000e+00 2.25000e+00
 -1 6184 3.75000e-01 1.50000e+00 2.18750e+00
 -1 6185 3.75000e-01 1.75000e+00 2.25000e+00
 -1 6186 3.75000e-01 1.50000e+00 2.37500e+00
 -1 6187 4.37500e-01 1.50000e+00 2.37500e+00
 -1 6188 3.75000e-01 1.50000e+00 2.31250e+00
 -1 6189 3.75000e-01 1.75000e+00 2.37500e+00
 -1 6190 3.75000e-01 1.50000e+00 2.50000e+00
 -1 6191 4.37500e-01 1.50000e+00 2.50000e+00
 -1 6192 3.75000e-01 1.50000e+00 2.43750e+00
 -1 6193 3.75000e-01 1.75000e+00 2.50000e+00
 -1 6194 3.75000e-01 1.50000e+00 2.62500e+00
 -1 6195 4.37500e-01 1.50000e+00 2.62500e+00
 -1 6196 3.75000e-01 1.50000e+00 2.56250e+00
 -1 6197 3.75000e-01 1.75000e+00 2.62500e+00
 -1 6198 3.75000e-01 1.50000e+00 2.75000e+00
 -1 6199 4.37500e-01 1.50000e+00 2.75000e+00
 -1 6200 3.75000e-01 1.50000e+00 2.68750e+00
 -1 6201 3.75000e-01 1.75000e+00 2.75000e+00
 -1 6202 3.75000e-01 1.50000e+00 2.87500e+00
 -1 6203 4.37500e-01 1.50000e+00 2.87500e+00
 -1 6204 3.75000e-01 1.50000e+00 2.81250e+00
 -1 6205 3.75000e-01 1.75000e+00 2.87500e+00
 -1 6206 3.75000e-01 1.50000e+00 3.00000e+00
 -1 6207 4.37500e-01 1.50000e+00 3.00000e+00
 -1 6208 3.75000e-01 1.50000e+00 2.93750e+00
 -1 6209 3.75000e-01 1.75000e+00 3.00000e+00
 -1 6210 3.75000e-01 1.50000e+00 3.12500e+00
 -1 6211 4.37500e-01 1.50000e+00 3.12500e+00
 -1 6212 3.75000e-01 1.50000e+00 3.06250e+00
 -1 6213 3.75000e-01 1.75000e+00 3.12500e+00
 -1 6214 3.75000e-01 1.50000e+00 3.25000e+00
 -1 6215 4.37500e-01 1.50000e+00 3.25000e+00
 -1 6216 3.75000e-01 1.50000e+00 3.18750e+00
 -1 6217 3.75000e-01 1.75000e+00 3.25000e+00
 -1 6218 3.75000e-01 1.50000e+00 3.37500e+00
 -1 6219 4.37500e-01 1.50000e+00 3.37500e+00
 -1 6220 3.75000e-01 1.50000e+00 3.31250e+00
 -1 6221 3.75000e-01 1.75000e+00 3.37500e+00
 -1 6222 3.75000e-01 1.50000e+00 3.50000e+00
 -1 6223 4.37500e-01 1.50000e+00 3.50000e+00
 -1 6224 3.75000e-01 1.50000e+00 3.43750e+00
 -1 6225 3.75000e-01 1.75000e+00 3.50000e+00
 -1 6226 3.75000e-01 1.50000e+00 3.62500e+00
 -1 6227 4.37500e-01 1.50000e+00 3.62500e+00
 -1 6228 3.75000e-01 1.50000e+00 3.56250e+00
 -1 6229 3.75000e-01 1.75000e+00 3.62500e+00
 -1 6230 3.75000e-01 1.50000e+00 3.75000e+00
 -1 6231 4.37500e-01 1.50000e+00 3.75000e+00
 -1 6232 3.75000e-01 1.50000e+00 3.68750e+00
 -1 6233 3.75000e-01 1.75000e+00 3.75000e+00
 -1 6234 3.75000e-01 1.50000e+00 3.87500e+00
 -1 6235 4.37500e-01 1.50000e+00 3.87500e+00
 -1 6236 3.75000e-01 1.50000e+00 3.81250e+00
 -1 6237 3.75000e-01 1.75000e+00 3.87500e+00
 -1 6238 3.75000e-01 1.50000e+00 4.00000e+00
 -1 6239 4.37500e-01 1.50000e+00 4.00000e+00
 -1 6240 3.75000e-01 1.50000e+00 3.93750e+00
 -1 6241 3.75000e-01 1.75000e+00 4.00000e+00
 -1 6242 2.50000e-01 1.50000e+00 0.00000e+00
 -1 6243 2.50000e-01 1.50000e+00 1.25000e-01
 -1 6244 3.12500e-01 1.50000e+00 0.00000e+00
 -1 6245 3.12500e-01 1.50000e+00 1.25000e-01
 -1 6246 2.50000e-01 1.75000e+00 0.00000e+00
 -1 6247 2.50000e-01 1.50000e+00 6.25000e-02
 -1 6248 2.50000e-01 1.75000e+00 1.25000e-01
 -1 6249 2.50000e-01 1.50000e+00 2.50000e-01
 -1 6250 3.12500e-01 1.50000e+00 2.50000e-01
 -1 6251 2.50000e-01 1.50000e+00 1.87500e-01
 -1 6252 2.50000e-01 1.75000e+00 2.50000e-01
 -1 6253 2.50000e-01 1.50000e+00 3.75000e-01
 -1 6254 3.12500e-01 1.50000e+00 3.75000e-01
 -1 6255 2.50000e-01 1.50000e+00 3.12500e-01
 -1 6256 2.50000e-01 1.75000e+00 3.75000e-01
 -1 6257 2.50000e-01 1.50000e+00 5.00000e-01
 -1 6258 3.12500e-01 1.50000e+00 5.00000e-01
 -1 6259 2.50000e-01 1.50000e+00 4.37500e-01
 -1 6260 2.50000e-01 1.75000e+00 5.00000e-01
 -1 6261 2.50000e-01 1.50000e+00 6.25000e-01
 -1 6262 3.12500e-01 1.50000e+00 6.25000e-01
 -1 6263 2.50000e-01 1.50000e+00 5.62500e-01
 -1 6264 2.50000e-01 1.75000e+00 6.25000e-01
 -1 6265 2.50000e-01 1.50000e+00 7.50000e-01
 -1 6266 3.12500e-01 1.50000e+00 7.50000e-01
 -1 6267 2.50000e-01 1.50000e+00 6.87500e-01
 -1 6268 2.50000e-01 1.75000e+00 7.50000e-01
 -1 6269 2.50000e-01 1.50000e+00 8.75000e-01
 -1 6270 3.12500e-01 1.50000e+00 8.75000e-01
 -1 6271 2.50000e-01 1.50000e+00 8.12500e-01
 -1 6272 2.50000e-01 1.75000e+00 8.75000e-01
 -1 6273 2.50000e-01 1.50000e+00 1.00000e+00
 -1 6274 3.12500e-01 1.50000e+00 1.00000e+00
 -1 6275 2.50000e-01 1.50000e+00 9.37500e-01
 -1 6276 2.50000e-01 1.75000e+00 1.00000e+00
 -1 6277 2.50000e-01 1.50000e+00 1.12500e+00
 -1 6278 3.12500e-01 1.50000e+00 1.12500e+00
 -1 6279 2.50000e-01 1.50000e+00 1.06250e+00
 -1 6280 2.50000e-01 1.75000e+00 1.12500e+00
 -1 6281 2.50000e-01 1.50000e+00 1.25000e+00
 -1 6282 3.12500e-01 1.50000e+00 1.25000e+00
 -1 6283 2.50000e-01 1.50000e+00 1.18750e+00
 -1 6284 2.50000e-01 1.75000e+00 1.25000e+00
 -1 6285 2.50000e-01 1.50000e+00 1.37500e+00
 -1 6286 3.12500e-01 1.50000e+00 1.37500e+00
 -1 6287 2.50000e-01 1.50000e+00 1.31250e+00
 -1 6288 2.50000e-01 1.75000e+00 1.37500e+00
 -1 6289 2.50000e-01 1.50000e+00 1.50000e+00
 -1 6290 3.12500e-01 1.50000e+00 1.50000e+00
 -1 6291 2.50000e-01 1.50000e+00 1.43750e+00
 -1 6292 2.50000e-01 1.75000e+00 1.50000e+00
 -1 6293 2.50000e-01 1.50000e+00 1.62500e+00
 -1 6294 3.12500e-01 1.50000e+00 1.62500e+00
 -1 6295 2.50000e-01 1.50000e+00 1.56250e+00
 -1 6296 2.50000e-01 1.75000e+00 1.62500e+00
 -1 6297 2.50000e-01 1.50000e+00 1.75000e+00
 -1 6298 3.12500e-01 1.50000e+00 1.75000e+00
 -1 6299 2.50000e-01 1.50000e+00 1.68750e+00
 -1 6300 2.50000e-01 1.75000e+00 1.75000e+00
 -1 6301 2.50000e-01 1.50000e+00 1.87500e+00
 -1 6302 3.12500e-01 1.50000e+00 1.87500e+00
 -1 6303 2.50000e-01 1.50000e+00 1.81250e+00
 -1 6304 2.50000e-01 1.75000e+00 1.87500e+00
 -1 6305 2.50000e-01 1.50000e+00 2.00000e+00
 -1 6306 3.12500e-01 1.50000e+00 2.00000e+00
 -1 6307 2.50000e-01 1.50000e+00 1.93750e+00
 -1 6308 2.50000e-01 1.75000e+00 2.00000e+00
 -1 6309 2.50000e-01 1.50000e+00 2.12500e+00
 -1 6310 3.12500e-01 1.50000e+00 2.12500e+00
 -1 6311 2.50000e-01 1.50000e+00 2.06250e+00
 -1 6312 2.50000e-01 1.75000e+00 2.12500e+00
 -1 6313 2.50000e-01 1.50000e+00 2.25000e+00
 -1 6314 3.12500e-01 1.50000e+00 2.25000e+00
 -1 6315 2.50000e-01 1.50000e+00 2.18750e+00
 -1 6316 2.50000e-01 1.75000e+00 2.25000e+00
 -1 6317 2.50000e-01 1.50000e+00 2.37500e+00
 -1 6318 3.12500e-01 1.50000e+00 2.37500e+00
 -1 6319 2.50000e-01 1.50000e+00 2.31250e+00
 -1 6320 2.50000e-01 1.75000e+00 2.37500e+00
 -1 6321 2.50000e-01 1.50000e+00 2.50000e+00
 -1 6322 3.12500e-01 1.50000e+00 2.50000e+00
 -1 6323 2.50000e-01 1.50000e+00 2.43750e+00
 -1 6324 2.50000e-01 1.75000e+00 2.50000e+00
 -1 6325 2.50000e-01 1.50000e+00 2.62500e+00
 -1 6326 3.12500e-01 1.50000e+00 2.62500e+00
 -1 6327 2.50000e-01 1.50000e+00 2.56250e+00
 -1 6328 2.50000e-01 1.75000e+00 2.62500e+00
 -1 6329 2.50000e-01 1.50000e+00 2.75000e+00
 -1 6330 3.12500e-01 1.50000e+00 2.75000e+00
 -1 6331 2.50000e-01 1.50000e+00 2.68750e+00
 -1 6332 2.50000e-01 1.75000e+00 2.75000e+00
 -1 6333 2.50000e-01 1.50000e+00 2.87500e+00
 -1 6334 3.12500e-01 1.50000e+00 2.87500e+00
 -1 6335 2.50000e-01 1.50000e+00 2.81250e+00
 -1 6336 2.50000e-01 1.75000e+00 2.87500e+00
 -1 6337 2.50000e-01 1.50000e+00 3.00000e+00
 -1 6338 3.12500e-01 1.50000e+00 3.00000e+00
 -1 6339 2.50000e-01 1.50000e+00 2.93750e+00
 -1 6340 2.50000e-01 1.75000e+00 3.00000e+00
 -1 6341 2.50000e-01 1.50000e+00 3.12500e+00
 -1 6342 3.12500e-01 1.50000e+00 3.12500e+00
 -1 6343 2.50000e-01 1.50000e+00 3.06250e+00
 -1 6344 2.50000e-01 1.75000e+00 3.12500e+00
 -1 6345 2.50000e-01 1.50000e+00 3.25000e+00
 -1 6346 3.12500e-01 1.50000e+00 3.25000e+00
 -1 6347 2.50000e-01 1.50000e+00 3.18750e+00
 -1 6348 2.50000e-01 1.75000e+00 3.25000e+00
 -1 6349 2.50000e-01 1.50000e+00 3.37500e+00
 -1 6350 3.12500e-01 1.50000e+00 3.37500e+00
 -1 6351 2.50000e-01 1.50000e+00 3.31250e+00
 -1 6352 2.50000e-01 1.75000e+00 3.37500e+00
 -1 6353 2.50000e-01 1.50000e+00 3.50000e+00
 -1 6354 3.12500e-01 1.50000e+00 3.50000e+00
 -1 6355 2.50000e-01 1.50000e+00 3.43750e+00
 -1 6356 2.50000e-01 1.75000e+00 3.50000e+00
 -1 6357 2.50000e-01 1.50000e+00 3.62500e+00
 -1 6358 3.12500e-01 1.50000e+00 3.62500e+00
 -1 6359 2.50000e-01 1.50000e+00 3.56250e+00
 -1 6360 2.50000e-01 1.75000e+00 3.62500e+00
 -1 6361 2.50000e-01 1.50000e+00 3.75000e+00
 -1 6362 3.12500e-01 1.50000e+00 3.75000e+00
 -1 6363 2.50000e-01 1.50000e+00 3.68750e+00
 -1 6364 2.50000e-01 1.75000e+00 3.75000e+00
 -1 6365 2.50000e-01 1.50000e+00 3.87500e+00
 -1 6366 3.12500e-01 1.50000e+00 3.87500e+00
 -1 6367 2.50000e-01 1.50000e+00 3.81250e+00
 -1 6368 2.50000e-01 1.75000e+00 3.87500e+00
 -1 6369 2.50000e-01 1.50000e+00 4.00000e+00
 -1 6370 3.12500e-01 1.50000e+00 4.00000e+00
 -1 6371 2.50000e-01 1.50000e+00 3.93750e+00
 -1 6372 2.50000e-01 1.75000e+00 4.00000e+00
 -1 6373 1.25000e-01 1.50000e+00-2.22045e-16
 -1 6374 1.25000e-01 1.50000e+00 1.25000e-01
 -1 6375 1.87500e-01 1.50000e+00 0.00000e+00
 -1 6376 1.87500e-01 1.50000e+00 1.25000e-01
 -1 6377 1.25000e-01 1.75000e+00-8.88178e-16
 -1 6378 1.25000e-01 1.50000e+00 6.25000e-02
 -1 6379 1.25000e-01 1.75000e+00 1.25000e-01
 -1 6380 1.25000e-01 1.50000e+00 2.50000e-01
 -1 6381 1.87500e-01 1.50000e+00 2.50000e-01
 -1 6382 1.25000e-01 1.50000e+00 1.87500e-01
 -1 6383 1.25000e-01 1.75000e+00 2.50000e-01
 -1 6384 1.25000e-01 1.50000e+00 3.75000e-01
 -1 6385 1.87500e-01 1.50000e+00 3.75000e-01
 -1 6386 1.25000e-01 1.50000e+00 3.12500e-01
 -1 6387 1.25000e-01 1.75000e+00 3.75000e-01
 -1 6388 1.25000e-01 1.50000e+00 5.00000e-01
 -1 6389 1.87500e-01 1.50000e+00 5.00000e-01
 -1 6390 1.25000e-01 1.50000e+00 4.37500e-01
 -1 6391 1.25000e-01 1.75000e+00 5.00000e-01
 -1 6392 1.25000e-01 1.50000e+00 6.25000e-01
 -1 6393 1.87500e-01 1.50000e+00 6.25000e-01
 -1 6394 1.25000e-01 1.50000e+00 5.62500e-01
 -1 6395 1.25000e-01 1.75000e+00 6.25000e-01
 -1 6396 1.25000e-01 1.50000e+00 7.50000e-01
 -1 6397 1.87500e-01 1.50000e+00 7.50000e-01
 -1 6398 1.25000e-01 1.50000e+00 6.87500e-01
 -1 6399 1.25000e-01 1.75000e+00 7.50000e-01
 -1 6400 1.25000e-01 1.50000e+00 8.75000e-01
 -1 6401 1.87500e-01 1.50000e+00 8.75000e-01
 -1 6402 1.25000e-01 1.50000e+00 8.12500e-01
 -1 6403 1.25000e-01 1.75000e+00 8.75000e-01
 -1 6404 1.25000e-01 1.50000e+00 1.00000e+00
 -1 6405 1.87500e-01 1.50000e+00 1.00000e+00
 -1 6406 1.25000e-01 1.50000e+00 9.37500e-01
 -1 6407 1.25000e-01 1.75000e+00 1.00000e+00
 -1 6408 1.25000e-01 1.50000e+00 1.12500e+00
 -1 6409 1.87500e-01 1.50000e+00 1.12500e+00
 -1 6410 1.25000e-01 1.50000e+00 1.06250e+00
 -1 6411 1.25000e-01 1.75000e+00 1.12500e+00
 -1 6412 1.25000e-01 1.50000e+00 1.25000e+00
 -1 6413 1.87500e-01 1.50000e+00 1.25000e+00
 -1 6414 1.25000e-01 1.50000e+00 1.18750e+00
 -1 6415 1.25000e-01 1.75000e+00 1.25000e+00
 -1 6416 1.25000e-01 1.50000e+00 1.37500e+00
 -1 6417 1.87500e-01 1.50000e+00 1.37500e+00
 -1 6418 1.25000e-01 1.50000e+00 1.31250e+00
 -1 6419 1.25000e-01 1.75000e+00 1.37500e+00
 -1 6420 1.25000e-01 1.50000e+00 1.50000e+00
 -1 6421 1.87500e-01 1.50000e+00 1.50000e+00
 -1 6422 1.25000e-01 1.50000e+00 1.43750e+00
 -1 6423 1.25000e-01 1.75000e+00 1.50000e+00
 -1 6424 1.25000e-01 1.50000e+00 1.62500e+00
 -1 6425 1.87500e-01 1.50000e+00 1.62500e+00
 -1 6426 1.25000e-01 1.50000e+00 1.56250e+00
 -1 6427 1.25000e-01 1.75000e+00 1.62500e+00
 -1 6428 1.25000e-01 1.50000e+00 1.75000e+00
 -1 6429 1.87500e-01 1.50000e+00 1.75000e+00
 -1 6430 1.25000e-01 1.50000e+00 1.68750e+00
 -1 6431 1.25000e-01 1.75000e+00 1.75000e+00
 -1 6432 1.25000e-01 1.50000e+00 1.87500e+00
 -1 6433 1.87500e-01 1.50000e+00 1.87500e+00
 -1 6434 1.25000e-01 1.50000e+00 1.81250e+00
 -1 6435 1.25000e-01 1.75000e+00 1.87500e+00
 -1 6436 1.25000e-01 1.50000e+00 2.00000e+00
 -1 6437 1.87500e-01 1.50000e+00 2.00000e+00
 -1 6438 1.25000e-01 1.50000e+00 1.93750e+00
 -1 6439 1.25000e-01 1.75000e+00 2.00000e+00
 -1 6440 1.25000e-01 1.50000e+00 2.12500e+00
 -1 6441 1.87500e-01 1.50000e+00 2.12500e+00
 -1 6442 1.25000e-01 1.50000e+00 2.06250e+00
 -1 6443 1.25000e-01 1.75000e+00 2.12500e+00
 -1 6444 1.25000e-01 1.50000e+00 2.25000e+00
 -1 6445 1.87500e-01 1.50000e+00 2.25000e+00
 -1 6446 1.25000e-01 1.50000e+00 2.18750e+00
 -1 6447 1.25000e-01 1.75000e+00 2.25000e+00
 -1 6448 1.25000e-01 1.50000e+00 2.37500e+00
 -1 6449 1.87500e-01 1.50000e+00 2.37500e+00
 -1 6450 1.25000e-01 1.50000e+00 2.31250e+00
 -1 6451 1.25000e-01 1.75000e+00 2.37500e+00
 -1 6452 1.25000e-01 1.50000e+00 2.50000e+00
 -1 6453 1.87500e-01 1.50000e+00 2.50000e+00
 -1 6454 1.25000e-01 1.50000e+00 2.43750e+00
 -1 6455 1.25000e-01 1.75000e+00 2.50000e+00
 -1 6456 1.25000e-01 1.50000e+00 2.62500e+00
 -1 6457 1.87500e-01 1.50000e+00 2.62500e+00
 -1 6458 1.25000e-01 1.50000e+00 2.56250e+00
 -1 6459 1.25000e-01 1.75000e+00 2.62500e+00
 -1 6460 1.25000e-01 1.50000e+00 2.75000e+00
 -1 6461 1.87500e-01 1.50000e+00 2.75000e+00
 -1 6462 1.25000e-01 1.50000e+00 2.68750e+00
 -1 6463 1.25000e-01 1.75000e+00 2.75000e+00
 -1 6464 1.25000e-01 1.50000e+00 2.87500e+00
 -1 6465 1.87500e-01 1.50000e+00 2.87500e+00
 -1 6466 1.25000e-01 1.50000e+00 2.81250e+00
 -1 6467 1.25000e-01 1.75000e+00 2.87500e+00
 -1 6468 1.25000e-01 1.50000e+00 3.00000e+00
 -1 6469 1.87500e-01 1.50000e+00 3.00000e+00
 -1 6470 1.25000e-01 1.50000e+00 2.93750e+00
 -1 6471 1.25000e-01 1.75000e+00 3.00000e+00
 -1 6472 1.25000e-01 1.50000e+00 3.12500e+00
 -1 6473 1.87500e-01 1.50000e+00 3.12500e+00
 -1 6474 1.25000e-01 1.50000e+00 3.06250e+00
 -1 6475 1.25000e-01 1.75000e+00 3.12500e+00
 -1 6476 1.25000e-01 1.50000e+00 3.25000e+00
 -1 6477 1.87500e-01 1.50000e+00 3.25000e+00
 -1 6478 1.25000e-01 1.50000e+00 3.18750e+00
 -1 6479 1.25000e-01 1.75000e+00 3.25000e+00
 -1 6480 1.25000e-01 1.50000e+00 3.37500e+00
 -1 6481 1.87500e-01 1.50000e+00 3.37500e+00
 -1 6482 1.25000e-01 1.50000e+00 3.31250e+00
 -1 6483 1.25000e-01 1.75000e+00 3.37500e+00
 -1 6484 1.25000e-01 1.50000e+00 3.50000e+00
 -1 6485 1.87500e-01 1.50000e+00 3.50000e+00
 -1 6486 1.25000e-01 1.50000e+00 3.43750e+00
 -1 6487 1.25000e-01 1.75000e+00 3.50000e+00
 -1 6488 1.25000e-01 1.50000e+00 3.62500e+00
 -1 6489 1.87500e-01 1.50000e+00 3.62500e+00
 -1 6490 1.25000e-01 1.50000e+00 3.56250e+00
 -1 6491 1.25000e-01 1.75000e+00 3.62500e+00
 -1 6492 1.25000e-01 1.50000e+00 3.75000e+00
 -1 6493 1.87500e-01 1.50000e+00 3.75000e+00
 -1 6494 1.25000e-01 1.50000e+00 3.68750e+00
 -1 6495 1.25000e-01 1.75000e+00 3.75000e+00
 -1 6496 1.25000e-01 1.50000e+00 3.87500e+00
 -1 6497 1.87500e-01 1.50000e+00 3.87500e+00
 -1 6498 1.25000e-01 1.50000e+00 3.81250e+00
 -1 6499 1.25000e-01 1.75000e+00 3.87500e+00
 -1 6500 1.25000e-01 1.50000e+00 4.00000e+00
 -1 6501 1.87500e-01 1.50000e+00 4.00000e+00
 -1 6502 1.25000e-01 1.50000e+00 3.93750e+00
 -1 6503 1.25000e-01 1.75000e+00 4.00000e+00
 -1 6504 0.00000e+00 1.50000e+00 0.00000e+00
 -1 6505-1.11022e-16 1.50000e+00 1.25000e-01
 -1 6506 6.25000e-02 1.50000e+00 0.00000e+00
 -1 6507 6.25000e-02 1.50000e+00 1.25000e-01
 -1 6508 0.00000e+00 1.75000e+00 0.00000e+00
 -1 6509 0.00000e+00 1.50000e+00 6.25000e-02
 -1 6510 0.00000e+00 1.75000e+00 1.25000e-01
 -1 6511 0.00000e+00 1.50000e+00 2.50000e-01
 -1 6512 6.25000e-02 1.50000e+00 2.50000e-01
 -1 6513 0.00000e+00 1.50000e+00 1.87500e-01
 -1 6514-1.11022e-16 1.75000e+00 2.50000e-01
 -1 6515 0.00000e+00 1.50000e+00 3.75000e-01
 -1 6516 6.25000e-02 1.50000e+00 3.75000e-01
 -1 6517 0.00000e+00 1.50000e+00 3.12500e-01
 -1 6518 0.00000e+00 1.75000e+00 3.75000e-01
 -1 6519 0.00000e+00 1.50000e+00 5.00000e-01
 -1 6520 6.25000e-02 1.50000e+00 5.00000e-01
 -1 6521-1.11022e-16 1.50000e+00 4.37500e-01
 -1 6522-1.11022e-16 1.75000e+00 5.00000e-01
 -1 6523 0.00000e+00 1.50000e+00 6.25000e-01
 -1 6524 6.25000e-02 1.50000e+00 6.25000e-01
 -1 6525 0.00000e+00 1.50000e+00 5.62500e-01
 -1 6526 0.00000e+00 1.75000e+00 6.25000e-01
 -1 6527-1.11022e-16 1.50000e+00 7.50000e-01
 -1 6528 6.25000e-02 1.50000e+00 7.50000e-01
 -1 6529 0.00000e+00 1.50000e+00 6.87500e-01
 -1 6530 0.00000e+00 1.75000e+00 7.50000e-01
 -1 6531 0.00000e+00 1.50000e+00 8.75000e-01
 -1 6532 6.25000e-02 1.50000e+00 8.75000e-01
 -1 6533-1.11022e-16 1.50000e+00 8.12500e-01
 -1 6534 0.00000e+00 1.75000e+00 8.75000e-01
 -1 6535 0.00000e+00 1.50000e+00 1.00000e+00
 -1 6536 6.25000e-02 1.50000e+00 1.00000e+00
 -1 6537 0.00000e+00 1.50000e+00 9.37500e-01
 -1 6538 0.00000e+00 1.75000e+00 1.00000e+00
 -1 6539-1.11022e-16 1.50000e+00 1.12500e+00
 -1 6540 6.25000e-02 1.50000e+00 1.12500e+00
 -1 6541-1.11022e-16 1.50000e+00 1.06250e+00
 -1 6542-1.11022e-16 1.75000e+00 1.12500e+00
 -1 6543 0.00000e+00 1.50000e+00 1.25000e+00
 -1 6544 6.25000e-02 1.50000e+00 1.25000e+00
 -1 6545 0.00000e+00 1.50000e+00 1.18750e+00
 -1 6546 0.00000e+00 1.75000e+00 1.25000e+00
 -1 6547-1.11022e-16 1.50000e+00 1.37500e+00
 -1 6548 6.25000e-02 1.50000e+00 1.37500e+00
 -1 6549 1.11022e-16 1.50000e+00 1.31250e+00
 -1 6550 0.00000e+00 1.75000e+00 1.37500e+00
 -1 6551 0.00000e+00 1.50000e+00 1.50000e+00
 -1 6552 6.25000e-02 1.50000e+00 1.50000e+00
 -1 6553-1.11022e-16 1.50000e+00 1.43750e+00
 -1 6554 0.00000e+00 1.75000e+00 1.50000e+00
 -1 6555 0.00000e+00 1.50000e+00 1.62500e+00
 -1 6556 6.25000e-02 1.50000e+00 1.62500e+00
 -1 6557 0.00000e+00 1.50000e+00 1.56250e+00
 -1 6558 0.00000e+00 1.75000e+00 1.62500e+00
 -1 6559 0.00000e+00 1.50000e+00 1.75000e+00
 -1 6560 6.25000e-02 1.50000e+00 1.75000e+00
 -1 6561-3.33067e-16 1.50000e+00 1.68750e+00
 -1 6562-1.11022e-16 1.75000e+00 1.75000e+00
 -1 6563 0.00000e+00 1.50000e+00 1.87500e+00
 -1 6564 6.25000e-02 1.50000e+00 1.87500e+00
 -1 6565 0.00000e+00 1.50000e+00 1.81250e+00
 -1 6566 0.00000e+00 1.75000e+00 1.87500e+00
 -1 6567-3.33067e-16 1.50000e+00 2.00000e+00
 -1 6568 6.25000e-02 1.50000e+00 2.00000e+00
 -1 6569 0.00000e+00 1.50000e+00 1.93750e+00
 -1 6570 0.00000e+00 1.75000e+00 2.00000e+00
 -1 6571 0.00000e+00 1.50000e+00 2.12500e+00
 -1 6572 6.25000e-02 1.50000e+00 2.12500e+00
 -1 6573 0.00000e+00 1.50000e+00 2.06250e+00
 -1 6574 0.00000e+00 1.75000e+00 2.12500e+00
 -1 6575 0.00000e+00 1.50000e+00 2.25000e+00
 -1 6576 6.25000e-02 1.50000e+00 2.25000e+00
 -1 6577 0.00000e+00 1.50000e+00 2.18750e+00
 -1 6578-3.33067e-16 1.75000e+00 2.25000e+00
 -1 6579 0.00000e+00 1.50000e+00 2.37500e+00
 -1 6580 6.25000e-02 1.50000e+00 2.37500e+00
 -1 6581-3.33067e-16 1.50000e+00 2.31250e+00
 -1 6582-1.11022e-16 1.75000e+00 2.37500e+00
 -1 6583 0.00000e+00 1.50000e+00 2.50000e+00
 -1 6584 6.25000e-02 1.50000e+00 2.50000e+00
 -1 6585 0.00000e+00 1.50000e+00 2.43750e+00
 -1 6586 0.00000e+00 1.75000e+00 2.50000e+00
 -1 6587-3.33067e-16 1.50000e+00 2.62500e+00
 -1 6588 6.25000e-02 1.50000e+00 2.62500e+00
 -1 6589 0.00000e+00 1.50000e+00 2.56250e+00
 -1 6590 1.11022e-16 1.75000e+00 2.62500e+00
 -1 6591 0.00000e+00 1.50000e+00 2.75000e+00
 -1 6592 6.25000e-02 1.50000e+00 2.75000e+00
 -1 6593-3.33067e-16 1.50000e+00 2.68750e+00
 -1 6594 0.00000e+00 1.75000e+00 2.75000e+00
 -1 6595 0.00000e+00 1.50000e+00 2.87500e+00
 -1 6596 6.25000e-02 1.50000e+00 2.87500e+00
 -1 6597 0.00000e+00 1.50000e+00 2.81250e+00
 -1 6598 0.00000e+00 1.75000e+00 2.87500e+00
 -1 6599 0.00000e+00 1.50000e+00 3.00000e+00
 -1 6600 6.25000e-02 1.50000e+00 3.00000e+00
 -1 6601-3.33067e-16 1.50000e+00 2.93750e+00
 -1 6602-1.11022e-16 1.75000e+00 3.00000e+00
 -1 6603 0.00000e+00 1.50000e+00 3.12500e+00
 -1 6604 6.25000e-02 1.50000e+00 3.12500e+00
 -1 6605 0.00000e+00 1.50000e+00 3.06250e+00
 -1 6606 0.00000e+00 1.75000e+00 3.12500e+00
 -1 6607-3.33067e-16 1.50000e+00 3.25000e+00
 -1 6608 6.25000e-02 1.50000e+00 3.25000e+00
 -1 6609 0.00000e+00 1.50000e+00 3.18750e+00
 -1 6610 1.11022e-16 1.75000e+00 3.25000e+00
 -1 6611 0.00000e+00 1.50000e+00 3.37500e+00
 -1 6612 6.25000e-02 1.50000e+00 3.37500e+00
 -1 6613 0.00000e+00 1.50000e+00 3.31250e+00
 -1 6614 0.00000e+00 1.75000e+00 3.37500e+00
 -1 6615 0.00000e+00 1.50000e+00 3.50000e+00
 -1 6616 6.25000e-02 1.50000e+00 3.50000e+00
 -1 6617 0.00000e+00 1.50000e+00 3.43750e+00
 -1 6618 0.00000e+00 1.75000e+00 3.50000e+00
 -1 6619 0.00000e+00 1.50000e+00 3.62500e+00
 -1 6620 6.25000e-02 1.50000e+00 3.62500e+00
 -1 6621-3.33067e-16 1.50000e+00 3.56250e+00
 -1 6622-1.11022e-16 1.75000e+00 3.62500e+00
 -1 6623 0.00000e+00 1.50000e+00 3.75000e+00
 -1 6624 6.25000e-02 1.50000e+00 3.75000e+00
 -1 6625 0.00000e+00 1.50000e+00 3.68750e+00
 -1 6626 0.00000e+00 1.75000e+00 3.75000e+00
 -1 6627-3.33067e-16 1.50000e+00 3.87500e+00
 -1 6628 6.25000e-02 1.50000e+00 3.87500e+00
 -1 6629 0.00000e+00 1.50000e+00 3.81250e+00
 -1 6630 1.11022e-16 1.75000e+00 3.87500e+00
 -1 6631 0.00000e+00 1.50000e+00 4.00000e+00
 -1 6632 6.25000e-02 1.50000e+00 4.00000e+00
 -1 6633 0.00000e+00 1.50000e+00 3.93750e+00
 -1 6634 0.00000e+00 1.75000e+00 4.00000e+00
 -1 6635 1.00000e+00 1.00000e+00 0.00000e+00
 -1 6636 1.00000e+00 1.00000e+00 1.25000e-01
 -1 6637 8.75000e-01 1.00000e+00 0.00000e+00
 -1 6638 8.75000e-01 1.00000e+00 1.25000e-01
 -1 6639 1.00000e+00 1.25000e+00 0.00000e+00
 -1 6640 1.00000e+00 1.00000e+00 6.25000e-02
 -1 6641 1.00000e+00 1.25000e+00 1.25000e-01
 -1 6642 9.37500e-01 1.00000e+00 0.00000e+00
 -1 6643 9.37500e-01 1.00000e+00 1.25000e-01
 -1 6644 8.75000e-01 1.25000e+00 4.44089e-16
 -1 6645 8.75000e-01 1.00000e+00 6.25000e-02
 -1 6646 8.75000e-01 1.25000e+00 1.25000e-01
 -1 6647 1.00000e+00 1.00000e+00 2.50000e-01
 -1 6648 8.75000e-01 1.00000e+00 2.50000e-01
 -1 6649 1.00000e+00 1.00000e+00 1.87500e-01
 -1 6650 1.00000e+00 1.25000e+00 2.50000e-01
 -1 6651 9.37500e-01 1.00000e+00 2.50000e-01
 -1 6652 8.75000e-01 1.00000e+00 1.87500e-01
 -1 6653 8.75000e-01 1.25000e+00 2.50000e-01
 -1 6654 1.00000e+00 1.00000e+00 3.75000e-01
 -1 6655 8.75000e-01 1.00000e+00 3.75000e-01
 -1 6656 1.00000e+00 1.00000e+00 3.12500e-01
 -1 6657 1.00000e+00 1.25000e+00 3.75000e-01
 -1 6658 9.37500e-01 1.00000e+00 3.75000e-01
 -1 6659 8.75000e-01 1.00000e+00 3.12500e-01
 -1 6660 8.75000e-01 1.25000e+00 3.75000e-01
 -1 6661 1.00000e+00 1.00000e+00 5.00000e-01
 -1 6662 8.75000e-01 1.00000e+00 5.00000e-01
 -1 6663 1.00000e+00 1.00000e+00 4.37500e-01
 -1 6664 1.00000e+00 1.25000e+00 5.00000e-01
 -1 6665 9.37500e-01 1.00000e+00 5.00000e-01
 -1 6666 8.75000e-01 1.00000e+00 4.37500e-01
 -1 6667 8.75000e-01 1.25000e+00 5.00000e-01
 -1 6668 1.00000e+00 1.00000e+00 6.25000e-01
 -1 6669 8.75000e-01 1.00000e+00 6.25000e-01
 -1 6670 1.00000e+00 1.00000e+00 5.62500e-01
 -1 6671 1.00000e+00 1.25000e+00 6.25000e-01
 -1 6672 9.37500e-01 1.00000e+00 6.25000e-01
 -1 6673 8.75000e-01 1.00000e+00 5.62500e-01
 -1 6674 8.75000e-01 1.25000e+00 6.25000e-01
 -1 6675 1.00000e+00 1.00000e+00 7.50000e-01
 -1 6676 8.75000e-01 1.00000e+00 7.50000e-01
 -1 6677 1.00000e+00 1.00000e+00 6.87500e-01
 -1 6678 1.00000e+00 1.25000e+00 7.50000e-01
 -1 6679 9.37500e-01 1.00000e+00 7.50000e-01
 -1 6680 8.75000e-01 1.00000e+00 6.87500e-01
 -1 6681 8.75000e-01 1.25000e+00 7.50000e-01
 -1 6682 1.00000e+00 1.00000e+00 8.75000e-01
 -1 6683 8.75000e-01 1.00000e+00 8.75000e-01
 -1 6684 1.00000e+00 1.00000e+00 8.12500e-01
 -1 6685 1.00000e+00 1.25000e+00 8.75000e-01
 -1 6686 9.37500e-01 1.00000e+00 8.75000e-01
 -1 6687 8.75000e-01 1.00000e+00 8.12500e-01
 -1 6688 8.75000e-01 1.25000e+00 8.75000e-01
 -1 6689 1.00000e+00 1.00000e+00 1.00000e+00
 -1 6690 8.75000e-01 1.00000e+00 1.00000e+00
 -1 6691 1.00000e+00 1.00000e+00 9.37500e-01
 -1 6692 1.00000e+00 1.25000e+00 1.00000e+00
 -1 6693 9.37500e-01 1.00000e+00 1.00000e+00
 -1 6694 8.75000e-01 1.00000e+00 9.37500e-01
 -1 6695 8.75000e-01 1.25000e+00 1.00000e+00
 -1 6696 1.00000e+00 1.00000e+00 1.12500e+00
 -1 6697 8.75000e-01 1.00000e+00 1.12500e+00
 -1 6698 1.00000e+00 1.00000e+00 1.06250e+00
 -1 6699 1.00000e+00 1.25000e+00 1.12500e+00
 -1 6700 9.37500e-01 1.00000e+00 1.12500e+00
 -1 6701 8.75000e-01 1.00000e+00 1.06250e+00
 -1 6702 8.75000e-01 1.25000e+00 1.12500e+00
 -1 6703 1.00000e+00 1.00000e+00 1.25000e+00
 -1 6704 8.75000e-01 1.00000e+00 1.25000e+00
 -1 6705 1.00000e+00 1.00000e+00 1.18750e+00
 -1 6706 1.00000e+00 1.25000e+00 1.25000e+00
 -1 6707 9.37500e-01 1.00000e+00 1.25000e+00
 -1 6708 8.75000e-01 1.00000e+00 1.18750e+00
 -1 6709 8.75000e-01 1.25000e+00 1.25000e+00
 -1 6710 1.00000e+00 1.00000e+00 1.37500e+00
 -1 6711 8.75000e-01 1.00000e+00 1.37500e+00
 -1 6712 1.00000e+00 1.00000e+00 1.31250e+00
 -1 6713 1.00000e+00 1.25000e+00 1.37500e+00
 -1 6714 9.37500e-01 1.00000e+00 1.37500e+00
 -1 6715 8.75000e-01 1.00000e+00 1.31250e+00
 -1 6716 8.75000e-01 1.25000e+00 1.37500e+00
 -1 6717 1.00000e+00 1.00000e+00 1.50000e+00
 -1 6718 8.75000e-01 1.00000e+00 1.50000e+00
 -1 6719 1.00000e+00 1.00000e+00 1.43750e+00
 -1 6720 1.00000e+00 1.25000e+00 1.50000e+00
 -1 6721 9.37500e-01 1.00000e+00 1.50000e+00
 -1 6722 8.75000e-01 1.00000e+00 1.43750e+00
 -1 6723 8.75000e-01 1.25000e+00 1.50000e+00
 -1 6724 1.00000e+00 1.00000e+00 1.62500e+00
 -1 6725 8.75000e-01 1.00000e+00 1.62500e+00
 -1 6726 1.00000e+00 1.00000e+00 1.56250e+00
 -1 6727 1.00000e+00 1.25000e+00 1.62500e+00
 -1 6728 9.37500e-01 1.00000e+00 1.62500e+00
 -1 6729 8.75000e-01 1.00000e+00 1.56250e+00
 -1 6730 8.75000e-01 1.25000e+00 1.62500e+00
 -1 6731 1.00000e+00 1.00000e+00 1.75000e+00
 -1 6732 8.75000e-01 1.00000e+00 1.75000e+00
 -1 6733 1.00000e+00 1.00000e+00 1.68750e+00
 -1 6734 1.00000e+00 1.25000e+00 1.75000e+00
 -1 6735 9.37500e-01 1.00000e+00 1.75000e+00
 -1 6736 8.75000e-01 1.00000e+00 1.68750e+00
 -1 6737 8.75000e-01 1.25000e+00 1.75000e+00
 -1 6738 1.00000e+00 1.00000e+00 1.87500e+00
 -1 6739 8.75000e-01 1.00000e+00 1.87500e+00
 -1 6740 1.00000e+00 1.00000e+00 1.81250e+00
 -1 6741 1.00000e+00 1.25000e+00 1.87500e+00
 -1 6742 9.37500e-01 1.00000e+00 1.87500e+00
 -1 6743 8.75000e-01 1.00000e+00 1.81250e+00
 -1 6744 8.75000e-01 1.25000e+00 1.87500e+00
 -1 6745 1.00000e+00 1.00000e+00 2.00000e+00
 -1 6746 8.75000e-01 1.00000e+00 2.00000e+00
 -1 6747 1.00000e+00 1.00000e+00 1.93750e+00
 -1 6748 1.00000e+00 1.25000e+00 2.00000e+00
 -1 6749 9.37500e-01 1.00000e+00 2.00000e+00
 -1 6750 8.75000e-01 1.00000e+00 1.93750e+00
 -1 6751 8.75000e-01 1.25000e+00 2.00000e+00
 -1 6752 1.00000e+00 1.00000e+00 2.12500e+00
 -1 6753 8.75000e-01 1.00000e+00 2.12500e+00
 -1 6754 1.00000e+00 1.00000e+00 2.06250e+00
 -1 6755 1.00000e+00 1.25000e+00 2.12500e+00
 -1 6756 9.37500e-01 1.00000e+00 2.12500e+00
 -1 6757 8.75000e-01 1.00000e+00 2.06250e+00
 -1 6758 8.75000e-01 1.25000e+00 2.12500e+00
 -1 6759 1.00000e+00 1.00000e+00 2.25000e+00
 -1 6760 8.75000e-01 1.00000e+00 2.25000e+00
 -1 6761 1.00000e+00 1.00000e+00 2.18750e+00
 -1 6762 1.00000e+00 1.25000e+00 2.25000e+00
 -1 6763 9.37500e-01 1.00000e+00 2.25000e+00
 -1 6764 8.75000e-01 1.00000e+00 2.18750e+00
 -1 6765 8.75000e-01 1.25000e+00 2.25000e+00
 -1 6766 1.00000e+00 1.00000e+00 2.37500e+00
 -1 6767 8.75000e-01 1.00000e+00 2.37500e+00
 -1 6768 1.00000e+00 1.00000e+00 2.31250e+00
 -1 6769 1.00000e+00 1.25000e+00 2.37500e+00
 -1 6770 9.37500e-01 1.00000e+00 2.37500e+00
 -1 6771 8.75000e-01 1.00000e+00 2.31250e+00
 -1 6772 8.75000e-01 1.25000e+00 2.37500e+00
 -1 6773 1.00000e+00 1.00000e+00 2.50000e+00
 -1 6774 8.75000e-01 1.00000e+00 2.50000e+00
 -1 6775 1.00000e+00 1.00000e+00 2.43750e+00
 -1 6776 1.00000e+00 1.25000e+00 2.50000e+00
 -1 6777 9.37500e-01 1.00000e+00 2.50000e+00
 -1 6778 8.75000e-01 1.00000e+00 2.43750e+00
 -1 6779 8.75000e-01 1.25000e+00 2.50000e+00
 -1 6780 1.00000e+00 1.00000e+00 2.62500e+00
 -1 6781 8.75000e-01 1.00000e+00 2.62500e+00
 -1 6782 1.00000e+00 1.00000e+00 2.56250e+00
 -1 6783 1.00000e+00 1.25000e+00 2.62500e+00
 -1 6784 9.37500e-01 1.00000e+00 2.62500e+00
 -1 6785 8.75000e-01 1.00000e+00 2.56250e+00
 -1 6786 8.75000e-01 1.25000e+00 2.62500e+00
 -1 6787 1.00000e+00 1.00000e+00 2.75000e+00
 -1 6788 8.75000e-01 1.00000e+00 2.75000e+00
 -1 6789 1.00000e+00 1.00000e+00 2.68750e+00
 -1 6790 1.00000e+00 1.25000e+00 2.75000e+00
 -1 6791 9.37500e-01 1.00000e+00 2.75000e+00
 -1 6792 8.75000e-01 1.00000e+00 2.68750e+00
 -1 6793 8.75000e-01 1.25000e+00 2.75000e+00
 -1 6794 1.00000e+00 1.00000e+00 2.87500e+00
 -1 6795 8.75000e-01 1.00000e+00 2.87500e+00
 -1 6796 1.00000e+00 1.00000e+00 2.81250e+00
 -1 6797 1.00000e+00 1.25000e+00 2.87500e+00
 -1 6798 9.37500e-01 1.00000e+00 2.87500e+00
 -1 6799 8.75000e-01 1.00000e+00 2.81250e+00
 -1 6800 8.75000e-01 1.25000e+00 2.87500e+00
 -1 6801 1.00000e+00 1.00000e+00 3.00000e+00
 -1 6802 8.75000e-01 1.00000e+00 3.00000e+00
 -1 6803 1.00000e+00 1.00000e+00 2.93750e+00
 -1 6804 1.00000e+00 1.25000e+00 3.00000e+00
 -1 6805 9.37500e-01 1.00000e+00 3.00000e+00
 -1 6806 8.75000e-01 1.00000e+00 2.93750e+00
 -1 6807 8.75000e-01 1.25000e+00 3.00000e+00
 -1 6808 1.00000e+00 1.00000e+00 3.12500e+00
 -1 6809 8.75000e-01 1.00000e+00 3.12500e+00
 -1 6810 1.00000e+00 1.00000e+00 3.06250e+00
 -1 6811 1.00000e+00 1.25000e+00 3.12500e+00
 -1 6812 9.37500e-01 1.00000e+00 3.12500e+00
 -1 6813 8.75000e-01 1.00000e+00 3.06250e+00
 -1 6814 8.75000e-01 1.25000e+00 3.12500e+00
 -1 6815 1.00000e+00 1.00000e+00 3.25000e+00
 -1 6816 8.75000e-01 1.00000e+00 3.25000e+00
 -1 6817 1.00000e+00 1.00000e+00 3.18750e+00
 -1 6818 1.00000e+00 1.25000e+00 3.25000e+00
 -1 6819 9.37500e-01 1.00000e+00 3.25000e+00
 -1 6820 8.75000e-01 1.00000e+00 3.18750e+00
 -1 6821 8.75000e-01 1.25000e+00 3.25000e+00
 -1 6822 1.00000e+00 1.00000e+00 3.37500e+00
 -1 6823 8.75000e-01 1.00000e+00 3.37500e+00
 -1 6824 1.00000e+00 1.00000e+00 3.31250e+00
 -1 6825 1.00000e+00 1.25000e+00 3.37500e+00
 -1 6826 9.37500e-01 1.00000e+00 3.37500e+00
 -1 6827 8.75000e-01 1.00000e+00 3.31250e+00
 -1 6828 8.75000e-01 1.25000e+00 3.37500e+00
 -1 6829 1.00000e+00 1.00000e+00 3.50000e+00
 -1 6830 8.75000e-01 1.00000e+00 3.50000e+00
 -1 6831 1.00000e+00 1.00000e+00 3.43750e+00
 -1 6832 1.00000e+00 1.25000e+00 3.50000e+00
 -1 6833 9.37500e-01 1.00000e+00 3.50000e+00
 -1 6834 8.75000e-01 1.00000e+00 3.43750e+00
 -1 6835 8.75000e-01 1.25000e+00 3.50000e+00
 -1 6836 1.00000e+00 1.00000e+00 3.62500e+00
 -1 6837 8.75000e-01 1.00000e+00 3.62500e+00
 -1 6838 1.00000e+00 1.00000e+00 3.56250e+00
 -1 6839 1.00000e+00 1.25000e+00 3.62500e+00
 -1 6840 9.37500e-01 1.00000e+00 3.62500e+00
 -1 6841 8.75000e-01 1.00000e+00 3.56250e+00
 -1 6842 8.75000e-01 1.25000e+00 3.62500e+00
 -1 6843 1.00000e+00 1.00000e+00 3.75000e+00
 -1 6844 8.75000e-01 1.00000e+00 3.75000e+00
 -1 6845 1.00000e+00 1.00000e+00 3.68750e+00
 -1 6846 1.00000e+00 1.25000e+00 3.75000e+00
 -1 6847 9.37500e-01 1.00000e+00 3.75000e+00
 -1 6848 8.75000e-01 1.00000e+00 3.68750e+00
 -1 6849 8.75000e-01 1.25000e+00 3.75000e+00
 -1 6850 1.00000e+00 1.00000e+00 3.87500e+00
 -1 6851 8.75000e-01 1.00000e+00 3.87500e+00
 -1 6852 1.00000e+00 1.00000e+00 3.81250e+00
 -1 6853 1.00000e+00 1.25000e+00 3.87500e+00
 -1 6854 9.37500e-01 1.00000e+00 3.87500e+00
 -1 6855 8.75000e-01 1.00000e+00 3.81250e+00
 -1 6856 8.75000e-01 1.25000e+00 3.87500e+00
 -1 6857 1.00000e+00 1.00000e+00 4.00000e+00
 -1 6858 8.75000e-01 1.00000e+00 4.00000e+00
 -1 6859 1.00000e+00 1.00000e+00 3.93750e+00
 -1 6860 1.00000e+00 1.25000e+00 4.00000e+00
 -1 6861 9.37500e-01 1.00000e+00 4.00000e+00
 -1 6862 8.75000e-01 1.00000e+00 3.93750e+00
 -1 6863 8.75000e-01 1.25000e+00 4.00000e+00
 -1 6864 7.50000e-01 1.00000e+00 0.00000e+00
 -1 6865 7.50000e-01 1.00000e+00 1.25000e-01
 -1 6866 8.12500e-01 1.00000e+00 0.00000e+00
 -1 6867 8.12500e-01 1.00000e+00 1.25000e-01
 -1 6868 7.50000e-01 1.25000e+00 0.00000e+00
 -1 6869 7.50000e-01 1.00000e+00 6.25000e-02
 -1 6870 7.50000e-01 1.25000e+00 1.25000e-01
 -1 6871 7.50000e-01 1.00000e+00 2.50000e-01
 -1 6872 8.12500e-01 1.00000e+00 2.50000e-01
 -1 6873 7.50000e-01 1.00000e+00 1.87500e-01
 -1 6874 7.50000e-01 1.25000e+00 2.50000e-01
 -1 6875 7.50000e-01 1.00000e+00 3.75000e-01
 -1 6876 8.12500e-01 1.00000e+00 3.75000e-01
 -1 6877 7.50000e-01 1.00000e+00 3.12500e-01
 -1 6878 7.50000e-01 1.25000e+00 3.75000e-01
 -1 6879 7.50000e-01 1.00000e+00 5.00000e-01
 -1 6880 8.12500e-01 1.00000e+00 5.00000e-01
 -1 6881 7.50000e-01 1.00000e+00 4.37500e-01
 -1 6882 7.50000e-01 1.25000e+00 5.00000e-01
 -1 6883 7.50000e-01 1.00000e+00 6.25000e-01
 -1 6884 8.12500e-01 1.00000e+00 6.25000e-01
 -1 6885 7.50000e-01 1.00000e+00 5.62500e-01
 -1 6886 7.50000e-01 1.25000e+00 6.25000e-01
 -1 6887 7.50000e-01 1.00000e+00 7.50000e-01
 -1 6888 8.12500e-01 1.00000e+00 7.50000e-01
 -1 6889 7.50000e-01 1.00000e+00 6.87500e-01
 -1 6890 7.50000e-01 1.25000e+00 7.50000e-01
 -1 6891 7.50000e-01 1.00000e+00 8.75000e-01
 -1 6892 8.12500e-01 1.00000e+00 8.75000e-01
 -1 6893 7.50000e-01 1.00000e+00 8.12500e-01
 -1 6894 7.50000e-01 1.25000e+00 8.75000e-01
 -1 6895 7.50000e-01 1.00000e+00 1.00000e+00
 -1 6896 8.12500e-01 1.00000e+00 1.00000e+00
 -1 6897 7.50000e-01 1.00000e+00 9.37500e-01
 -1 6898 7.50000e-01 1.25000e+00 1.00000e+00
 -1 6899 7.50000e-01 1.00000e+00 1.12500e+00
 -1 6900 8.12500e-01 1.00000e+00 1.12500e+00
 -1 6901 7.50000e-01 1.00000e+00 1.06250e+00
 -1 6902 7.50000e-01 1.25000e+00 1.12500e+00
 -1 6903 7.50000e-01 1.00000e+00 1.25000e+00
 -1 6904 8.12500e-01 1.00000e+00 1.25000e+00
 -1 6905 7.50000e-01 1.00000e+00 1.18750e+00
 -1 6906 7.50000e-01 1.25000e+00 1.25000e+00
 -1 6907 7.50000e-01 1.00000e+00 1.37500e+00
 -1 6908 8.12500e-01 1.00000e+00 1.37500e+00
 -1 6909 7.50000e-01 1.00000e+00 1.31250e+00
 -1 6910 7.50000e-01 1.25000e+00 1.37500e+00
 -1 6911 7.50000e-01 1.00000e+00 1.50000e+00
 -1 6912 8.12500e-01 1.00000e+00 1.50000e+00
 -1 6913 7.50000e-01 1.00000e+00 1.43750e+00
 -1 6914 7.50000e-01 1.25000e+00 1.50000e+00
 -1 6915 7.50000e-01 1.00000e+00 1.62500e+00
 -1 6916 8.12500e-01 1.00000e+00 1.62500e+00
 -1 6917 7.50000e-01 1.00000e+00 1.56250e+00
 -1 6918 7.50000e-01 1.25000e+00 1.62500e+00
 -1 6919 7.50000e-01 1.00000e+00 1.75000e+00
 -1 6920 8.12500e-01 1.00000e+00 1.75000e+00
 -1 6921 7.50000e-01 1.00000e+00 1.68750e+00
 -1 6922 7.50000e-01 1.25000e+00 1.75000e+00
 -1 6923 7.50000e-01 1.00000e+00 1.87500e+00
 -1 6924 8.12500e-01 1.00000e+00 1.87500e+00
 -1 6925 7.50000e-01 1.00000e+00 1.81250e+00
 -1 6926 7.50000e-01 1.25000e+00 1.87500e+00
 -1 6927 7.50000e-01 1.00000e+00 2.00000e+00
 -1 6928 8.12500e-01 1.00000e+00 2.00000e+00
 -1 6929 7.50000e-01 1.00000e+00 1.93750e+00
 -1 6930 7.50000e-01 1.25000e+00 2.00000e+00
 -1 6931 7.50000e-01 1.00000e+00 2.12500e+00
 -1 6932 8.12500e-01 1.00000e+00 2.12500e+00
 -1 6933 7.50000e-01 1.00000e+00 2.06250e+00
 -1 6934 7.50000e-01 1.25000e+00 2.12500e+00
 -1 6935 7.50000e-01 1.00000e+00 2.25000e+00
 -1 6936 8.12500e-01 1.00000e+00 2.25000e+00
 -1 6937 7.50000e-01 1.00000e+00 2.18750e+00
 -1 6938 7.50000e-01 1.25000e+00 2.25000e+00
 -1 6939 7.50000e-01 1.00000e+00 2.37500e+00
 -1 6940 8.12500e-01 1.00000e+00 2.37500e+00
 -1 6941 7.50000e-01 1.00000e+00 2.31250e+00
 -1 6942 7.50000e-01 1.25000e+00 2.37500e+00
 -1 6943 7.50000e-01 1.00000e+00 2.50000e+00
 -1 6944 8.12500e-01 1.00000e+00 2.50000e+00
 -1 6945 7.50000e-01 1.00000e+00 2.43750e+00
 -1 6946 7.50000e-01 1.25000e+00 2.50000e+00
 -1 6947 7.50000e-01 1.00000e+00 2.62500e+00
 -1 6948 8.12500e-01 1.00000e+00 2.62500e+00
 -1 6949 7.50000e-01 1.00000e+00 2.56250e+00
 -1 6950 7.50000e-01 1.25000e+00 2.62500e+00
 -1 6951 7.50000e-01 1.00000e+00 2.75000e+00
 -1 6952 8.12500e-01 1.00000e+00 2.75000e+00
 -1 6953 7.50000e-01 1.00000e+00 2.68750e+00
 -1 6954 7.50000e-01 1.25000e+00 2.75000e+00
 -1 6955 7.50000e-01 1.00000e+00 2.87500e+00
 -1 6956 8.12500e-01 1.00000e+00 2.87500e+00
 -1 6957 7.50000e-01 1.00000e+00 2.81250e+00
 -1 6958 7.50000e-01 1.25000e+00 2.87500e+00
 -1 6959 7.50000e-01 1.00000e+00 3.00000e+00
 -1 6960 8.12500e-01 1.00000e+00 3.00000e+00
 -1 6961 7.50000e-01 1.00000e+00 2.93750e+00
 -1 6962 7.50000e-01 1.25000e+00 3.00000e+00
 -1 6963 7.50000e-01 1.00000e+00 3.12500e+00
 -1 6964 8.12500e-01 1.00000e+00 3.12500e+00
 -1 6965 7.50000e-01 1.00000e+00 3.06250e+00
 -1 6966 7.50000e-01 1.25000e+00 3.12500e+00
 -1 6967 7.50000e-01 1.00000e+00 3.25000e+00
 -1 6968 8.12500e-01 1.00000e+00 3.25000e+00
 -1 6969 7.50000e-01 1.00000e+00 3.18750e+00
 -1 6970 7.50000e-01 1.25000e+00 3.25000e+00
 -1 6971 7.50000e-01 1.00000e+00 3.37500e+00
 -1 6972 8.12500e-01 1.00000e+00 3.37500e+00
 -1 6973 7.50000e-01 1.00000e+00 3.31250e+00
 -1 6974 7.50000e-01 1.25000e+00 3.37500e+00
 -1 6975 7.50000e-01 1.00000e+00 3.50000e+00
 -1 6976 8.12500e-01 1.00000e+00 3.50000e+00
 -1 6977 7.50000e-01 1.00000e+00 3.43750e+00
 -1 6978 7.50000e-01 1.25000e+00 3.50000e+00
 -1 6979 7.50000e-01 1.00000e+00 3.62500e+00
 -1 6980 8.12500e-01 1.00000e+00 3.62500e+00
 -1 6981 7.50000e-01 1.00000e+00 3.56250e+00
 -1 6982 7.50000e-01 1.25000e+00 3.62500e+00
 -1 6983 7.50000e-01 1.00000e+00 3.75000e+00
 -1 6984 8.12500e-01 1.00000e+00 3.75000e+00
 -1 6985 7.50000e-01 1.00000e+00 3.68750e+00
 -1 6986 7.50000e-01 1.25000e+00 3.75000e+00
 -1 6987 7.50000e-01 1.00000e+00 3.87500e+00
 -1 6988 8.12500e-01 1.00000e+00 3.87500e+00
 -1 6989 7.50000e-01 1.00000e+00 3.81250e+00
 -1 6990 7.50000e-01 1.25000e+00 3.87500e+00
 -1 6991 7.50000e-01 1.00000e+00 4.00000e+00
 -1 6992 8.12500e-01 1.00000e+00 4.00000e+00
 -1 6993 7.50000e-01 1.00000e+00 3.93750e+00
 -1 6994 7.50000e-01 1.25000e+00 4.00000e+00
 -1 6995 6.25000e-01 1.00000e+00 0.00000e+00
 -1 6996 6.25000e-01 1.00000e+00 1.25000e-01
 -1 6997 6.87500e-01 1.00000e+00 0.00000e+00
 -1 6998 6.87500e-01 1.00000e+00 1.25000e-01
 -1 6999 6.25000e-01 1.25000e+00 0.00000e+00
 -1 7000 6.25000e-01 1.00000e+00 6.25000e-02
 -1 7001 6.25000e-01 1.25000e+00 1.25000e-01
 -1 7002 6.25000e-01 1.00000e+00 2.50000e-01
 -1 7003 6.87500e-01 1.00000e+00 2.50000e-01
 -1 7004 6.25000e-01 1.00000e+00 1.87500e-01
 -1 7005 6.25000e-01 1.25000e+00 2.50000e-01
 -1 7006 6.25000e-01 1.00000e+00 3.75000e-01
 -1 7007 6.87500e-01 1.00000e+00 3.75000e-01
 -1 7008 6.25000e-01 1.00000e+00 3.12500e-01
 -1 7009 6.25000e-01 1.25000e+00 3.75000e-01
 -1 7010 6.25000e-01 1.00000e+00 5.00000e-01
 -1 7011 6.87500e-01 1.00000e+00 5.00000e-01
 -1 7012 6.25000e-01 1.00000e+00 4.37500e-01
 -1 7013 6.25000e-01 1.25000e+00 5.00000e-01
 -1 7014 6.25000e-01 1.00000e+00 6.25000e-01
 -1 7015 6.87500e-01 1.00000e+00 6.25000e-01
 -1 7016 6.25000e-01 1.00000e+00 5.62500e-01
 -1 7017 6.25000e-01 1.25000e+00 6.25000e-01
 -1 7018 6.25000e-01 1.00000e+00 7.50000e-01
 -1 7019 6.87500e-01 1.00000e+00 7.50000e-01
 -1 7020 6.25000e-01 1.00000e+00 6.87500e-01
 -1 7021 6.25000e-01 1.25000e+00 7.50000e-01
 -1 7022 6.25000e-01 1.00000e+00 8.75000e-01
 -1 7023 6.87500e-01 1.00000e+00 8.75000e-01
 -1 7024 6.25000e-01 1.00000e+00 8.12500e-01
 -1 7025 6.25000e-01 1.25000e+00 8.75000e-01
 -1 7026 6.25000e-01 1.00000e+00 1.00000e+00
 -1 7027 6.87500e-01 1.00000e+00 1.00000e+00
 -1 7028 6.25000e-01 1.00000e+00 9.37500e-01
 -1 7029 6.25000e-01 1.25000e+00 1.00000e+00
 -1 7030 6.25000e-01 1.00000e+00 1.12500e+00
 -1 7031 6.87500e-01 1.00000e+00 1.12500e+00
 -1 7032 6.25000e-01 1.00000e+00 1.06250e+00
 -1 7033 6.25000e-01 1.25000e+00 1.12500e+00
 -1 7034 6.25000e-01 1.00000e+00 1.25000e+00
 -1 7035 6.87500e-01 1.00000e+00 1.25000e+00
 -1 7036 6.25000e-01 1.00000e+00 1.18750e+00
 -1 7037 6.25000e-01 1.25000e+00 1.25000e+00
 -1 7038 6.25000e-01 1.00000e+00 1.37500e+00
 -1 7039 6.87500e-01 1.00000e+00 1.37500e+00
 -1 7040 6.25000e-01 1.00000e+00 1.31250e+00
 -1 7041 6.25000e-01 1.25000e+00 1.37500e+00
 -1 7042 6.25000e-01 1.00000e+00 1.50000e+00
 -1 7043 6.87500e-01 1.00000e+00 1.50000e+00
 -1 7044 6.25000e-01 1.00000e+00 1.43750e+00
 -1 7045 6.25000e-01 1.25000e+00 1.50000e+00
 -1 7046 6.25000e-01 1.00000e+00 1.62500e+00
 -1 7047 6.87500e-01 1.00000e+00 1.62500e+00
 -1 7048 6.25000e-01 1.00000e+00 1.56250e+00
 -1 7049 6.25000e-01 1.25000e+00 1.62500e+00
 -1 7050 6.25000e-01 1.00000e+00 1.75000e+00
 -1 7051 6.87500e-01 1.00000e+00 1.75000e+00
 -1 7052 6.25000e-01 1.00000e+00 1.68750e+00
 -1 7053 6.25000e-01 1.25000e+00 1.75000e+00
 -1 7054 6.25000e-01 1.00000e+00 1.87500e+00
 -1 7055 6.87500e-01 1.00000e+00 1.87500e+00
 -1 7056 6.25000e-01 1.00000e+00 1.81250e+00
 -1 7057 6.25000e-01 1.25000e+00 1.87500e+00
 -1 7058 6.25000e-01 1.00000e+00 2.00000e+00
 -1 7059 6.87500e-01 1.00000e+00 2.00000e+00
 -1 7060 6.25000e-01 1.00000e+00 1.93750e+00
 -1 7061 6.25000e-01 1.25000e+00 2.00000e+00
 -1 7062 6.25000e-01 1.00000e+00 2.12500e+00
 -1 7063 6.87500e-01 1.00000e+00 2.12500e+00
 -1 7064 6.25000e-01 1.00000e+00 2.06250e+00
 -1 7065 6.25000e-01 1.25000e+00 2.12500e+00
 -1 7066 6.25000e-01 1.00000e+00 2.25000e+00
 -1 7067 6.87500e-01 1.00000e+00 2.25000e+00
 -1 7068 6.25000e-01 1.00000e+00 2.18750e+00
 -1 7069 6.25000e-01 1.25000e+00 2.25000e+00
 -1 7070 6.25000e-01 1.00000e+00 2.37500e+00
 -1 7071 6.87500e-01 1.00000e+00 2.37500e+00
 -1 7072 6.25000e-01 1.00000e+00 2.31250e+00
 -1 7073 6.25000e-01 1.25000e+00 2.37500e+00
 -1 7074 6.25000e-01 1.00000e+00 2.50000e+00
 -1 7075 6.87500e-01 1.00000e+00 2.50000e+00
 -1 7076 6.25000e-01 1.00000e+00 2.43750e+00
 -1 7077 6.25000e-01 1.25000e+00 2.50000e+00
 -1 7078 6.25000e-01 1.00000e+00 2.62500e+00
 -1 7079 6.87500e-01 1.00000e+00 2.62500e+00
 -1 7080 6.25000e-01 1.00000e+00 2.56250e+00
 -1 7081 6.25000e-01 1.25000e+00 2.62500e+00
 -1 7082 6.25000e-01 1.00000e+00 2.75000e+00
 -1 7083 6.87500e-01 1.00000e+00 2.75000e+00
 -1 7084 6.25000e-01 1.00000e+00 2.68750e+00
 -1 7085 6.25000e-01 1.25000e+00 2.75000e+00
 -1 7086 6.25000e-01 1.00000e+00 2.87500e+00
 -1 7087 6.87500e-01 1.00000e+00 2.87500e+00
 -1 7088 6.25000e-01 1.00000e+00 2.81250e+00
 -1 7089 6.25000e-01 1.25000e+00 2.87500e+00
 -1 7090 6.25000e-01 1.00000e+00 3.00000e+00
 -1 7091 6.87500e-01 1.00000e+00 3.00000e+00
 -1 7092 6.25000e-01 1.00000e+00 2.93750e+00
 -1 7093 6.25000e-01 1.25000e+00 3.00000e+00
 -1 7094 6.25000e-01 1.00000e+00 3.12500e+00
 -1 7095 6.87500e-01 1.00000e+00 3.12500e+00
 -1 7096 6.25000e-01 1.00000e+00 3.06250e+00
 -1 7097 6.25000e-01 1.25000e+00 3.12500e+00
 -1 7098 6.25000e-01 1.00000e+00 3.25000e+00
 -1 7099 6.87500e-01 1.00000e+00 3.25000e+00
 -1 7100 6.25000e-01 1.00000e+00 3.18750e+00
 -1 7101 6.25000e-01 1.25000e+00 3.25000e+00
 -1 7102 6.25000e-01 1.00000e+00 3.37500e+00
 -1 7103 6.87500e-01 1.00000e+00 3.37500e+00
 -1 7104 6.25000e-01 1.00000e+00 3.31250e+00
 -1 7105 6.25000e-01 1.25000e+00 3.37500e+00
 -1 7106 6.25000e-01 1.00000e+00 3.50000e+00
 -1 7107 6.87500e-01 1.00000e+00 3.50000e+00
 -1 7108 6.25000e-01 1.00000e+00 3.43750e+00
 -1 7109 6.25000e-01 1.25000e+00 3.50000e+00
 -1 7110 6.25000e-01 1.00000e+00 3.62500e+00
 -1 7111 6.87500e-01 1.00000e+00 3.62500e+00
 -1 7112 6.25000e-01 1.00000e+00 3.56250e+00
 -1 7113 6.25000e-01 1.25000e+00 3.62500e+00
 -1 7114 6.25000e-01 1.00000e+00 3.75000e+00
 -1 7115 6.87500e-01 1.00000e+00 3.75000e+00
 -1 7116 6.25000e-01 1.00000e+00 3.68750e+00
 -1 7117 6.25000e-01 1.25000e+00 3.75000e+00
 -1 7118 6.25000e-01 1.00000e+00 3.87500e+00
 -1 7119 6.87500e-01 1.00000e+00 3.87500e+00
 -1 7120 6.25000e-01 1.00000e+00 3.81250e+00
 -1 7121 6.25000e-01 1.25000e+00 3.87500e+00
 -1 7122 6.25000e-01 1.00000e+00 4.00000e+00
 -1 7123 6.87500e-01 1.00000e+00 4.00000e+00
 -1 7124 6.25000e-01 1.00000e+00 3.93750e+00
 -1 7125 6.25000e-01 1.25000e+00 4.00000e+00
 -1 7126 5.00000e-01 1.00000e+00 0.00000e+00
 -1 7127 5.00000e-01 1.00000e+00 1.25000e-01
 -1 7128 5.62500e-01 1.00000e+00 0.00000e+00
 -1 7129 5.62500e-01 1.00000e+00 1.25000e-01
 -1 7130 5.00000e-01 1.25000e+00-8.88178e-16
 -1 7131 5.00000e-01 1.00000e+00 6.25000e-02
 -1 7132 5.00000e-01 1.25000e+00 1.25000e-01
 -1 7133 5.00000e-01 1.00000e+00 2.50000e-01
 -1 7134 5.62500e-01 1.00000e+00 2.50000e-01
 -1 7135 5.00000e-01 1.00000e+00 1.87500e-01
 -1 7136 5.00000e-01 1.25000e+00 2.50000e-01
 -1 7137 5.00000e-01 1.00000e+00 3.75000e-01
 -1 7138 5.62500e-01 1.00000e+00 3.75000e-01
 -1 7139 5.00000e-01 1.00000e+00 3.12500e-01
 -1 7140 5.00000e-01 1.25000e+00 3.75000e-01
 -1 7141 5.00000e-01 1.00000e+00 5.00000e-01
 -1 7142 5.62500e-01 1.00000e+00 5.00000e-01
 -1 7143 5.00000e-01 1.00000e+00 4.37500e-01
 -1 7144 5.00000e-01 1.25000e+00 5.00000e-01
 -1 7145 5.00000e-01 1.00000e+00 6.25000e-01
 -1 7146 5.62500e-01 1.00000e+00 6.25000e-01
 -1 7147 5.00000e-01 1.00000e+00 5.62500e-01
 -1 7148 5.00000e-01 1.25000e+00 6.25000e-01
 -1 7149 5.00000e-01 1.00000e+00 7.50000e-01
 -1 7150 5.62500e-01 1.00000e+00 7.50000e-01
 -1 7151 5.00000e-01 1.00000e+00 6.87500e-01
 -1 7152 5.00000e-01 1.25000e+00 7.50000e-01
 -1 7153 5.00000e-01 1.00000e+00 8.75000e-01
 -1 7154 5.62500e-01 1.00000e+00 8.75000e-01
 -1 7155 5.00000e-01 1.00000e+00 8.12500e-01
 -1 7156 5.00000e-01 1.25000e+00 8.75000e-01
 -1 7157 5.00000e-01 1.00000e+00 1.00000e+00
 -1 7158 5.62500e-01 1.00000e+00 1.00000e+00
 -1 7159 5.00000e-01 1.00000e+00 9.37500e-01
 -1 7160 5.00000e-01 1.25000e+00 1.00000e+00
 -1 7161 5.00000e-01 1.00000e+00 1.12500e+00
 -1 7162 5.62500e-01 1.00000e+00 1.12500e+00
 -1 7163 5.00000e-01 1.00000e+00 1.06250e+00
 -1 7164 5.00000e-01 1.25000e+00 1.12500e+00
 -1 7165 5.00000e-01 1.00000e+00 1.25000e+00
 -1 7166 5.62500e-01 1.00000e+00 1.25000e+00
 -1 7167 5.00000e-01 1.00000e+00 1.18750e+00
 -1 7168 5.00000e-01 1.25000e+00 1.25000e+00
 -1 7169 5.00000e-01 1.00000e+00 1.37500e+00
 -1 7170 5.62500e-01 1.00000e+00 1.37500e+00
 -1 7171 5.00000e-01 1.00000e+00 1.31250e+00
 -1 7172 5.00000e-01 1.25000e+00 1.37500e+00
 -1 7173 5.00000e-01 1.00000e+00 1.50000e+00
 -1 7174 5.62500e-01 1.00000e+00 1.50000e+00
 -1 7175 5.00000e-01 1.00000e+00 1.43750e+00
 -1 7176 5.00000e-01 1.25000e+00 1.50000e+00
 -1 7177 5.00000e-01 1.00000e+00 1.62500e+00
 -1 7178 5.62500e-01 1.00000e+00 1.62500e+00
 -1 7179 5.00000e-01 1.00000e+00 1.56250e+00
 -1 7180 5.00000e-01 1.25000e+00 1.62500e+00
 -1 7181 5.00000e-01 1.00000e+00 1.75000e+00
 -1 7182 5.62500e-01 1.00000e+00 1.75000e+00
 -1 7183 5.00000e-01 1.00000e+00 1.68750e+00
 -1 7184 5.00000e-01 1.25000e+00 1.75000e+00
 -1 7185 5.00000e-01 1.00000e+00 1.87500e+00
 -1 7186 5.62500e-01 1.00000e+00 1.87500e+00
 -1 7187 5.00000e-01 1.00000e+00 1.81250e+00
 -1 7188 5.00000e-01 1.25000e+00 1.87500e+00
 -1 7189 5.00000e-01 1.00000e+00 2.00000e+00
 -1 7190 5.62500e-01 1.00000e+00 2.00000e+00
 -1 7191 5.00000e-01 1.00000e+00 1.93750e+00
 -1 7192 5.00000e-01 1.25000e+00 2.00000e+00
 -1 7193 5.00000e-01 1.00000e+00 2.12500e+00
 -1 7194 5.62500e-01 1.00000e+00 2.12500e+00
 -1 7195 5.00000e-01 1.00000e+00 2.06250e+00
 -1 7196 5.00000e-01 1.25000e+00 2.12500e+00
 -1 7197 5.00000e-01 1.00000e+00 2.25000e+00
 -1 7198 5.62500e-01 1.00000e+00 2.25000e+00
 -1 7199 5.00000e-01 1.00000e+00 2.18750e+00
 -1 7200 5.00000e-01 1.25000e+00 2.25000e+00
 -1 7201 5.00000e-01 1.00000e+00 2.37500e+00
 -1 7202 5.62500e-01 1.00000e+00 2.37500e+00
 -1 7203 5.00000e-01 1.00000e+00 2.31250e+00
 -1 7204 5.00000e-01 1.25000e+00 2.37500e+00
 -1 7205 5.00000e-01 1.00000e+00 2.50000e+00
 -1 7206 5.62500e-01 1.00000e+00 2.50000e+00
 -1 7207 5.00000e-01 1.00000e+00 2.43750e+00
 -1 7208 5.00000e-01 1.25000e+00 2.50000e+00
 -1 7209 5.00000e-01 1.00000e+00 2.62500e+00
 -1 7210 5.62500e-01 1.00000e+00 2.62500e+00
 -1 7211 5.00000e-01 1.00000e+00 2.56250e+00
 -1 7212 5.00000e-01 1.25000e+00 2.62500e+00
 -1 7213 5.00000e-01 1.00000e+00 2.75000e+00
 -1 7214 5.62500e-01 1.00000e+00 2.75000e+00
 -1 7215 5.00000e-01 1.00000e+00 2.68750e+00
 -1 7216 5.00000e-01 1.25000e+00 2.75000e+00
 -1 7217 5.00000e-01 1.00000e+00 2.87500e+00
 -1 7218 5.62500e-01 1.00000e+00 2.87500e+00
 -1 7219 5.00000e-01 1.00000e+00 2.81250e+00
 -1 7220 5.00000e-01 1.25000e+00 2.87500e+00
 -1 7221 5.00000e-01 1.00000e+00 3.00000e+00
 -1 7222 5.62500e-01 1.00000e+00 3.00000e+00
 -1 7223 5.00000e-01 1.00000e+00 2.93750e+00
 -1 7224 5.00000e-01 1.25000e+00 3.00000e+00
 -1 7225 5.00000e-01 1.00000e+00 3.12500e+00
 -1 7226 5.62500e-01 1.00000e+00 3.12500e+00
 -1 7227 5.00000e-01 1.00000e+00 3.06250e+00
 -1 7228 5.00000e-01 1.25000e+00 3.12500e+00
 -1 7229 5.00000e-01 1.00000e+00 3.25000e+00
 -1 7230 5.62500e-01 1.00000e+00 3.25000e+00
 -1 7231 5.00000e-01 1.00000e+00 3.18750e+00
 -1 7232 5.00000e-01 1.25000e+00 3.25000e+00
 -1 7233 5.00000e-01 1.00000e+00 3.37500e+00
 -1 7234 5.62500e-01 1.00000e+00 3.37500e+00
 -1 7235 5.00000e-01 1.00000e+00 3.31250e+00
 -1 7236 5.00000e-01 1.25000e+00 3.37500e+00
 -1 7237 5.00000e-01 1.00000e+00 3.50000e+00
 -1 7238 5.62500e-01 1.00000e+00 3.50000e+00
 -1 7239 5.00000e-01 1.00000e+00 3.43750e+00
 -1 7240 5.00000e-01 1.25000e+00 3.50000e+00
 -1 7241 5.00000e-01 1.00000e+00 3.62500e+00
 -1 7242 5.62500e-01 1.00000e+00 3.62500e+00
 -1 7243 5.00000e-01 1.00000e+00 3.56250e+00
 -1 7244 5.00000e-01 1.25000e+00 3.62500e+00
 -1 7245 5.00000e-01 1.00000e+00 3.75000e+00
 -1 7246 5.62500e-01 1.00000e+00 3.75000e+00
 -1 7247 5.00000e-01 1.00000e+00 3.68750e+00
 -1 7248 5.00000e-01 1.25000e+00 3.75000e+00
 -1 7249 5.00000e-01 1.00000e+00 3.87500e+00
 -1 7250 5.62500e-01 1.00000e+00 3.87500e+00
 -1 7251 5.00000e-01 1.00000e+00 3.81250e+00
 -1 7252 5.00000e-01 1.25000e+00 3.87500e+00
 -1 7253 5.00000e-01 1.00000e+00 4.00000e+00
 -1 7254 5.62500e-01 1.00000e+00 4.00000e+00
 -1 7255 5.00000e-01 1.00000e+00 3.93750e+00
 -1 7256 5.00000e-01 1.25000e+00 4.00000e+00
 -1 7257 3.75000e-01 1.00000e+00 0.00000e+00
 -1 7258 3.75000e-01 1.00000e+00 1.25000e-01
 -1 7259 4.37500e-01 1.00000e+00 4.44089e-16
 -1 7260 4.37500e-01 1.00000e+00 1.25000e-01
 -1 7261 3.75000e-01 1.25000e+00 0.00000e+00
 -1 7262 3.75000e-01 1.00000e+00 6.25000e-02
 -1 7263 3.75000e-01 1.25000e+00 1.25000e-01
 -1 7264 3.75000e-01 1.00000e+00 2.50000e-01
 -1 7265 4.37500e-01 1.00000e+00 2.50000e-01
 -1 7266 3.75000e-01 1.00000e+00 1.87500e-01
 -1 7267 3.75000e-01 1.25000e+00 2.50000e-01
 -1 7268 3.75000e-01 1.00000e+00 3.75000e-01
 -1 7269 4.37500e-01 1.00000e+00 3.75000e-01
 -1 7270 3.75000e-01 1.00000e+00 3.12500e-01
 -1 7271 3.75000e-01 1.25000e+00 3.75000e-01
 -1 7272 3.75000e-01 1.00000e+00 5.00000e-01
 -1 7273 4.37500e-01 1.00000e+00 5.00000e-01
 -1 7274 3.75000e-01 1.00000e+00 4.37500e-01
 -1 7275 3.75000e-01 1.25000e+00 5.00000e-01
 -1 7276 3.75000e-01 1.00000e+00 6.25000e-01
 -1 7277 4.37500e-01 1.00000e+00 6.25000e-01
 -1 7278 3.75000e-01 1.00000e+00 5.62500e-01
 -1 7279 3.75000e-01 1.25000e+00 6.25000e-01
 -1 7280 3.75000e-01 1.00000e+00 7.50000e-01
 -1 7281 4.37500e-01 1.00000e+00 7.50000e-01
 -1 7282 3.75000e-01 1.00000e+00 6.87500e-01
 -1 7283 3.75000e-01 1.25000e+00 7.50000e-01
 -1 7284 3.75000e-01 1.00000e+00 8.75000e-01
 -1 7285 4.37500e-01 1.00000e+00 8.75000e-01
 -1 7286 3.75000e-01 1.00000e+00 8.12500e-01
 -1 7287 3.75000e-01 1.25000e+00 8.75000e-01
 -1 7288 3.75000e-01 1.00000e+00 1.00000e+00
 -1 7289 4.37500e-01 1.00000e+00 1.00000e+00
 -1 7290 3.75000e-01 1.00000e+00 9.37500e-01
 -1 7291 3.75000e-01 1.25000e+00 1.00000e+00
 -1 7292 3.75000e-01 1.00000e+00 1.12500e+00
 -1 7293 4.37500e-01 1.00000e+00 1.12500e+00
 -1 7294 3.75000e-01 1.00000e+00 1.06250e+00
 -1 7295 3.75000e-01 1.25000e+00 1.12500e+00
 -1 7296 3.75000e-01 1.00000e+00 1.25000e+00
 -1 7297 4.37500e-01 1.00000e+00 1.25000e+00
 -1 7298 3.75000e-01 1.00000e+00 1.18750e+00
 -1 7299 3.75000e-01 1.25000e+00 1.25000e+00
 -1 7300 3.75000e-01 1.00000e+00 1.37500e+00
 -1 7301 4.37500e-01 1.00000e+00 1.37500e+00
 -1 7302 3.75000e-01 1.00000e+00 1.31250e+00
 -1 7303 3.75000e-01 1.25000e+00 1.37500e+00
 -1 7304 3.75000e-01 1.00000e+00 1.50000e+00
 -1 7305 4.37500e-01 1.00000e+00 1.50000e+00
 -1 7306 3.75000e-01 1.00000e+00 1.43750e+00
 -1 7307 3.75000e-01 1.25000e+00 1.50000e+00
 -1 7308 3.75000e-01 1.00000e+00 1.62500e+00
 -1 7309 4.37500e-01 1.00000e+00 1.62500e+00
 -1 7310 3.75000e-01 1.00000e+00 1.56250e+00
 -1 7311 3.75000e-01 1.25000e+00 1.62500e+00
 -1 7312 3.75000e-01 1.00000e+00 1.75000e+00
 -1 7313 4.37500e-01 1.00000e+00 1.75000e+00
 -1 7314 3.75000e-01 1.00000e+00 1.68750e+00
 -1 7315 3.75000e-01 1.25000e+00 1.75000e+00
 -1 7316 3.75000e-01 1.00000e+00 1.87500e+00
 -1 7317 4.37500e-01 1.00000e+00 1.87500e+00
 -1 7318 3.75000e-01 1.00000e+00 1.81250e+00
 -1 7319 3.75000e-01 1.25000e+00 1.87500e+00
 -1 7320 3.75000e-01 1.00000e+00 2.00000e+00
 -1 7321 4.37500e-01 1.00000e+00 2.00000e+00
 -1 7322 3.75000e-01 1.00000e+00 1.93750e+00
 -1 7323 3.75000e-01 1.25000e+00 2.00000e+00
 -1 7324 3.75000e-01 1.00000e+00 2.12500e+00
 -1 7325 4.37500e-01 1.00000e+00 2.12500e+00
 -1 7326 3.75000e-01 1.00000e+00 2.06250e+00
 -1 7327 3.75000e-01 1.25000e+00 2.12500e+00
 -1 7328 3.75000e-01 1.00000e+00 2.25000e+00
 -1 7329 4.37500e-01 1.00000e+00 2.25000e+00
 -1 7330 3.75000e-01 1.00000e+00 2.18750e+00
 -1 7331 3.75000e-01 1.25000e+00 2.25000e+00
 -1 7332 3.75000e-01 1.00000e+00 2.37500e+00
 -1 7333 4.37500e-01 1.00000e+00 2.37500e+00
 -1 7334 3.75000e-01 1.00000e+00 2.31250e+00
 -1 7335 3.75000e-01 1.25000e+00 2.37500e+00
 -1 7336 3.75000e-01 1.00000e+00 2.50000e+00
 -1 7337 4.37500e-01 1.00000e+00 2.50000e+00
 -1 7338 3.75000e-01 1.00000e+00 2.43750e+00
 -1 7339 3.75000e-01 1.25000e+00 2.50000e+00
 -1 7340 3.75000e-01 1.00000e+00 2.62500e+00
 -1 7341 4.37500e-01 1.00000e+00 2.62500e+00
 -1 7342 3.75000e-01 1.00000e+00 2.56250e+00
 -1 7343 3.75000e-01 1.25000e+00 2.62500e+00
 -1 7344 3.75000e-01 1.00000e+00 2.75000e+00
 -1 7345 4.37500e-01 1.00000e+00 2.75000e+00
 -1 7346 3.75000e-01 1.00000e+00 2.68750e+00
 -1 7347 3.75000e-01 1.25000e+00 2.75000e+00
 -1 7348 3.75000e-01 1.00000e+00 2.87500e+00
 -1 7349 4.37500e-01 1.00000e+00 2.87500e+00
 -1 7350 3.75000e-01 1.00000e+00 2.81250e+00
 -1 7351 3.75000e-01 1.25000e+00 2.87500e+00
 -1 7352 3.75000e-01 1.00000e+00 3.00000e+00
 -1 7353 4.37500e-01 1.00000e+00 3.00000e+00
 -1 7354 3.75000e-01 1.00000e+00 2.93750e+00
 -1 7355 3.75000e-01 1.25000e+00 3.00000e+00
 -1 7356 3.75000e-01 1.00000e+00 3.12500e+00
 -1 7357 4.37500e-01 1.00000e+00 3.12500e+00
 -1 7358 3.75000e-01 1.00000e+00 3.06250e+00
 -1 7359 3.75000e-01 1.25000e+00 3.12500e+00
 -1 7360 3.75000e-01 1.00000e+00 3.25000e+00
 -1 7361 4.37500e-01 1.00000e+00 3.25000e+00
 -1 7362 3.75000e-01 1.00000e+00 3.18750e+00
 -1 7363 3.75000e-01 1.25000e+00 3.25000e+00
 -1 7364 3.75000e-01 1.00000e+00 3.37500e+00
 -1 7365 4.37500e-01 1.00000e+00 3.37500e+00
 -1 7366 3.75000e-01 1.00000e+00 3.31250e+00
 -1 7367 3.75000e-01 1.25000e+00 3.37500e+00
 -1 7368 3.75000e-01 1.00000e+00 3.50000e+00
 -1 7369 4.37500e-01 1.00000e+00 3.50000e+00
 -1 7370 3.75000e-01 1.00000e+00 3.43750e+00
 -1 7371 3.75000e-01 1.25000e+00 3.50000e+00
 -1 7372 3.75000e-01 1.00000e+00 3.62500e+00
 -1 7373 4.37500e-01 1.00000e+00 3.62500e+00
 -1 7374 3.75000e-01 1.00000e+00 3.56250e+00
 -1 7375 3.75000e-01 1.25000e+00 3.62500e+00
 -1 7376 3.75000e-01 1.00000e+00 3.75000e+00
 -1 7377 4.37500e-01 1.00000e+00 3.75000e+00
 -1 7378 3.75000e-01 1.00000e+00 3.68750e+00
 -1 7379 3.75000e-01 1.25000e+00 3.75000e+00
 -1 7380 3.75000e-01 1.00000e+00 3.87500e+00
 -1 7381 4.37500e-01 1.00000e+00 3.87500e+00
 -1 7382 3.75000e-01 1.00000e+00 3.81250e+00
 -1 7383 3.75000e-01 1.25000e+00 3.87500e+00
 -1 7384 3.75000e-01 1.00000e+00 4.00000e+00
 -1 7385 4.37500e-01 1.00000e+00 4.00000e+00
 -1 7386 3.75000e-01 1.00000e+00 3.93750e+00
 -1 7387 3.75000e-01 1.25000e+00 4.00000e+00
 -1 7388 2.50000e-01 1.00000e+00 0.00000e+00
 -1 7389 2.50000e-01 1.00000e+00 1.25000e-01
 -1 7390 3.12500e-01 1.00000e+00 0.00000e+00
 -1 7391 3.12500e-01 1.00000e+00 1.25000e-01
 -1 7392 2.50000e-01 1.25000e+00 0.00000e+00
 -1 7393 2.50000e-01 1.00000e+00 6.25000e-02
 -1 7394 2.50000e-01 1.25000e+00 1.25000e-01
 -1 7395 2.50000e-01 1.00000e+00 2.50000e-01
 -1 7396 3.12500e-01 1.00000e+00 2.50000e-01
 -1 7397 2.50000e-01 1.00000e+00 1.87500e-01
 -1 7398 2.50000e-01 1.25000e+00 2.50000e-01
 -1 7399 2.50000e-01 1.00000e+00 3.75000e-01
 -1 7400 3.12500e-01 1.00000e+00 3.75000e-01
 -1 7401 2.50000e-01 1.00000e+00 3.12500e-01
 -1 7402 2.50000e-01 1.25000e+00 3.75000e-01
 -1 7403 2.50000e-01 1.00000e+00 5.00000e-01
 -1 7404 3.12500e-01 1.00000e+00 5.00000e-01
 -1 7405 2.50000e-01 1.00000e+00 4.37500e-01
 -1 7406 2.50000e-01 1.25000e+00 5.00000e-01
 -1 7407 2.50000e-01 1.00000e+00 6.25000e-01
 -1 7408 3.12500e-01 1.00000e+00 6.25000e-01
 -1 7409 2.50000e-01 1.00000e+00 5.62500e-01
 -1 7410 2.50000e-01 1.25000e+00 6.25000e-01
 -1 7411 2.50000e-01 1.00000e+00 7.50000e-01
 -1 7412 3.12500e-01 1.00000e+00 7.50000e-01
 -1 7413 2.50000e-01 1.00000e+00 6.87500e-01
 -1 7414 2.50000e-01 1.25000e+00 7.50000e-01
 -1 7415 2.50000e-01 1.00000e+00 8.75000e-01
 -1 7416 3.12500e-01 1.00000e+00 8.75000e-01
 -1 7417 2.50000e-01 1.00000e+00 8.12500e-01
 -1 7418 2.50000e-01 1.25000e+00 8.75000e-01
 -1 7419 2.50000e-01 1.00000e+00 1.00000e+00
 -1 7420 3.12500e-01 1.00000e+00 1.00000e+00
 -1 7421 2.50000e-01 1.00000e+00 9.37500e-01
 -1 7422 2.50000e-01 1.25000e+00 1.00000e+00
 -1 7423 2.50000e-01 1.00000e+00 1.12500e+00
 -1 7424 3.12500e-01 1.00000e+00 1.12500e+00
 -1 7425 2.50000e-01 1.00000e+00 1.06250e+00
 -1 7426 2.50000e-01 1.25000e+00 1.12500e+00
 -1 7427 2.50000e-01 1.00000e+00 1.25000e+00
 -1 7428 3.12500e-01 1.00000e+00 1.25000e+00
 -1 7429 2.50000e-01 1.00000e+00 1.18750e+00
 -1 7430 2.50000e-01 1.25000e+00 1.25000e+00
 -1 7431 2.50000e-01 1.00000e+00 1.37500e+00
 -1 7432 3.12500e-01 1.00000e+00 1.37500e+00
 -1 7433 2.50000e-01 1.00000e+00 1.31250e+00
 -1 7434 2.50000e-01 1.25000e+00 1.37500e+00
 -1 7435 2.50000e-01 1.00000e+00 1.50000e+00
 -1 7436 3.12500e-01 1.00000e+00 1.50000e+00
 -1 7437 2.50000e-01 1.00000e+00 1.43750e+00
 -1 7438 2.50000e-01 1.25000e+00 1.50000e+00
 -1 7439 2.50000e-01 1.00000e+00 1.62500e+00
 -1 7440 3.12500e-01 1.00000e+00 1.62500e+00
 -1 7441 2.50000e-01 1.00000e+00 1.56250e+00
 -1 7442 2.50000e-01 1.25000e+00 1.62500e+00
 -1 7443 2.50000e-01 1.00000e+00 1.75000e+00
 -1 7444 3.12500e-01 1.00000e+00 1.75000e+00
 -1 7445 2.50000e-01 1.00000e+00 1.68750e+00
 -1 7446 2.50000e-01 1.25000e+00 1.75000e+00
 -1 7447 2.50000e-01 1.00000e+00 1.87500e+00
 -1 7448 3.12500e-01 1.00000e+00 1.87500e+00
 -1 7449 2.50000e-01 1.00000e+00 1.81250e+00
 -1 7450 2.50000e-01 1.25000e+00 1.87500e+00
 -1 7451 2.50000e-01 1.00000e+00 2.00000e+00
 -1 7452 3.12500e-01 1.00000e+00 2.00000e+00
 -1 7453 2.50000e-01 1.00000e+00 1.93750e+00
 -1 7454 2.50000e-01 1.25000e+00 2.00000e+00
 -1 7455 2.50000e-01 1.00000e+00 2.12500e+00
 -1 7456 3.12500e-01 1.00000e+00 2.12500e+00
 -1 7457 2.50000e-01 1.00000e+00 2.06250e+00
 -1 7458 2.50000e-01 1.25000e+00 2.12500e+00
 -1 7459 2.50000e-01 1.00000e+00 2.25000e+00
 -1 7460 3.12500e-01 1.00000e+00 2.25000e+00
 -1 7461 2.50000e-01 1.00000e+00 2.18750e+00
 -1 7462 2.50000e-01 1.25000e+00 2.25000e+00
 -1 7463 2.50000e-01 1.00000e+00 2.37500e+00
 -1 7464 3.12500e-01 1.00000e+00 2.37500e+00
 -1 7465 2.50000e-01 1.00000e+00 2.31250e+00
 -1 7466 2.50000e-01 1.25000e+00 2.37500e+00
 -1 7467 2.50000e-01 1.00000e+00 2.50000e+00
 -1 7468 3.12500e-01 1.00000e+00 2.50000e+00
 -1 7469 2.50000e-01 1.00000e+00 2.43750e+00
 -1 7470 2.50000e-01 1.25000e+00 2.50000e+00
 -1 7471 2.50000e-01 1.00000e+00 2.62500e+00
 -1 7472 3.12500e-01 1.00000e+00 2.62500e+00
 -1 7473 2.50000e-01 1.00000e+00 2.56250e+00
 -1 7474 2.50000e-01 1.25000e+00 2.62500e+00
 -1 7475 2.50000e-01 1.00000e+00 2.75000e+00
 -1 7476 3.12500e-01 1.00000e+00 2.75000e+00
 -1 7477 2.50000e-01 1.00000e+00 2.68750e+00
 -1 7478 2.50000e-01 1.25000e+00 2.75000e+00
 -1 7479 2.50000e-01 1.00000e+00 2.87500e+00
 -1 7480 3.12500e-01 1.00000e+00 2.87500e+00
 -1 7481 2.50000e-01 1.00000e+00 2.81250e+00
 -1 7482 2.50000e-01 1.25000e+00 2.87500e+00
 -1 7483 2.50000e-01 1.00000e+00 3.00000e+00
 -1 7484 3.12500e-01 1.00000e+00 3.00000e+00
 -1 7485 2.50000e-01 1.00000e+00 2.93750e+00
 -1 7486 2.50000e-01 1.25000e+00 3.00000e+00
 -1 7487 2.50000e-01 1.00000e+00 3.12500e+00
 -1 7488 3.12500e-01 1.00000e+00 3.12500e+00
 -1 7489 2.50000e-01 1.00000e+00 3.06250e+00
 -1 7490 2.50000e-01 1.25000e+00 3.12500e+00
 -1 7491 2.50000e-01 1.00000e+00 3.25000e+00
 -1 7492 3.12500e-01 1.00000e+00 3.25000e+00
 -1 7493 2.50000e-01 1.00000e+00 3.18750e+00
 -1 7494 2.50000e-01 1.25000e+00 3.25000e+00
 -1 7495 2.50000e-01 1.00000e+00 3.37500e+00
 -1 7496 3.12500e-01 1.00000e+00 3.37500e+00
 -1 7497 2.50000e-01 1.00000e+00 3.31250e+00
 -1 7498 2.50000e-01 1.25000e+00 3.37500e+00
 -1 7499 2.50000e-01 1.00000e+00 3.50000e+00
 -1 7500 3.12500e-01 1.00000e+00 3.50000e+00
 -1 7501 2.50000e-01 1.00000e+00 3.43750e+00
 -1 7502 2.50000e-01 1.25000e+00 3.50000e+00
 -1 7503 2.50000e-01 1.00000e+00 3.62500e+00
 -1 7504 3.12500e-01 1.00000e+00 3.62500e+00
 -1 7505 2.50000e-01 1.00000e+00 3.56250e+00
 -1 7506 2.50000e-01 1.25000e+00 3.62500e+00
 -1 7507 2.50000e-01 1.00000e+00 3.75000e+00
 -1 7508 3.12500e-01 1.00000e+00 3.75000e+00
 -1 7509 2.50000e-01 1.00000e+00 3.68750e+00
 -1 7510 2.50000e-01 1.25000e+00 3.75000e+00
 -1 7511 2.50000e-01 1.00000e+00 3.87500e+00
 -1 7512 3.12500e-01 1.00000e+00 3.87500e+00
 -1 7513 2.50000e-01 1.00000e+00 3.81250e+00
 -1 7514 2.50000e-01 1.25000e+00 3.87500e+00
 -1 7515 2.50000e-01 1.00000e+00 4.00000e+00
 -1 7516 3.12500e-01 1.00000e+00 4.00000e+00
 -1 7517 2.50000e-01 1.00000e+00 3.93750e+00
 -1 7518 2.50000e-01 1.25000e+00 4.00000e+00
 -1 7519 1.25000e-01 1.00000e+00 0.00000e+00
 -1 7520 1.25000e-01 1.00000e+00 1.25000e-01
 -1 7521 1.87500e-01 1.00000e+00 0.00000e+00
 -1 7522 1.87500e-01 1.00000e+00 1.25000e-01
 -1 7523 1.25000e-01 1.25000e+00 4.44089e-16
 -1 7524 1.25000e-01 1.00000e+00 6.25000e-02
 -1 7525 1.25000e-01 1.25000e+00 1.25000e-01
 -1 7526 1.25000e-01 1.00000e+00 2.50000e-01
 -1 7527 1.87500e-01 1.00000e+00 2.50000e-01
 -1 7528 1.25000e-01 1.00000e+00 1.87500e-01
 -1 7529 1.25000e-01 1.25000e+00 2.50000e-01
 -1 7530 1.25000e-01 1.00000e+00 3.75000e-01
 -1 7531 1.87500e-01 1.00000e+00 3.75000e-01
 -1 7532 1.25000e-01 1.00000e+00 3.12500e-01
 -1 7533 1.25000e-01 1.25000e+00 3.75000e-01
 -1 7534 1.25000e-01 1.00000e+00 5.00000e-01
 -1 7535 1.87500e-01 1.00000e+00 5.00000e-01
 -1 7536 1.25000e-01 1.00000e+00 4.37500e-01
 -1 7537 1.25000e-01 1.25000e+00 5.00000e-01
 -1 7538 1.25000e-01 1.00000e+00 6.25000e-01
 -1 7539 1.87500e-01 1.00000e+00 6.25000e-01
 -1 7540 1.25000e-01 1.00000e+00 5.62500e-01
 -1 7541 1.25000e-01 1.25000e+00 6.25000e-01
 -1 7542 1.25000e-01 1.00000e+00 7.50000e-01
 -1 7543 1.87500e-01 1.00000e+00 7.50000e-01
 -1 7544 1.25000e-01 1.00000e+00 6.87500e-01
 -1 7545 1.25000e-01 1.25000e+00 7.50000e-01
 -1 7546 1.25000e-01 1.00000e+00 8.75000e-01
 -1 7547 1.87500e-01 1.00000e+00 8.75000e-01
 -1 7548 1.25000e-01 1.00000e+00 8.12500e-01
 -1 7549 1.25000e-01 1.25000e+00 8.75000e-01
 -1 7550 1.25000e-01 1.00000e+00 1.00000e+00
 -1 7551 1.87500e-01 1.00000e+00 1.00000e+00
 -1 7552 1.25000e-01 1.00000e+00 9.37500e-01
 -1 7553 1.25000e-01 1.25000e+00 1.00000e+00
 -1 7554 1.25000e-01 1.00000e+00 1.12500e+00
 -1 7555 1.87500e-01 1.00000e+00 1.12500e+00
 -1 7556 1.25000e-01 1.00000e+00 1.06250e+00
 -1 7557 1.25000e-01 1.25000e+00 1.12500e+00
 -1 7558 1.25000e-01 1.00000e+00 1.25000e+00
 -1 7559 1.87500e-01 1.00000e+00 1.25000e+00
 -1 7560 1.25000e-01 1.00000e+00 1.18750e+00
 -1 7561 1.25000e-01 1.25000e+00 1.25000e+00
 -1 7562 1.25000e-01 1.00000e+00 1.37500e+00
 -1 7563 1.87500e-01 1.00000e+00 1.37500e+00
 -1 7564 1.25000e-01 1.00000e+00 1.31250e+00
 -1 7565 1.25000e-01 1.25000e+00 1.37500e+00
 -1 7566 1.25000e-01 1.00000e+00 1.50000e+00
 -1 7567 1.87500e-01 1.00000e+00 1.50000e+00
 -1 7568 1.25000e-01 1.00000e+00 1.43750e+00
 -1 7569 1.25000e-01 1.25000e+00 1.50000e+00
 -1 7570 1.25000e-01 1.00000e+00 1.62500e+00
 -1 7571 1.87500e-01 1.00000e+00 1.62500e+00
 -1 7572 1.25000e-01 1.00000e+00 1.56250e+00
 -1 7573 1.25000e-01 1.25000e+00 1.62500e+00
 -1 7574 1.25000e-01 1.00000e+00 1.75000e+00
 -1 7575 1.87500e-01 1.00000e+00 1.75000e+00
 -1 7576 1.25000e-01 1.00000e+00 1.68750e+00
 -1 7577 1.25000e-01 1.25000e+00 1.75000e+00
 -1 7578 1.25000e-01 1.00000e+00 1.87500e+00
 -1 7579 1.87500e-01 1.00000e+00 1.87500e+00
 -1 7580 1.25000e-01 1.00000e+00 1.81250e+00
 -1 7581 1.25000e-01 1.25000e+00 1.87500e+00
 -1 7582 1.25000e-01 1.00000e+00 2.00000e+00
 -1 7583 1.87500e-01 1.00000e+00 2.00000e+00
 -1 7584 1.25000e-01 1.00000e+00 1.93750e+00
 -1 7585 1.25000e-01 1.25000e+00 2.00000e+00
 -1 7586 1.25000e-01 1.00000e+00 2.12500e+00
 -1 7587 1.87500e-01 1.00000e+00 2.12500e+00
 -1 7588 1.25000e-01 1.00000e+00 2.06250e+00
 -1 7589 1.25000e-01 1.25000e+00 2.12500e+00
 -1 7590 1.25000e-01 1.00000e+00 2.25000e+00
 -1 7591 1.87500e-01 1.00000e+00 2.25000e+00
 -1 7592 1.25000e-01 1.00000e+00 2.18750e+00
 -1 7593 1.25000e-01 1.25000e+00 2.25000e+00
 -1 7594 1.25000e-01 1.00000e+00 2.37500e+00
 -1 7595 1.87500e-01 1.00000e+00 2.37500e+00
 -1 7596 1.25000e-01 1.00000e+00 2.31250e+00
 -1 7597 1.25000e-01 1.25000e+00 2.37500e+00
 -1 7598 1.25000e-01 1.00000e+00 2.50000e+00
 -1 7599 1.87500e-01 1.00000e+00 2.50000e+00
 -1 7600 1.25000e-01 1.00000e+00 2.43750e+00
 -1 7601 1.25000e-01 1.25000e+00 2.50000e+00
 -1 7602 1.25000e-01 1.00000e+00 2.62500e+00
 -1 7603 1.87500e-01 1.00000e+00 2.62500e+00
 -1 7604 1.25000e-01 1.00000e+00 2.56250e+00
 -1 7605 1.25000e-01 1.25000e+00 2.62500e+00
 -1 7606 1.25000e-01 1.00000e+00 2.75000e+00
 -1 7607 1.87500e-01 1.00000e+00 2.75000e+00
 -1 7608 1.25000e-01 1.00000e+00 2.68750e+00
 -1 7609 1.25000e-01 1.25000e+00 2.75000e+00
 -1 7610 1.25000e-01 1.00000e+00 2.87500e+00
 -1 7611 1.87500e-01 1.00000e+00 2.87500e+00
 -1 7612 1.25000e-01 1.00000e+00 2.81250e+00
 -1 7613 1.25000e-01 1.25000e+00 2.87500e+00
 -1 7614 1.25000e-01 1.00000e+00 3.00000e+00
 -1 7615 1.87500e-01 1.00000e+00 3.00000e+00
 -1 7616 1.25000e-01 1.00000e+00 2.93750e+00
 -1 7617 1.25000e-01 1.25000e+00 3.00000e+00
 -1 7618 1.25000e-01 1.00000e+00 3.12500e+00
 -1 7619 1.87500e-01 1.00000e+00 3.12500e+00
 -1 7620 1.25000e-01 1.00000e+00 3.06250e+00
 -1 7621 1.25000e-01 1.25000e+00 3.12500e+00
 -1 7622 1.25000e-01 1.00000e+00 3.25000e+00
 -1 7623 1.87500e-01 1.00000e+00 3.25000e+00
 -1 7624 1.25000e-01 1.00000e+00 3.18750e+00
 -1 7625 1.25000e-01 1.25000e+00 3.25000e+00
 -1 7626 1.25000e-01 1.00000e+00 3.37500e+00
 -1 7627 1.87500e-01 1.00000e+00 3.37500e+00
 -1 7628 1.25000e-01 1.00000e+00 3.31250e+00
 -1 7629 1.25000e-01 1.25000e+00 3.37500e+00
 -1 7630 1.25000e-01 1.00000e+00 3.50000e+00
 -1 7631 1.87500e-01 1.00000e+00 3.50000e+00
 -1 7632 1.25000e-01 1.00000e+00 3.43750e+00
 -1 7633 1.25000e-01 1.25000e+00 3.50000e+00
 -1 7634 1.25000e-01 1.00000e+00 3.62500e+00
 -1 7635 1.87500e-01 1.00000e+00 3.62500e+00
 -1 7636 1.25000e-01 1.00000e+00 3.56250e+00
 -1 7637 1.25000e-01 1.25000e+00 3.62500e+00
 -1 7638 1.25000e-01 1.00000e+00 3.75000e+00
 -1 7639 1.87500e-01 1.00000e+00 3.75000e+00
 -1 7640 1.25000e-01 1.00000e+00 3.68750e+00
 -1 7641 1.25000e-01 1.25000e+00 3.75000e+00
 -1 7642 1.25000e-01 1.00000e+00 3.87500e+00
 -1 7643 1.87500e-01 1.00000e+00 3.87500e+00
 -1 7644 1.25000e-01 1.00000e+00 3.81250e+00
 -1 7645 1.25000e-01 1.25000e+00 3.87500e+00
 -1 7646 1.25000e-01 1.00000e+00 4.00000e+00
 -1 7647 1.87500e-01 1.00000e+00 4.00000e+00
 -1 7648 1.25000e-01 1.00000e+00 3.93750e+00
 -1 7649 1.25000e-01 1.25000e+00 4.00000e+00
 -1 7650 0.00000e+00 1.00000e+00 0.00000e+00
 -1 7651-1.11022e-16 1.00000e+00 1.25000e-01
 -1 7652 6.25000e-02 1.00000e+00-2.22045e-16
 -1 7653 6.25000e-02 1.00000e+00 1.25000e-01
 -1 7654 0.00000e+00 1.25000e+00 0.00000e+00
 -1 7655 0.00000e+00 1.00000e+00 6.25000e-02
 -1 7656 0.00000e+00 1.25000e+00 1.25000e-01
 -1 7657 0.00000e+00 1.00000e+00 2.50000e-01
 -1 7658 6.25000e-02 1.00000e+00 2.50000e-01
 -1 7659-1.11022e-16 1.00000e+00 1.87500e-01
 -1 7660 0.00000e+00 1.25000e+00 2.50000e-01
 -1 7661 0.00000e+00 1.00000e+00 3.75000e-01
 -1 7662 6.25000e-02 1.00000e+00 3.75000e-01
 -1 7663 0.00000e+00 1.00000e+00 3.12500e-01
 -1 7664 0.00000e+00 1.25000e+00 3.75000e-01
 -1 7665-1.11022e-16 1.00000e+00 5.00000e-01
 -1 7666 6.25000e-02 1.00000e+00 5.00000e-01
 -1 7667-1.11022e-16 1.00000e+00 4.37500e-01
 -1 7668 0.00000e+00 1.25000e+00 5.00000e-01
 -1 7669 0.00000e+00 1.00000e+00 6.25000e-01
 -1 7670 6.25000e-02 1.00000e+00 6.25000e-01
 -1 7671 0.00000e+00 1.00000e+00 5.62500e-01
 -1 7672 0.00000e+00 1.25000e+00 6.25000e-01
 -1 7673-1.11022e-16 1.00000e+00 7.50000e-01
 -1 7674 6.25000e-02 1.00000e+00 7.50000e-01
 -1 7675-1.11022e-16 1.00000e+00 6.87500e-01
 -1 7676 0.00000e+00 1.25000e+00 7.50000e-01
 -1 7677 0.00000e+00 1.00000e+00 8.75000e-01
 -1 7678 6.25000e-02 1.00000e+00 8.75000e-01
 -1 7679 0.00000e+00 1.00000e+00 8.12500e-01
 -1 7680 0.00000e+00 1.25000e+00 8.75000e-01
 -1 7681 0.00000e+00 1.00000e+00 1.00000e+00
 -1 7682 6.25000e-02 1.00000e+00 1.00000e+00
 -1 7683 0.00000e+00 1.00000e+00 9.37500e-01
 -1 7684 0.00000e+00 1.25000e+00 1.00000e+00
 -1 7685 1.11022e-16 1.00000e+00 1.12500e+00
 -1 7686 6.25000e-02 1.00000e+00 1.12500e+00
 -1 7687-1.11022e-16 1.00000e+00 1.06250e+00
 -1 7688-1.11022e-16 1.25000e+00 1.12500e+00
 -1 7689 0.00000e+00 1.00000e+00 1.25000e+00
 -1 7690 6.25000e-02 1.00000e+00 1.25000e+00
 -1 7691 0.00000e+00 1.00000e+00 1.18750e+00
 -1 7692 0.00000e+00 1.25000e+00 1.25000e+00
 -1 7693 0.00000e+00 1.00000e+00 1.37500e+00
 -1 7694 6.25000e-02 1.00000e+00 1.37500e+00
 -1 7695 0.00000e+00 1.00000e+00 1.31250e+00
 -1 7696-1.11022e-16 1.25000e+00 1.37500e+00
 -1 7697 0.00000e+00 1.00000e+00 1.50000e+00
 -1 7698 6.25000e-02 1.00000e+00 1.50000e+00
 -1 7699 0.00000e+00 1.00000e+00 1.43750e+00
 -1 7700 0.00000e+00 1.25000e+00 1.50000e+00
 -1 7701 0.00000e+00 1.00000e+00 1.62500e+00
 -1 7702 6.25000e-02 1.00000e+00 1.62500e+00
 -1 7703 0.00000e+00 1.00000e+00 1.56250e+00
 -1 7704 0.00000e+00 1.25000e+00 1.62500e+00
 -1 7705 0.00000e+00 1.00000e+00 1.75000e+00
 -1 7706 6.25000e-02 1.00000e+00 1.75000e+00
 -1 7707-3.33067e-16 1.00000e+00 1.68750e+00
 -1 7708 0.00000e+00 1.25000e+00 1.75000e+00
 -1 7709 0.00000e+00 1.00000e+00 1.87500e+00
 -1 7710 6.25000e-02 1.00000e+00 1.87500e+00
 -1 7711 0.00000e+00 1.00000e+00 1.81250e+00
 -1 7712 0.00000e+00 1.25000e+00 1.87500e+00
 -1 7713-3.33067e-16 1.00000e+00 2.00000e+00
 -1 7714 6.25000e-02 1.00000e+00 2.00000e+00
 -1 7715 1.11022e-16 1.00000e+00 1.93750e+00
 -1 7716-1.11022e-16 1.25000e+00 2.00000e+00
 -1 7717 0.00000e+00 1.00000e+00 2.12500e+00
 -1 7718 6.25000e-02 1.00000e+00 2.12500e+00
 -1 7719 0.00000e+00 1.00000e+00 2.06250e+00
 -1 7720 0.00000e+00 1.25000e+00 2.12500e+00
 -1 7721 1.11022e-16 1.00000e+00 2.25000e+00
 -1 7722 6.25000e-02 1.00000e+00 2.25000e+00
 -1 7723 0.00000e+00 1.00000e+00 2.18750e+00
 -1 7724 0.00000e+00 1.25000e+00 2.25000e+00
 -1 7725 0.00000e+00 1.00000e+00 2.37500e+00
 -1 7726 6.25000e-02 1.00000e+00 2.37500e+00
 -1 7727-3.33067e-16 1.00000e+00 2.31250e+00
 -1 7728 0.00000e+00 1.25000e+00 2.37500e+00
 -1 7729 0.00000e+00 1.00000e+00 2.50000e+00
 -1 7730 6.25000e-02 1.00000e+00 2.50000e+00
 -1 7731 0.00000e+00 1.00000e+00 2.43750e+00
 -1 7732 0.00000e+00 1.25000e+00 2.50000e+00
 -1 7733 0.00000e+00 1.00000e+00 2.62500e+00
 -1 7734 6.25000e-02 1.00000e+00 2.62500e+00
 -1 7735 0.00000e+00 1.00000e+00 2.56250e+00
 -1 7736-1.11022e-16 1.25000e+00 2.62500e+00
 -1 7737 0.00000e+00 1.00000e+00 2.75000e+00
 -1 7738 6.25000e-02 1.00000e+00 2.75000e+00
 -1 7739 0.00000e+00 1.00000e+00 2.68750e+00
 -1 7740 0.00000e+00 1.25000e+00 2.75000e+00
 -1 7741 0.00000e+00 1.00000e+00 2.87500e+00
 -1 7742 6.25000e-02 1.00000e+00 2.87500e+00
 -1 7743 0.00000e+00 1.00000e+00 2.81250e+00
 -1 7744 0.00000e+00 1.25000e+00 2.87500e+00
 -1 7745 0.00000e+00 1.00000e+00 3.00000e+00
 -1 7746 6.25000e-02 1.00000e+00 3.00000e+00
 -1 7747 0.00000e+00 1.00000e+00 2.93750e+00
 -1 7748 0.00000e+00 1.25000e+00 3.00000e+00
 -1 7749 0.00000e+00 1.00000e+00 3.12500e+00
 -1 7750 6.25000e-02 1.00000e+00 3.12500e+00
 -1 7751 0.00000e+00 1.00000e+00 3.06250e+00
 -1 7752 0.00000e+00 1.25000e+00 3.12500e+00
 -1 7753 0.00000e+00 1.00000e+00 3.25000e+00
 -1 7754 6.25000e-02 1.00000e+00 3.25000e+00
 -1 7755 0.00000e+00 1.00000e+00 3.18750e+00
 -1 7756-1.11022e-16 1.25000e+00 3.25000e+00
 -1 7757 0.00000e+00 1.00000e+00 3.37500e+00
 -1 7758 6.25000e-02 1.00000e+00 3.37500e+00
 -1 7759 0.00000e+00 1.00000e+00 3.31250e+00
 -1 7760 0.00000e+00 1.25000e+00 3.37500e+00
 -1 7761 0.00000e+00 1.00000e+00 3.50000e+00
 -1 7762 6.25000e-02 1.00000e+00 3.50000e+00
 -1 7763 0.00000e+00 1.00000e+00 3.43750e+00
 -1 7764 0.00000e+00 1.25000e+00 3.50000e+00
 -1 7765 0.00000e+00 1.00000e+00 3.62500e+00
 -1 7766 6.25000e-02 1.00000e+00 3.62500e+00
 -1 7767 0.00000e+00 1.00000e+00 3.56250e+00
 -1 7768 0.00000e+00 1.25000e+00 3.62500e+00
 -1 7769 0.00000e+00 1.00000e+00 3.75000e+00
 -1 7770 6.25000e-02 1.00000e+00 3.75000e+00
 -1 7771 0.00000e+00 1.00000e+00 3.68750e+00
 -1 7772 0.00000e+00 1.25000e+00 3.75000e+00
 -1 7773 0.00000e+00 1.00000e+00 3.87500e+00
 -1 7774 6.25000e-02 1.00000e+00 3.87500e+00
 -1 7775 0.00000e+00 1.00000e+00 3.81250e+00
 -1 7776-1.11022e-16 1.25000e+00 3.87500e+00
 -1 7777 0.00000e+00 1.00000e+00 4.00000e+00
 -1 7778 6.25000e-02 1.00000e+00 4.00000e+00
 -1 7779 0.00000e+00 1.00000e+00 3.93750e+00
 -1 7780 0.00000e+00 1.25000e+00 4.00000e+00
 -1 7781 1.00000e+00 5.00000e-01 0.00000e+00
 -1 7782 1.00000e+00 5.00000e-01 1.25000e-01
 -1 7783 8.75000e-01 5.00000e-01-2.22045e-16
 -1 7784 8.75000e-01 5.00000e-01 1.25000e-01
 -1 7785 1.00000e+00 7.50000e-01 0.00000e+00
 -1 7786 1.00000e+00 5.00000e-01 6.25000e-02
 -1 7787 1.00000e+00 7.50000e-01 1.25000e-01
 -1 7788 9.37500e-01 5.00000e-01-2.22045e-16
 -1 7789 9.37500e-01 5.00000e-01 1.25000e-01
 -1 7790 8.75000e-01 7.50000e-01 4.44089e-16
 -1 7791 8.75000e-01 5.00000e-01 6.25000e-02
 -1 7792 8.75000e-01 7.50000e-01 1.25000e-01
 -1 7793 1.00000e+00 5.00000e-01 2.50000e-01
 -1 7794 8.75000e-01 5.00000e-01 2.50000e-01
 -1 7795 1.00000e+00 5.00000e-01 1.87500e-01
 -1 7796 1.00000e+00 7.50000e-01 2.50000e-01
 -1 7797 9.37500e-01 5.00000e-01 2.50000e-01
 -1 7798 8.75000e-01 5.00000e-01 1.87500e-01
 -1 7799 8.75000e-01 7.50000e-01 2.50000e-01
 -1 7800 1.00000e+00 5.00000e-01 3.75000e-01
 -1 7801 8.75000e-01 5.00000e-01 3.75000e-01
 -1 7802 1.00000e+00 5.00000e-01 3.12500e-01
 -1 7803 1.00000e+00 7.50000e-01 3.75000e-01
 -1 7804 9.37500e-01 5.00000e-01 3.75000e-01
 -1 7805 8.75000e-01 5.00000e-01 3.12500e-01
 -1 7806 8.75000e-01 7.50000e-01 3.75000e-01
 -1 7807 1.00000e+00 5.00000e-01 5.00000e-01
 -1 7808 8.75000e-01 5.00000e-01 5.00000e-01
 -1 7809 1.00000e+00 5.00000e-01 4.37500e-01
 -1 7810 1.00000e+00 7.50000e-01 5.00000e-01
 -1 7811 9.37500e-01 5.00000e-01 5.00000e-01
 -1 7812 8.75000e-01 5.00000e-01 4.37500e-01
 -1 7813 8.75000e-01 7.50000e-01 5.00000e-01
 -1 7814 1.00000e+00 5.00000e-01 6.25000e-01
 -1 7815 8.75000e-01 5.00000e-01 6.25000e-01
 -1 7816 1.00000e+00 5.00000e-01 5.62500e-01
 -1 7817 1.00000e+00 7.50000e-01 6.25000e-01
 -1 7818 9.37500e-01 5.00000e-01 6.25000e-01
 -1 7819 8.75000e-01 5.00000e-01 5.62500e-01
 -1 7820 8.75000e-01 7.50000e-01 6.25000e-01
 -1 7821 1.00000e+00 5.00000e-01 7.50000e-01
 -1 7822 8.75000e-01 5.00000e-01 7.50000e-01
 -1 7823 1.00000e+00 5.00000e-01 6.87500e-01
 -1 7824 1.00000e+00 7.50000e-01 7.50000e-01
 -1 7825 9.37500e-01 5.00000e-01 7.50000e-01
 -1 7826 8.75000e-01 5.00000e-01 6.87500e-01
 -1 7827 8.75000e-01 7.50000e-01 7.50000e-01
 -1 7828 1.00000e+00 5.00000e-01 8.75000e-01
 -1 7829 8.75000e-01 5.00000e-01 8.75000e-01
 -1 7830 1.00000e+00 5.00000e-01 8.12500e-01
 -1 7831 1.00000e+00 7.50000e-01 8.75000e-01
 -1 7832 9.37500e-01 5.00000e-01 8.75000e-01
 -1 7833 8.75000e-01 5.00000e-01 8.12500e-01
 -1 7834 8.75000e-01 7.50000e-01 8.75000e-01
 -1 7835 1.00000e+00 5.00000e-01 1.00000e+00
 -1 7836 8.75000e-01 5.00000e-01 1.00000e+00
 -1 7837 1.00000e+00 5.00000e-01 9.37500e-01
 -1 7838 1.00000e+00 7.50000e-01 1.00000e+00
 -1 7839 9.37500e-01 5.00000e-01 1.00000e+00
 -1 7840 8.75000e-01 5.00000e-01 9.37500e-01
 -1 7841 8.75000e-01 7.50000e-01 1.00000e+00
 -1 7842 1.00000e+00 5.00000e-01 1.12500e+00
 -1 7843 8.75000e-01 5.00000e-01 1.12500e+00
 -1 7844 1.00000e+00 5.00000e-01 1.06250e+00
 -1 7845 1.00000e+00 7.50000e-01 1.12500e+00
 -1 7846 9.37500e-01 5.00000e-01 1.12500e+00
 -1 7847 8.75000e-01 5.00000e-01 1.06250e+00
 -1 7848 8.75000e-01 7.50000e-01 1.12500e+00
 -1 7849 1.00000e+00 5.00000e-01 1.25000e+00
 -1 7850 8.75000e-01 5.00000e-01 1.25000e+00
 -1 7851 1.00000e+00 5.00000e-01 1.18750e+00
 -1 7852 1.00000e+00 7.50000e-01 1.25000e+00
 -1 7853 9.37500e-01 5.00000e-01 1.25000e+00
 -1 7854 8.75000e-01 5.00000e-01 1.18750e+00
 -1 7855 8.75000e-01 7.50000e-01 1.25000e+00
 -1 7856 1.00000e+00 5.00000e-01 1.37500e+00
 -1 7857 8.75000e-01 5.00000e-01 1.37500e+00
 -1 7858 1.00000e+00 5.00000e-01 1.31250e+00
 -1 7859 1.00000e+00 7.50000e-01 1.37500e+00
 -1 7860 9.37500e-01 5.00000e-01 1.37500e+00
 -1 7861 8.75000e-01 5.00000e-01 1.31250e+00
 -1 7862 8.75000e-01 7.50000e-01 1.37500e+00
 -1 7863 1.00000e+00 5.00000e-01 1.50000e+00
 -1 7864 8.75000e-01 5.00000e-01 1.50000e+00
 -1 7865 1.00000e+00 5.00000e-01 1.43750e+00
 -1 7866 1.00000e+00 7.50000e-01 1.50000e+00
 -1 7867 9.37500e-01 5.00000e-01 1.50000e+00
 -1 7868 8.75000e-01 5.00000e-01 1.43750e+00
 -1 7869 8.75000e-01 7.50000e-01 1.50000e+00
 -1 7870 1.00000e+00 5.00000e-01 1.62500e+00
 -1 7871 8.75000e-01 5.00000e-01 1.62500e+00
 -1 7872 1.00000e+00 5.00000e-01 1.56250e+00
 -1 7873 1.00000e+00 7.50000e-01 1.62500e+00
 -1 7874 9.37500e-01 5.00000e-01 1.62500e+00
 -1 7875 8.75000e-01 5.00000e-01 1.56250e+00
 -1 7876 8.75000e-01 7.50000e-01 1.62500e+00
 -1 7877 1.00000e+00 5.00000e-01 1.75000e+00
 -1 7878 8.75000e-01 5.00000e-01 1.75000e+00
 -1 7879 1.00000e+00 5.00000e-01 1.68750e+00
 -1 7880 1.00000e+00 7.50000e-01 1.75000e+00
 -1 7881 9.37500e-01 5.00000e-01 1.75000e+00
 -1 7882 8.75000e-01 5.00000e-01 1.68750e+00
 -1 7883 8.75000e-01 7.50000e-01 1.75000e+00
 -1 7884 1.00000e+00 5.00000e-01 1.87500e+00
 -1 7885 8.75000e-01 5.00000e-01 1.87500e+00
 -1 7886 1.00000e+00 5.00000e-01 1.81250e+00
 -1 7887 1.00000e+00 7.50000e-01 1.87500e+00
 -1 7888 9.37500e-01 5.00000e-01 1.87500e+00
 -1 7889 8.75000e-01 5.00000e-01 1.81250e+00
 -1 7890 8.75000e-01 7.50000e-01 1.87500e+00
 -1 7891 1.00000e+00 5.00000e-01 2.00000e+00
 -1 7892 8.75000e-01 5.00000e-01 2.00000e+00
 -1 7893 1.00000e+00 5.00000e-01 1.93750e+00
 -1 7894 1.00000e+00 7.50000e-01 2.00000e+00
 -1 7895 9.37500e-01 5.00000e-01 2.00000e+00
 -1 7896 8.75000e-01 5.00000e-01 1.93750e+00
 -1 7897 8.75000e-01 7.50000e-01 2.00000e+00
 -1 7898 1.00000e+00 5.00000e-01 2.12500e+00
 -1 7899 8.75000e-01 5.00000e-01 2.12500e+00
 -1 7900 1.00000e+00 5.00000e-01 2.06250e+00
 -1 7901 1.00000e+00 7.50000e-01 2.12500e+00
 -1 7902 9.37500e-01 5.00000e-01 2.12500e+00
 -1 7903 8.75000e-01 5.00000e-01 2.06250e+00
 -1 7904 8.75000e-01 7.50000e-01 2.12500e+00
 -1 7905 1.00000e+00 5.00000e-01 2.25000e+00
 -1 7906 8.75000e-01 5.00000e-01 2.25000e+00
 -1 7907 1.00000e+00 5.00000e-01 2.18750e+00
 -1 7908 1.00000e+00 7.50000e-01 2.25000e+00
 -1 7909 9.37500e-01 5.00000e-01 2.25000e+00
 -1 7910 8.75000e-01 5.00000e-01 2.18750e+00
 -1 7911 8.75000e-01 7.50000e-01 2.25000e+00
 -1 7912 1.00000e+00 5.00000e-01 2.37500e+00
 -1 7913 8.75000e-01 5.00000e-01 2.37500e+00
 -1 7914 1.00000e+00 5.00000e-01 2.31250e+00
 -1 7915 1.00000e+00 7.50000e-01 2.37500e+00
 -1 7916 9.37500e-01 5.00000e-01 2.37500e+00
 -1 7917 8.75000e-01 5.00000e-01 2.31250e+00
 -1 7918 8.75000e-01 7.50000e-01 2.37500e+00
 -1 7919 1.00000e+00 5.00000e-01 2.50000e+00
 -1 7920 8.75000e-01 5.00000e-01 2.50000e+00
 -1 7921 1.00000e+00 5.00000e-01 2.43750e+00
 -1 7922 1.00000e+00 7.50000e-01 2.50000e+00
 -1 7923 9.37500e-01 5.00000e-01 2.50000e+00
 -1 7924 8.75000e-01 5.00000e-01 2.43750e+00
 -1 7925 8.75000e-01 7.50000e-01 2.50000e+00
 -1 7926 1.00000e+00 5.00000e-01 2.62500e+00
 -1 7927 8.75000e-01 5.00000e-01 2.62500e+00
 -1 7928 1.00000e+00 5.00000e-01 2.56250e+00
 -1 7929 1.00000e+00 7.50000e-01 2.62500e+00
 -1 7930 9.37500e-01 5.00000e-01 2.62500e+00
 -1 7931 8.75000e-01 5.00000e-01 2.56250e+00
 -1 7932 8.75000e-01 7.50000e-01 2.62500e+00
 -1 7933 1.00000e+00 5.00000e-01 2.75000e+00
 -1 7934 8.75000e-01 5.00000e-01 2.75000e+00
 -1 7935 1.00000e+00 5.00000e-01 2.68750e+00
 -1 7936 1.00000e+00 7.50000e-01 2.75000e+00
 -1 7937 9.37500e-01 5.00000e-01 2.75000e+00
 -1 7938 8.75000e-01 5.00000e-01 2.68750e+00
 -1 7939 8.75000e-01 7.50000e-01 2.75000e+00
 -1 7940 1.00000e+00 5.00000e-01 2.87500e+00
 -1 7941 8.75000e-01 5.00000e-01 2.87500e+00
 -1 7942 1.00000e+00 5.00000e-01 2.81250e+00
 -1 7943 1.00000e+00 7.50000e-01 2.87500e+00
 -1 7944 9.37500e-01 5.00000e-01 2.87500e+00
 -1 7945 8.75000e-01 5.00000e-01 2.81250e+00
 -1 7946 8.75000e-01 7.50000e-01 2.87500e+00
 -1 7947 1.00000e+00 5.00000e-01 3.00000e+00
 -1 7948 8.75000e-01 5.00000e-01 3.00000e+00
 -1 7949 1.00000e+00 5.00000e-01 2.93750e+00
 -1 7950 1.00000e+00 7.50000e-01 3.00000e+00
 -1 7951 9.37500e-01 5.00000e-01 3.00000e+00
 -1 7952 8.75000e-01 5.00000e-01 2.93750e+00
 -1 7953 8.75000e-01 7.50000e-01 3.00000e+00
 -1 7954 1.00000e+00 5.00000e-01 3.12500e+00
 -1 7955 8.75000e-01 5.00000e-01 3.12500e+00
 -1 7956 1.00000e+00 5.00000e-01 3.06250e+00
 -1 7957 1.00000e+00 7.50000e-01 3.12500e+00
 -1 7958 9.37500e-01 5.00000e-01 3.12500e+00
 -1 7959 8.75000e-01 5.00000e-01 3.06250e+00
 -1 7960 8.75000e-01 7.50000e-01 3.12500e+00
 -1 7961 1.00000e+00 5.00000e-01 3.25000e+00
 -1 7962 8.75000e-01 5.00000e-01 3.25000e+00
 -1 7963 1.00000e+00 5.00000e-01 3.18750e+00
 -1 7964 1.00000e+00 7.50000e-01 3.25000e+00
 -1 7965 9.37500e-01 5.00000e-01 3.25000e+00
 -1 7966 8.75000e-01 5.00000e-01 3.18750e+00
 -1 7967 8.75000e-01 7.50000e-01 3.25000e+00
 -1 7968 1.00000e+00 5.00000e-01 3.37500e+00
 -1 7969 8.75000e-01 5.00000e-01 3.37500e+00
 -1 7970 1.00000e+00 5.00000e-01 3.31250e+00
 -1 7971 1.00000e+00 7.50000e-01 3.37500e+00
 -1 7972 9.37500e-01 5.00000e-01 3.37500e+00
 -1 7973 8.75000e-01 5.00000e-01 3.31250e+00
 -1 7974 8.75000e-01 7.50000e-01 3.37500e+00
 -1 7975 1.00000e+00 5.00000e-01 3.50000e+00
 -1 7976 8.75000e-01 5.00000e-01 3.50000e+00
 -1 7977 1.00000e+00 5.00000e-01 3.43750e+00
 -1 7978 1.00000e+00 7.50000e-01 3.50000e+00
 -1 7979 9.37500e-01 5.00000e-01 3.50000e+00
 -1 7980 8.75000e-01 5.00000e-01 3.43750e+00
 -1 7981 8.75000e-01 7.50000e-01 3.50000e+00
 -1 7982 1.00000e+00 5.00000e-01 3.62500e+00
 -1 7983 8.75000e-01 5.00000e-01 3.62500e+00
 -1 7984 1.00000e+00 5.00000e-01 3.56250e+00
 -1 7985 1.00000e+00 7.50000e-01 3.62500e+00
 -1 7986 9.37500e-01 5.00000e-01 3.62500e+00
 -1 7987 8.75000e-01 5.00000e-01 3.56250e+00
 -1 7988 8.75000e-01 7.50000e-01 3.62500e+00
 -1 7989 1.00000e+00 5.00000e-01 3.75000e+00
 -1 7990 8.75000e-01 5.00000e-01 3.75000e+00
 -1 7991 1.00000e+00 5.00000e-01 3.68750e+00
 -1 7992 1.00000e+00 7.50000e-01 3.75000e+00
 -1 7993 9.37500e-01 5.00000e-01 3.75000e+00
 -1 7994 8.75000e-01 5.00000e-01 3.68750e+00
 -1 7995 8.75000e-01 7.50000e-01 3.75000e+00
 -1 7996 1.00000e+00 5.00000e-01 3.87500e+00
 -1 7997 8.75000e-01 5.00000e-01 3.87500e+00
 -1 7998 1.00000e+00 5.00000e-01 3.81250e+00
 -1 7999 1.00000e+00 7.50000e-01 3.87500e+00
 -1 8000 9.37500e-01 5.00000e-01 3.87500e+00
 -1 8001 8.75000e-01 5.00000e-01 3.81250e+00
 -1 8002 8.75000e-01 7.50000e-01 3.87500e+00
 -1 8003 1.00000e+00 5.00000e-01 4.00000e+00
 -1 8004 8.75000e-01 5.00000e-01 4.00000e+00
 -1 8005 1.00000e+00 5.00000e-01 3.93750e+00
 -1 8006 1.00000e+00 7.50000e-01 4.00000e+00
 -1 8007 9.37500e-01 5.00000e-01 4.00000e+00
 -1 8008 8.75000e-01 5.00000e-01 3.93750e+00
 -1 8009 8.75000e-01 7.50000e-01 4.00000e+00
 -1 8010 7.50000e-01 5.00000e-01-2.22045e-16
 -1 8011 7.50000e-01 5.00000e-01 1.25000e-01
 -1 8012 8.12500e-01 5.00000e-01 0.00000e+00
 -1 8013 8.12500e-01 5.00000e-01 1.25000e-01
 -1 8014 7.50000e-01 7.50000e-01-2.22045e-16
 -1 8015 7.50000e-01 5.00000e-01 6.25000e-02
 -1 8016 7.50000e-01 7.50000e-01 1.25000e-01
 -1 8017 7.50000e-01 5.00000e-01 2.50000e-01
 -1 8018 8.12500e-01 5.00000e-01 2.50000e-01
 -1 8019 7.50000e-01 5.00000e-01 1.87500e-01
 -1 8020 7.50000e-01 7.50000e-01 2.50000e-01
 -1 8021 7.50000e-01 5.00000e-01 3.75000e-01
 -1 8022 8.12500e-01 5.00000e-01 3.75000e-01
 -1 8023 7.50000e-01 5.00000e-01 3.12500e-01
 -1 8024 7.50000e-01 7.50000e-01 3.75000e-01
 -1 8025 7.50000e-01 5.00000e-01 5.00000e-01
 -1 8026 8.12500e-01 5.00000e-01 5.00000e-01
 -1 8027 7.50000e-01 5.00000e-01 4.37500e-01
 -1 8028 7.50000e-01 7.50000e-01 5.00000e-01
 -1 8029 7.50000e-01 5.00000e-01 6.25000e-01
 -1 8030 8.12500e-01 5.00000e-01 6.25000e-01
 -1 8031 7.50000e-01 5.00000e-01 5.62500e-01
 -1 8032 7.50000e-01 7.50000e-01 6.25000e-01
 -1 8033 7.50000e-01 5.00000e-01 7.50000e-01
 -1 8034 8.12500e-01 5.00000e-01 7.50000e-01
 -1 8035 7.50000e-01 5.00000e-01 6.87500e-01
 -1 8036 7.50000e-01 7.50000e-01 7.50000e-01
 -1 8037 7.50000e-01 5.00000e-01 8.75000e-01
 -1 8038 8.12500e-01 5.00000e-01 8.75000e-01
 -1 8039 7.50000e-01 5.00000e-01 8.12500e-01
 -1 8040 7.50000e-01 7.50000e-01 8.75000e-01
 -1 8041 7.50000e-01 5.00000e-01 1.00000e+00
 -1 8042 8.12500e-01 5.00000e-01 1.00000e+00
 -1 8043 7.50000e-01 5.00000e-01 9.37500e-01
 -1 8044 7.50000e-01 7.50000e-01 1.00000e+00
 -1 8045 7.50000e-01 5.00000e-01 1.12500e+00
 -1 8046 8.12500e-01 5.00000e-01 1.12500e+00
 -1 8047 7.50000e-01 5.00000e-01 1.06250e+00
 -1 8048 7.50000e-01 7.50000e-01 1.12500e+00
 -1 8049 7.50000e-01 5.00000e-01 1.25000e+00
 -1 8050 8.12500e-01 5.00000e-01 1.25000e+00
 -1 8051 7.50000e-01 5.00000e-01 1.18750e+00
 -1 8052 7.50000e-01 7.50000e-01 1.25000e+00
 -1 8053 7.50000e-01 5.00000e-01 1.37500e+00
 -1 8054 8.12500e-01 5.00000e-01 1.37500e+00
 -1 8055 7.50000e-01 5.00000e-01 1.31250e+00
 -1 8056 7.50000e-01 7.50000e-01 1.37500e+00
 -1 8057 7.50000e-01 5.00000e-01 1.50000e+00
 -1 8058 8.12500e-01 5.00000e-01 1.50000e+00
 -1 8059 7.50000e-01 5.00000e-01 1.43750e+00
 -1 8060 7.50000e-01 7.50000e-01 1.50000e+00
 -1 8061 7.50000e-01 5.00000e-01 1.62500e+00
 -1 8062 8.12500e-01 5.00000e-01 1.62500e+00
 -1 8063 7.50000e-01 5.00000e-01 1.56250e+00
 -1 8064 7.50000e-01 7.50000e-01 1.62500e+00
 -1 8065 7.50000e-01 5.00000e-01 1.75000e+00
 -1 8066 8.12500e-01 5.00000e-01 1.75000e+00
 -1 8067 7.50000e-01 5.00000e-01 1.68750e+00
 -1 8068 7.50000e-01 7.50000e-01 1.75000e+00
 -1 8069 7.50000e-01 5.00000e-01 1.87500e+00
 -1 8070 8.12500e-01 5.00000e-01 1.87500e+00
 -1 8071 7.50000e-01 5.00000e-01 1.81250e+00
 -1 8072 7.50000e-01 7.50000e-01 1.87500e+00
 -1 8073 7.50000e-01 5.00000e-01 2.00000e+00
 -1 8074 8.12500e-01 5.00000e-01 2.00000e+00
 -1 8075 7.50000e-01 5.00000e-01 1.93750e+00
 -1 8076 7.50000e-01 7.50000e-01 2.00000e+00
 -1 8077 7.50000e-01 5.00000e-01 2.12500e+00
 -1 8078 8.12500e-01 5.00000e-01 2.12500e+00
 -1 8079 7.50000e-01 5.00000e-01 2.06250e+00
 -1 8080 7.50000e-01 7.50000e-01 2.12500e+00
 -1 8081 7.50000e-01 5.00000e-01 2.25000e+00
 -1 8082 8.12500e-01 5.00000e-01 2.25000e+00
 -1 8083 7.50000e-01 5.00000e-01 2.18750e+00
 -1 8084 7.50000e-01 7.50000e-01 2.25000e+00
 -1 8085 7.50000e-01 5.00000e-01 2.37500e+00
 -1 8086 8.12500e-01 5.00000e-01 2.37500e+00
 -1 8087 7.50000e-01 5.00000e-01 2.31250e+00
 -1 8088 7.50000e-01 7.50000e-01 2.37500e+00
 -1 8089 7.50000e-01 5.00000e-01 2.50000e+00
 -1 8090 8.12500e-01 5.00000e-01 2.50000e+00
 -1 8091 7.50000e-01 5.00000e-01 2.43750e+00
 -1 8092 7.50000e-01 7.50000e-01 2.50000e+00
 -1 8093 7.50000e-01 5.00000e-01 2.62500e+00
 -1 8094 8.12500e-01 5.00000e-01 2.62500e+00
 -1 8095 7.50000e-01 5.00000e-01 2.56250e+00
 -1 8096 7.50000e-01 7.50000e-01 2.62500e+00
 -1 8097 7.50000e-01 5.00000e-01 2.75000e+00
 -1 8098 8.12500e-01 5.00000e-01 2.75000e+00
 -1 8099 7.50000e-01 5.00000e-01 2.68750e+00
 -1 8100 7.50000e-01 7.50000e-01 2.75000e+00
 -1 8101 7.50000e-01 5.00000e-01 2.87500e+00
 -1 8102 8.12500e-01 5.00000e-01 2.87500e+00
 -1 8103 7.50000e-01 5.00000e-01 2.81250e+00
 -1 8104 7.50000e-01 7.50000e-01 2.87500e+00
 -1 8105 7.50000e-01 5.00000e-01 3.00000e+00
 -1 8106 8.12500e-01 5.00000e-01 3.00000e+00
 -1 8107 7.50000e-01 5.00000e-01 2.93750e+00
 -1 8108 7.50000e-01 7.50000e-01 3.00000e+00
 -1 8109 7.50000e-01 5.00000e-01 3.12500e+00
 -1 8110 8.12500e-01 5.00000e-01 3.12500e+00
 -1 8111 7.50000e-01 5.00000e-01 3.06250e+00
 -1 8112 7.50000e-01 7.50000e-01 3.12500e+00
 -1 8113 7.50000e-01 5.00000e-01 3.25000e+00
 -1 8114 8.12500e-01 5.00000e-01 3.25000e+00
 -1 8115 7.50000e-01 5.00000e-01 3.18750e+00
 -1 8116 7.50000e-01 7.50000e-01 3.25000e+00
 -1 8117 7.50000e-01 5.00000e-01 3.37500e+00
 -1 8118 8.12500e-01 5.00000e-01 3.37500e+00
 -1 8119 7.50000e-01 5.00000e-01 3.31250e+00
 -1 8120 7.50000e-01 7.50000e-01 3.37500e+00
 -1 8121 7.50000e-01 5.00000e-01 3.50000e+00
 -1 8122 8.12500e-01 5.00000e-01 3.50000e+00
 -1 8123 7.50000e-01 5.00000e-01 3.43750e+00
 -1 8124 7.50000e-01 7.50000e-01 3.50000e+00
 -1 8125 7.50000e-01 5.00000e-01 3.62500e+00
 -1 8126 8.12500e-01 5.00000e-01 3.62500e+00
 -1 8127 7.50000e-01 5.00000e-01 3.56250e+00
 -1 8128 7.50000e-01 7.50000e-01 3.62500e+00
 -1 8129 7.50000e-01 5.00000e-01 3.75000e+00
 -1 8130 8.12500e-01 5.00000e-01 3.75000e+00
 -1 8131 7.50000e-01 5.00000e-01 3.68750e+00
 -1 8132 7.50000e-01 7.50000e-01 3.75000e+00
 -1 8133 7.50000e-01 5.00000e-01 3.87500e+00
 -1 8134 8.12500e-01 5.00000e-01 3.87500e+00
 -1 8135 7.50000e-01 5.00000e-01 3.81250e+00
 -1 8136 7.50000e-01 7.50000e-01 3.87500e+00
 -1 8137 7.50000e-01 5.00000e-01 4.00000e+00
 -1 8138 8.12500e-01 5.00000e-01 4.00000e+00
 -1 8139 7.50000e-01 5.00000e-01 3.93750e+00
 -1 8140 7.50000e-01 7.50000e-01 4.00000e+00
 -1 8141 6.25000e-01 5.00000e-01 4.44089e-16
 -1 8142 6.25000e-01 5.00000e-01 1.25000e-01
 -1 8143 6.87500e-01 5.00000e-01 0.00000e+00
 -1 8144 6.87500e-01 5.00000e-01 1.25000e-01
 -1 8145 6.25000e-01 7.50000e-01-2.22045e-16
 -1 8146 6.25000e-01 5.00000e-01 6.25000e-02
 -1 8147 6.25000e-01 7.50000e-01 1.25000e-01
 -1 8148 6.25000e-01 5.00000e-01 2.50000e-01
 -1 8149 6.87500e-01 5.00000e-01 2.50000e-01
 -1 8150 6.25000e-01 5.00000e-01 1.87500e-01
 -1 8151 6.25000e-01 7.50000e-01 2.50000e-01
 -1 8152 6.25000e-01 5.00000e-01 3.75000e-01
 -1 8153 6.87500e-01 5.00000e-01 3.75000e-01
 -1 8154 6.25000e-01 5.00000e-01 3.12500e-01
 -1 8155 6.25000e-01 7.50000e-01 3.75000e-01
 -1 8156 6.25000e-01 5.00000e-01 5.00000e-01
 -1 8157 6.87500e-01 5.00000e-01 5.00000e-01
 -1 8158 6.25000e-01 5.00000e-01 4.37500e-01
 -1 8159 6.25000e-01 7.50000e-01 5.00000e-01
 -1 8160 6.25000e-01 5.00000e-01 6.25000e-01
 -1 8161 6.87500e-01 5.00000e-01 6.25000e-01
 -1 8162 6.25000e-01 5.00000e-01 5.62500e-01
 -1 8163 6.25000e-01 7.50000e-01 6.25000e-01
 -1 8164 6.25000e-01 5.00000e-01 7.50000e-01
 -1 8165 6.87500e-01 5.00000e-01 7.50000e-01
 -1 8166 6.25000e-01 5.00000e-01 6.87500e-01
 -1 8167 6.25000e-01 7.50000e-01 7.50000e-01
 -1 8168 6.25000e-01 5.00000e-01 8.75000e-01
 -1 8169 6.87500e-01 5.00000e-01 8.75000e-01
 -1 8170 6.25000e-01 5.00000e-01 8.12500e-01
 -1 8171 6.25000e-01 7.50000e-01 8.75000e-01
 -1 8172 6.25000e-01 5.00000e-01 1.00000e+00
 -1 8173 6.87500e-01 5.00000e-01 1.00000e+00
 -1 8174 6.25000e-01 5.00000e-01 9.37500e-01
 -1 8175 6.25000e-01 7.50000e-01 1.00000e+00
 -1 8176 6.25000e-01 5.00000e-01 1.12500e+00
 -1 8177 6.87500e-01 5.00000e-01 1.12500e+00
 -1 8178 6.25000e-01 5.00000e-01 1.06250e+00
 -1 8179 6.25000e-01 7.50000e-01 1.12500e+00
 -1 8180 6.25000e-01 5.00000e-01 1.25000e+00
 -1 8181 6.87500e-01 5.00000e-01 1.25000e+00
 -1 8182 6.25000e-01 5.00000e-01 1.18750e+00
 -1 8183 6.25000e-01 7.50000e-01 1.25000e+00
 -1 8184 6.25000e-01 5.00000e-01 1.37500e+00
 -1 8185 6.87500e-01 5.00000e-01 1.37500e+00
 -1 8186 6.25000e-01 5.00000e-01 1.31250e+00
 -1 8187 6.25000e-01 7.50000e-01 1.37500e+00
 -1 8188 6.25000e-01 5.00000e-01 1.50000e+00
 -1 8189 6.87500e-01 5.00000e-01 1.50000e+00
 -1 8190 6.25000e-01 5.00000e-01 1.43750e+00
 -1 8191 6.25000e-01 7.50000e-01 1.50000e+00
 -1 8192 6.25000e-01 5.00000e-01 1.62500e+00
 -1 8193 6.87500e-01 5.00000e-01 1.62500e+00
 -1 8194 6.25000e-01 5.00000e-01 1.56250e+00
 -1 8195 6.25000e-01 7.50000e-01 1.62500e+00
 -1 8196 6.25000e-01 5.00000e-01 1.75000e+00
 -1 8197 6.87500e-01 5.00000e-01 1.75000e+00
 -1 8198 6.25000e-01 5.00000e-01 1.68750e+00
 -1 8199 6.25000e-01 7.50000e-01 1.75000e+00
 -1 8200 6.25000e-01 5.00000e-01 1.87500e+00
 -1 8201 6.87500e-01 5.00000e-01 1.87500e+00
 -1 8202 6.25000e-01 5.00000e-01 1.81250e+00
 -1 8203 6.25000e-01 7.50000e-01 1.87500e+00
 -1 8204 6.25000e-01 5.00000e-01 2.00000e+00
 -1 8205 6.87500e-01 5.00000e-01 2.00000e+00
 -1 8206 6.25000e-01 5.00000e-01 1.93750e+00
 -1 8207 6.25000e-01 7.50000e-01 2.00000e+00
 -1 8208 6.25000e-01 5.00000e-01 2.12500e+00
 -1 8209 6.87500e-01 5.00000e-01 2.12500e+00
 -1 8210 6.25000e-01 5.00000e-01 2.06250e+00
 -1 8211 6.25000e-01 7.50000e-01 2.12500e+00
 -1 8212 6.25000e-01 5.00000e-01 2.25000e+00
 -1 8213 6.87500e-01 5.00000e-01 2.25000e+00
 -1 8214 6.25000e-01 5.00000e-01 2.18750e+00
 -1 8215 6.25000e-01 7.50000e-01 2.25000e+00
 -1 8216 6.25000e-01 5.00000e-01 2.37500e+00
 -1 8217 6.87500e-01 5.00000e-01 2.37500e+00
 -1 8218 6.25000e-01 5.00000e-01 2.31250e+00
 -1 8219 6.25000e-01 7.50000e-01 2.37500e+00
 -1 8220 6.25000e-01 5.00000e-01 2.50000e+00
 -1 8221 6.87500e-01 5.00000e-01 2.50000e+00
 -1 8222 6.25000e-01 5.00000e-01 2.43750e+00
 -1 8223 6.25000e-01 7.50000e-01 2.50000e+00
 -1 8224 6.25000e-01 5.00000e-01 2.62500e+00
 -1 8225 6.87500e-01 5.00000e-01 2.62500e+00
 -1 8226 6.25000e-01 5.00000e-01 2.56250e+00
 -1 8227 6.25000e-01 7.50000e-01 2.62500e+00
 -1 8228 6.25000e-01 5.00000e-01 2.75000e+00
 -1 8229 6.87500e-01 5.00000e-01 2.75000e+00
 -1 8230 6.25000e-01 5.00000e-01 2.68750e+00
 -1 8231 6.25000e-01 7.50000e-01 2.75000e+00
 -1 8232 6.25000e-01 5.00000e-01 2.87500e+00
 -1 8233 6.87500e-01 5.00000e-01 2.87500e+00
 -1 8234 6.25000e-01 5.00000e-01 2.81250e+00
 -1 8235 6.25000e-01 7.50000e-01 2.87500e+00
 -1 8236 6.25000e-01 5.00000e-01 3.00000e+00
 -1 8237 6.87500e-01 5.00000e-01 3.00000e+00
 -1 8238 6.25000e-01 5.00000e-01 2.93750e+00
 -1 8239 6.25000e-01 7.50000e-01 3.00000e+00
 -1 8240 6.25000e-01 5.00000e-01 3.12500e+00
 -1 8241 6.87500e-01 5.00000e-01 3.12500e+00
 -1 8242 6.25000e-01 5.00000e-01 3.06250e+00
 -1 8243 6.25000e-01 7.50000e-01 3.12500e+00
 -1 8244 6.25000e-01 5.00000e-01 3.25000e+00
 -1 8245 6.87500e-01 5.00000e-01 3.25000e+00
 -1 8246 6.25000e-01 5.00000e-01 3.18750e+00
 -1 8247 6.25000e-01 7.50000e-01 3.25000e+00
 -1 8248 6.25000e-01 5.00000e-01 3.37500e+00
 -1 8249 6.87500e-01 5.00000e-01 3.37500e+00
 -1 8250 6.25000e-01 5.00000e-01 3.31250e+00
 -1 8251 6.25000e-01 7.50000e-01 3.37500e+00
 -1 8252 6.25000e-01 5.00000e-01 3.50000e+00
 -1 8253 6.87500e-01 5.00000e-01 3.50000e+00
 -1 8254 6.25000e-01 5.00000e-01 3.43750e+00
 -1 8255 6.25000e-01 7.50000e-01 3.50000e+00
 -1 8256 6.25000e-01 5.00000e-01 3.62500e+00
 -1 8257 6.87500e-01 5.00000e-01 3.62500e+00
 -1 8258 6.25000e-01 5.00000e-01 3.56250e+00
 -1 8259 6.25000e-01 7.50000e-01 3.62500e+00
 -1 8260 6.25000e-01 5.00000e-01 3.75000e+00
 -1 8261 6.87500e-01 5.00000e-01 3.75000e+00
 -1 8262 6.25000e-01 5.00000e-01 3.68750e+00
 -1 8263 6.25000e-01 7.50000e-01 3.75000e+00
 -1 8264 6.25000e-01 5.00000e-01 3.87500e+00
 -1 8265 6.87500e-01 5.00000e-01 3.87500e+00
 -1 8266 6.25000e-01 5.00000e-01 3.81250e+00
 -1 8267 6.25000e-01 7.50000e-01 3.87500e+00
 -1 8268 6.25000e-01 5.00000e-01 4.00000e+00
 -1 8269 6.87500e-01 5.00000e-01 4.00000e+00
 -1 8270 6.25000e-01 5.00000e-01 3.93750e+00
 -1 8271 6.25000e-01 7.50000e-01 4.00000e+00
 -1 8272 5.00000e-01 5.00000e-01 4.44089e-16
 -1 8273 5.00000e-01 5.00000e-01 1.25000e-01
 -1 8274 5.62500e-01 5.00000e-01-2.22045e-16
 -1 8275 5.62500e-01 5.00000e-01 1.25000e-01
 -1 8276 5.00000e-01 7.50000e-01-8.88178e-16
 -1 8277 5.00000e-01 5.00000e-01 6.25000e-02
 -1 8278 5.00000e-01 7.50000e-01 1.25000e-01
 -1 8279 5.00000e-01 5.00000e-01 2.50000e-01
 -1 8280 5.62500e-01 5.00000e-01 2.50000e-01
 -1 8281 5.00000e-01 5.00000e-01 1.87500e-01
 -1 8282 5.00000e-01 7.50000e-01 2.50000e-01
 -1 8283 5.00000e-01 5.00000e-01 3.75000e-01
 -1 8284 5.62500e-01 5.00000e-01 3.75000e-01
 -1 8285 5.00000e-01 5.00000e-01 3.12500e-01
 -1 8286 5.00000e-01 7.50000e-01 3.75000e-01
 -1 8287 5.00000e-01 5.00000e-01 5.00000e-01
 -1 8288 5.62500e-01 5.00000e-01 5.00000e-01
 -1 8289 5.00000e-01 5.00000e-01 4.37500e-01
 -1 8290 5.00000e-01 7.50000e-01 5.00000e-01
 -1 8291 5.00000e-01 5.00000e-01 6.25000e-01
 -1 8292 5.62500e-01 5.00000e-01 6.25000e-01
 -1 8293 5.00000e-01 5.00000e-01 5.62500e-01
 -1 8294 5.00000e-01 7.50000e-01 6.25000e-01
 -1 8295 5.00000e-01 5.00000e-01 7.50000e-01
 -1 8296 5.62500e-01 5.00000e-01 7.50000e-01
 -1 8297 5.00000e-01 5.00000e-01 6.87500e-01
 -1 8298 5.00000e-01 7.50000e-01 7.50000e-01
 -1 8299 5.00000e-01 5.00000e-01 8.75000e-01
 -1 8300 5.62500e-01 5.00000e-01 8.75000e-01
 -1 8301 5.00000e-01 5.00000e-01 8.12500e-01
 -1 8302 5.00000e-01 7.50000e-01 8.75000e-01
 -1 8303 5.00000e-01 5.00000e-01 1.00000e+00
 -1 8304 5.62500e-01 5.00000e-01 1.00000e+00
 -1 8305 5.00000e-01 5.00000e-01 9.37500e-01
 -1 8306 5.00000e-01 7.50000e-01 1.00000e+00
 -1 8307 5.00000e-01 5.00000e-01 1.12500e+00
 -1 8308 5.62500e-01 5.00000e-01 1.12500e+00
 -1 8309 5.00000e-01 5.00000e-01 1.06250e+00
 -1 8310 5.00000e-01 7.50000e-01 1.12500e+00
 -1 8311 5.00000e-01 5.00000e-01 1.25000e+00
 -1 8312 5.62500e-01 5.00000e-01 1.25000e+00
 -1 8313 5.00000e-01 5.00000e-01 1.18750e+00
 -1 8314 5.00000e-01 7.50000e-01 1.25000e+00
 -1 8315 5.00000e-01 5.00000e-01 1.37500e+00
 -1 8316 5.62500e-01 5.00000e-01 1.37500e+00
 -1 8317 5.00000e-01 5.00000e-01 1.31250e+00
 -1 8318 5.00000e-01 7.50000e-01 1.37500e+00
 -1 8319 5.00000e-01 5.00000e-01 1.50000e+00
 -1 8320 5.62500e-01 5.00000e-01 1.50000e+00
 -1 8321 5.00000e-01 5.00000e-01 1.43750e+00
 -1 8322 5.00000e-01 7.50000e-01 1.50000e+00
 -1 8323 5.00000e-01 5.00000e-01 1.62500e+00
 -1 8324 5.62500e-01 5.00000e-01 1.62500e+00
 -1 8325 5.00000e-01 5.00000e-01 1.56250e+00
 -1 8326 5.00000e-01 7.50000e-01 1.62500e+00
 -1 8327 5.00000e-01 5.00000e-01 1.75000e+00
 -1 8328 5.62500e-01 5.00000e-01 1.75000e+00
 -1 8329 5.00000e-01 5.00000e-01 1.68750e+00
 -1 8330 5.00000e-01 7.50000e-01 1.75000e+00
 -1 8331 5.00000e-01 5.00000e-01 1.87500e+00
 -1 8332 5.62500e-01 5.00000e-01 1.87500e+00
 -1 8333 5.00000e-01 5.00000e-01 1.81250e+00
 -1 8334 5.00000e-01 7.50000e-01 1.87500e+00
 -1 8335 5.00000e-01 5.00000e-01 2.00000e+00
 -1 8336 5.62500e-01 5.00000e-01 2.00000e+00
 -1 8337 5.00000e-01 5.00000e-01 1.93750e+00
 -1 8338 5.00000e-01 7.50000e-01 2.00000e+00
 -1 8339 5.00000e-01 5.00000e-01 2.12500e+00
 -1 8340 5.62500e-01 5.00000e-01 2.12500e+00
 -1 8341 5.00000e-01 5.00000e-01 2.06250e+00
 -1 8342 5.00000e-01 7.50000e-01 2.12500e+00
 -1 8343 5.00000e-01 5.00000e-01 2.25000e+00
 -1 8344 5.62500e-01 5.00000e-01 2.25000e+00
 -1 8345 5.00000e-01 5.00000e-01 2.18750e+00
 -1 8346 5.00000e-01 7.50000e-01 2.25000e+00
 -1 8347 5.00000e-01 5.00000e-01 2.37500e+00
 -1 8348 5.62500e-01 5.00000e-01 2.37500e+00
 -1 8349 5.00000e-01 5.00000e-01 2.31250e+00
 -1 8350 5.00000e-01 7.50000e-01 2.37500e+00
 -1 8351 5.00000e-01 5.00000e-01 2.50000e+00
 -1 8352 5.62500e-01 5.00000e-01 2.50000e+00
 -1 8353 5.00000e-01 5.00000e-01 2.43750e+00
 -1 8354 5.00000e-01 7.50000e-01 2.50000e+00
 -1 8355 5.00000e-01 5.00000e-01 2.62500e+00
 -1 8356 5.62500e-01 5.00000e-01 2.62500e+00
 -1 8357 5.00000e-01 5.00000e-01 2.56250e+00
 -1 8358 5.00000e-01 7.50000e-01 2.62500e+00
 -1 8359 5.00000e-01 5.00000e-01 2.75000e+00
 -1 8360 5.62500e-01 5.00000e-01 2.75000e+00
 -1 8361 5.00000e-01 5.00000e-01 2.68750e+00
 -1 8362 5.00000e-01 7.50000e-01 2.75000e+00
 -1 8363 5.00000e-01 5.00000e-01 2.87500e+00
 -1 8364 5.62500e-01 5.00000e-01 2.87500e+00
 -1 8365 5.00000e-01 5.00000e-01 2.81250e+00
 -1 8366 5.00000e-01 7.50000e-01 2.87500e+00
 -1 8367 5.00000e-01 5.00000e-01 3.00000e+00
 -1 8368 5.62500e-01 5.00000e-01 3.00000e+00
 -1 8369 5.00000e-01 5.00000e-01 2.93750e+00
 -1 8370 5.00000e-01 7.50000e-01 3.00000e+00
 -1 8371 5.00000e-01 5.00000e-01 3.12500e+00
 -1 8372 5.62500e-01 5.00000e-01 3.12500e+00
 -1 8373 5.00000e-01 5.00000e-01 3.06250e+00
 -1 8374 5.00000e-01 7.50000e-01 3.12500e+00
 -1 8375 5.00000e-01 5.00000e-01 3.25000e+00
 -1 8376 5.62500e-01 5.00000e-01 3.25000e+00
 -1 8377 5.00000e-01 5.00000e-01 3.18750e+00
 -1 8378 5.00000e-01 7.50000e-01 3.25000e+00
 -1 8379 5.00000e-01 5.00000e-01 3.37500e+00
 -1 8380 5.62500e-01 5.00000e-01 3.37500e+00
 -1 8381 5.00000e-01 5.00000e-01 3.31250e+00
 -1 8382 5.00000e-01 7.50000e-01 3.37500e+00
 -1 8383 5.00000e-01 5.00000e-01 3.50000e+00
 -1 8384 5.62500e-01 5.00000e-01 3.50000e+00
 -1 8385 5.00000e-01 5.00000e-01 3.43750e+00
 -1 8386 5.00000e-01 7.50000e-01 3.50000e+00
 -1 8387 5.00000e-01 5.00000e-01 3.62500e+00
 -1 8388 5.62500e-01 5.00000e-01 3.62500e+00
 -1 8389 5.00000e-01 5.00000e-01 3.56250e+00
 -1 8390 5.00000e-01 7.50000e-01 3.62500e+00
 -1 8391 5.00000e-01 5.00000e-01 3.75000e+00
 -1 8392 5.62500e-01 5.00000e-01 3.75000e+00
 -1 8393 5.00000e-01 5.00000e-01 3.68750e+00
 -1 8394 5.00000e-01 7.50000e-01 3.75000e+00
 -1 8395 5.00000e-01 5.00000e-01 3.87500e+00
 -1 8396 5.62500e-01 5.00000e-01 3.87500e+00
 -1 8397 5.00000e-01 5.00000e-01 3.81250e+00
 -1 8398 5.00000e-01 7.50000e-01 3.87500e+00
 -1 8399 5.00000e-01 5.00000e-01 4.00000e+00
 -1 8400 5.62500e-01 5.00000e-01 4.00000e+00
 -1 8401 5.00000e-01 5.00000e-01 3.93750e+00
 -1 8402 5.00000e-01 7.50000e-01 4.00000e+00
 -1 8403 3.75000e-01 5.00000e-01 4.44089e-16
 -1 8404 3.75000e-01 5.00000e-01 1.25000e-01
 -1 8405 4.37500e-01 5.00000e-01 4.44089e-16
 -1 8406 4.37500e-01 5.00000e-01 1.25000e-01
 -1 8407 3.75000e-01 7.50000e-01 0.00000e+00
 -1 8408 3.75000e-01 5.00000e-01 6.25000e-02
 -1 8409 3.75000e-01 7.50000e-01 1.25000e-01
 -1 8410 3.75000e-01 5.00000e-01 2.50000e-01
 -1 8411 4.37500e-01 5.00000e-01 2.50000e-01
 -1 8412 3.75000e-01 5.00000e-01 1.87500e-01
 -1 8413 3.75000e-01 7.50000e-01 2.50000e-01
 -1 8414 3.75000e-01 5.00000e-01 3.75000e-01
 -1 8415 4.37500e-01 5.00000e-01 3.75000e-01
 -1 8416 3.75000e-01 5.00000e-01 3.12500e-01
 -1 8417 3.75000e-01 7.50000e-01 3.75000e-01
 -1 8418 3.75000e-01 5.00000e-01 5.00000e-01
 -1 8419 4.37500e-01 5.00000e-01 5.00000e-01
 -1 8420 3.75000e-01 5.00000e-01 4.37500e-01
 -1 8421 3.75000e-01 7.50000e-01 5.00000e-01
 -1 8422 3.75000e-01 5.00000e-01 6.25000e-01
 -1 8423 4.37500e-01 5.00000e-01 6.25000e-01
 -1 8424 3.75000e-01 5.00000e-01 5.62500e-01
 -1 8425 3.75000e-01 7.50000e-01 6.25000e-01
 -1 8426 3.75000e-01 5.00000e-01 7.50000e-01
 -1 8427 4.37500e-01 5.00000e-01 7.50000e-01
 -1 8428 3.75000e-01 5.00000e-01 6.87500e-01
 -1 8429 3.75000e-01 7.50000e-01 7.50000e-01
 -1 8430 3.75000e-01 5.00000e-01 8.75000e-01
 -1 8431 4.37500e-01 5.00000e-01 8.75000e-01
 -1 8432 3.75000e-01 5.00000e-01 8.12500e-01
 -1 8433 3.75000e-01 7.50000e-01 8.75000e-01
 -1 8434 3.75000e-01 5.00000e-01 1.00000e+00
 -1 8435 4.37500e-01 5.00000e-01 1.00000e+00
 -1 8436 3.75000e-01 5.00000e-01 9.37500e-01
 -1 8437 3.75000e-01 7.50000e-01 1.00000e+00
 -1 8438 3.75000e-01 5.00000e-01 1.12500e+00
 -1 8439 4.37500e-01 5.00000e-01 1.12500e+00
 -1 8440 3.75000e-01 5.00000e-01 1.06250e+00
 -1 8441 3.75000e-01 7.50000e-01 1.12500e+00
 -1 8442 3.75000e-01 5.00000e-01 1.25000e+00
 -1 8443 4.37500e-01 5.00000e-01 1.25000e+00
 -1 8444 3.75000e-01 5.00000e-01 1.18750e+00
 -1 8445 3.75000e-01 7.50000e-01 1.25000e+00
 -1 8446 3.75000e-01 5.00000e-01 1.37500e+00
 -1 8447 4.37500e-01 5.00000e-01 1.37500e+00
 -1 8448 3.75000e-01 5.00000e-01 1.31250e+00
 -1 8449 3.75000e-01 7.50000e-01 1.37500e+00
 -1 8450 3.75000e-01 5.00000e-01 1.50000e+00
 -1 8451 4.37500e-01 5.00000e-01 1.50000e+00
 -1 8452 3.75000e-01 5.00000e-01 1.43750e+00
 -1 8453 3.75000e-01 7.50000e-01 1.50000e+00
 -1 8454 3.75000e-01 5.00000e-01 1.62500e+00
 -1 8455 4.37500e-01 5.00000e-01 1.62500e+00
 -1 8456 3.75000e-01 5.00000e-01 1.56250e+00
 -1 8457 3.75000e-01 7.50000e-01 1.62500e+00
 -1 8458 3.75000e-01 5.00000e-01 1.75000e+00
 -1 8459 4.37500e-01 5.00000e-01 1.75000e+00
 -1 8460 3.75000e-01 5.00000e-01 1.68750e+00
 -1 8461 3.75000e-01 7.50000e-01 1.75000e+00
 -1 8462 3.75000e-01 5.00000e-01 1.87500e+00
 -1 8463 4.37500e-01 5.00000e-01 1.87500e+00
 -1 8464 3.75000e-01 5.00000e-01 1.81250e+00
 -1 8465 3.75000e-01 7.50000e-01 1.87500e+00
 -1 8466 3.75000e-01 5.00000e-01 2.00000e+00
 -1 8467 4.37500e-01 5.00000e-01 2.00000e+00
 -1 8468 3.75000e-01 5.00000e-01 1.93750e+00
 -1 8469 3.75000e-01 7.50000e-01 2.00000e+00
 -1 8470 3.75000e-01 5.00000e-01 2.12500e+00
 -1 8471 4.37500e-01 5.00000e-01 2.12500e+00
 -1 8472 3.75000e-01 5.00000e-01 2.06250e+00
 -1 8473 3.75000e-01 7.50000e-01 2.12500e+00
 -1 8474 3.75000e-01 5.00000e-01 2.25000e+00
 -1 8475 4.37500e-01 5.00000e-01 2.25000e+00
 -1 8476 3.75000e-01 5.00000e-01 2.18750e+00
 -1 8477 3.75000e-01 7.50000e-01 2.25000e+00
 -1 8478 3.75000e-01 5.00000e-01 2.37500e+00
 -1 8479 4.37500e-01 5.00000e-01 2.37500e+00
 -1 8480 3.75000e-01 5.00000e-01 2.31250e+00
 -1 8481 3.75000e-01 7.50000e-01 2.37500e+00
 -1 8482 3.75000e-01 5.00000e-01 2.50000e+00
 -1 8483 4.37500e-01 5.00000e-01 2.50000e+00
 -1 8484 3.75000e-01 5.00000e-01 2.43750e+00
 -1 8485 3.75000e-01 7.50000e-01 2.50000e+00
 -1 8486 3.75000e-01 5.00000e-01 2.62500e+00
 -1 8487 4.37500e-01 5.00000e-01 2.62500e+00
 -1 8488 3.75000e-01 5.00000e-01 2.56250e+00
 -1 8489 3.75000e-01 7.50000e-01 2.62500e+00
 -1 8490 3.75000e-01 5.00000e-01 2.75000e+00
 -1 8491 4.37500e-01 5.00000e-01 2.75000e+00
 -1 8492 3.75000e-01 5.00000e-01 2.68750e+00
 -1 8493 3.75000e-01 7.50000e-01 2.75000e+00
 -1 8494 3.75000e-01 5.00000e-01 2.87500e+00
 -1 8495 4.37500e-01 5.00000e-01 2.87500e+00
 -1 8496 3.75000e-01 5.00000e-01 2.81250e+00
 -1 8497 3.75000e-01 7.50000e-01 2.87500e+00
 -1 8498 3.75000e-01 5.00000e-01 3.00000e+00
 -1 8499 4.37500e-01 5.00000e-01 3.00000e+00
 -1 8500 3.75000e-01 5.00000e-01 2.93750e+00
 -1 8501 3.75000e-01 7.50000e-01 3.00000e+00
 -1 8502 3.75000e-01 5.00000e-01 3.12500e+00
 -1 8503 4.37500e-01 5.00000e-01 3.12500e+00
 -1 8504 3.75000e-01 5.00000e-01 3.06250e+00
 -1 8505 3.75000e-01 7.50000e-01 3.12500e+00
 -1 8506 3.75000e-01 5.00000e-01 3.25000e+00
 -1 8507 4.37500e-01 5.00000e-01 3.25000e+00
 -1 8508 3.75000e-01 5.00000e-01 3.18750e+00
 -1 8509 3.75000e-01 7.50000e-01 3.25000e+00
 -1 8510 3.75000e-01 5.00000e-01 3.37500e+00
 -1 8511 4.37500e-01 5.00000e-01 3.37500e+00
 -1 8512 3.75000e-01 5.00000e-01 3.31250e+00
 -1 8513 3.75000e-01 7.50000e-01 3.37500e+00
 -1 8514 3.75000e-01 5.00000e-01 3.50000e+00
 -1 8515 4.37500e-01 5.00000e-01 3.50000e+00
 -1 8516 3.75000e-01 5.00000e-01 3.43750e+00
 -1 8517 3.75000e-01 7.50000e-01 3.50000e+00
 -1 8518 3.75000e-01 5.00000e-01 3.62500e+00
 -1 8519 4.37500e-01 5.00000e-01 3.62500e+00
 -1 8520 3.75000e-01 5.00000e-01 3.56250e+00
 -1 8521 3.75000e-01 7.50000e-01 3.62500e+00
 -1 8522 3.75000e-01 5.00000e-01 3.75000e+00
 -1 8523 4.37500e-01 5.00000e-01 3.75000e+00
 -1 8524 3.75000e-01 5.00000e-01 3.68750e+00
 -1 8525 3.75000e-01 7.50000e-01 3.75000e+00
 -1 8526 3.75000e-01 5.00000e-01 3.87500e+00
 -1 8527 4.37500e-01 5.00000e-01 3.87500e+00
 -1 8528 3.75000e-01 5.00000e-01 3.81250e+00
 -1 8529 3.75000e-01 7.50000e-01 3.87500e+00
 -1 8530 3.75000e-01 5.00000e-01 4.00000e+00
 -1 8531 4.37500e-01 5.00000e-01 4.00000e+00
 -1 8532 3.75000e-01 5.00000e-01 3.93750e+00
 -1 8533 3.75000e-01 7.50000e-01 4.00000e+00
 -1 8534 2.50000e-01 5.00000e-01 6.66134e-16
 -1 8535 2.50000e-01 5.00000e-01 1.25000e-01
 -1 8536 3.12500e-01 5.00000e-01 4.44089e-16
 -1 8537 3.12500e-01 5.00000e-01 1.25000e-01
 -1 8538 2.50000e-01 7.50000e-01 0.00000e+00
 -1 8539 2.50000e-01 5.00000e-01 6.25000e-02
 -1 8540 2.50000e-01 7.50000e-01 1.25000e-01
 -1 8541 2.50000e-01 5.00000e-01 2.50000e-01
 -1 8542 3.12500e-01 5.00000e-01 2.50000e-01
 -1 8543 2.50000e-01 5.00000e-01 1.87500e-01
 -1 8544 2.50000e-01 7.50000e-01 2.50000e-01
 -1 8545 2.50000e-01 5.00000e-01 3.75000e-01
 -1 8546 3.12500e-01 5.00000e-01 3.75000e-01
 -1 8547 2.50000e-01 5.00000e-01 3.12500e-01
 -1 8548 2.50000e-01 7.50000e-01 3.75000e-01
 -1 8549 2.50000e-01 5.00000e-01 5.00000e-01
 -1 8550 3.12500e-01 5.00000e-01 5.00000e-01
 -1 8551 2.50000e-01 5.00000e-01 4.37500e-01
 -1 8552 2.50000e-01 7.50000e-01 5.00000e-01
 -1 8553 2.50000e-01 5.00000e-01 6.25000e-01
 -1 8554 3.12500e-01 5.00000e-01 6.25000e-01
 -1 8555 2.50000e-01 5.00000e-01 5.62500e-01
 -1 8556 2.50000e-01 7.50000e-01 6.25000e-01
 -1 8557 2.50000e-01 5.00000e-01 7.50000e-01
 -1 8558 3.12500e-01 5.00000e-01 7.50000e-01
 -1 8559 2.50000e-01 5.00000e-01 6.87500e-01
 -1 8560 2.50000e-01 7.50000e-01 7.50000e-01
 -1 8561 2.50000e-01 5.00000e-01 8.75000e-01
 -1 8562 3.12500e-01 5.00000e-01 8.75000e-01
 -1 8563 2.50000e-01 5.00000e-01 8.12500e-01
 -1 8564 2.50000e-01 7.50000e-01 8.75000e-01
 -1 8565 2.50000e-01 5.00000e-01 1.00000e+00
 -1 8566 3.12500e-01 5.00000e-01 1.00000e+00
 -1 8567 2.50000e-01 5.00000e-01 9.37500e-01
 -1 8568 2.50000e-01 7.50000e-01 1.00000e+00
 -1 8569 2.50000e-01 5.00000e-01 1.12500e+00
 -1 8570 3.12500e-01 5.00000e-01 1.12500e+00
 -1 8571 2.50000e-01 5.00000e-01 1.06250e+00
 -1 8572 2.50000e-01 7.50000e-01 1.12500e+00
 -1 8573 2.50000e-01 5.00000e-01 1.25000e+00
 -1 8574 3.12500e-01 5.00000e-01 1.25000e+00
 -1 8575 2.50000e-01 5.00000e-01 1.18750e+00
 -1 8576 2.50000e-01 7.50000e-01 1.25000e+00
 -1 8577 2.50000e-01 5.00000e-01 1.37500e+00
 -1 8578 3.12500e-01 5.00000e-01 1.37500e+00
 -1 8579 2.50000e-01 5.00000e-01 1.31250e+00
 -1 8580 2.50000e-01 7.50000e-01 1.37500e+00
 -1 8581 2.50000e-01 5.00000e-01 1.50000e+00
 -1 8582 3.12500e-01 5.00000e-01 1.50000e+00
 -1 8583 2.50000e-01 5.00000e-01 1.43750e+00
 -1 8584 2.50000e-01 7.50000e-01 1.50000e+00
 -1 8585 2.50000e-01 5.00000e-01 1.62500e+00
 -1 8586 3.12500e-01 5.00000e-01 1.62500e+00
 -1 8587 2.50000e-01 5.00000e-01 1.56250e+00
 -1 8588 2.50000e-01 7.50000e-01 1.62500e+00
 -1 8589 2.50000e-01 5.00000e-01 1.75000e+00
 -1 8590 3.12500e-01 5.00000e-01 1.75000e+00
 -1 8591 2.50000e-01 5.00000e-01 1.68750e+00
 -1 8592 2.50000e-01 7.50000e-01 1.75000e+00
 -1 8593 2.50000e-01 5.00000e-01 1.87500e+00
 -1 8594 3.12500e-01 5.00000e-01 1.87500e+00
 -1 8595 2.50000e-01 5.00000e-01 1.81250e+00
 -1 8596 2.50000e-01 7.50000e-01 1.87500e+00
 -1 8597 2.50000e-01 5.00000e-01 2.00000e+00
 -1 8598 3.12500e-01 5.00000e-01 2.00000e+00
 -1 8599 2.50000e-01 5.00000e-01 1.93750e+00
 -1 8600 2.50000e-01 7.50000e-01 2.00000e+00
 -1 8601 2.50000e-01 5.00000e-01 2.12500e+00
 -1 8602 3.12500e-01 5.00000e-01 2.12500e+00
 -1 8603 2.50000e-01 5.00000e-01 2.06250e+00
 -1 8604 2.50000e-01 7.50000e-01 2.12500e+00
 -1 8605 2.50000e-01 5.00000e-01 2.25000e+00
 -1 8606 3.12500e-01 5.00000e-01 2.25000e+00
 -1 8607 2.50000e-01 5.00000e-01 2.18750e+00
 -1 8608 2.50000e-01 7.50000e-01 2.25000e+00
 -1 8609 2.50000e-01 5.00000e-01 2.37500e+00
 -1 8610 3.12500e-01 5.00000e-01 2.37500e+00
 -1 8611 2.50000e-01 5.00000e-01 2.31250e+00
 -1 8612 2.50000e-01 7.50000e-01 2.37500e+00
 -1 8613 2.50000e-01 5.00000e-01 2.50000e+00
 -1 8614 3.12500e-01 5.00000e-01 2.50000e+00
 -1 8615 2.50000e-01 5.00000e-01 2.43750e+00
 -1 8616 2.50000e-01 7.50000e-01 2.50000e+00
 -1 8617 2.50000e-01 5.00000e-01 2.62500e+00
 -1 8618 3.12500e-01 5.00000e-01 2.62500e+00
 -1 8619 2.50000e-01 5.00000e-01 2.56250e+00
 -1 8620 2.50000e-01 7.50000e-01 2.62500e+00
 -1 8621 2.50000e-01 5.00000e-01 2.75000e+00
 -1 8622 3.12500e-01 5.00000e-01 2.75000e+00
 -1 8623 2.50000e-01 5.00000e-01 2.68750e+00
 -1 8624 2.50000e-01 7.50000e-01 2.75000e+00
 -1 8625 2.50000e-01 5.00000e-01 2.87500e+00
 -1 8626 3.12500e-01 5.00000e-01 2.87500e+00
 -1 8627 2.50000e-01 5.00000e-01 2.81250e+00
 -1 8628 2.50000e-01 7.50000e-01 2.87500e+00
 -1 8629 2.50000e-01 5.00000e-01 3.00000e+00
 -1 8630 3.12500e-01 5.00000e-01 3.00000e+00
 -1 8631 2.50000e-01 5.00000e-01 2.93750e+00
 -1 8632 2.50000e-01 7.50000e-01 3.00000e+00
 -1 8633 2.50000e-01 5.00000e-01 3.12500e+00
 -1 8634 3.12500e-01 5.00000e-01 3.12500e+00
 -1 8635 2.50000e-01 5.00000e-01 3.06250e+00
 -1 8636 2.50000e-01 7.50000e-01 3.12500e+00
 -1 8637 2.50000e-01 5.00000e-01 3.25000e+00
 -1 8638 3.12500e-01 5.00000e-01 3.25000e+00
 -1 8639 2.50000e-01 5.00000e-01 3.18750e+00
 -1 8640 2.50000e-01 7.50000e-01 3.25000e+00
 -1 8641 2.50000e-01 5.00000e-01 3.37500e+00
 -1 8642 3.12500e-01 5.00000e-01 3.37500e+00
 -1 8643 2.50000e-01 5.00000e-01 3.31250e+00
 -1 8644 2.50000e-01 7.50000e-01 3.37500e+00
 -1 8645 2.50000e-01 5.00000e-01 3.50000e+00
 -1 8646 3.12500e-01 5.00000e-01 3.50000e+00
 -1 8647 2.50000e-01 5.00000e-01 3.43750e+00
 -1 8648 2.50000e-01 7.50000e-01 3.50000e+00
 -1 8649 2.50000e-01 5.00000e-01 3.62500e+00
 -1 8650 3.12500e-01 5.00000e-01 3.62500e+00
 -1 8651 2.50000e-01 5.00000e-01 3.56250e+00
 -1 8652 2.50000e-01 7.50000e-01 3.62500e+00
 -1 8653 2.50000e-01 5.00000e-01 3.75000e+00
 -1 8654 3.12500e-01 5.00000e-01 3.75000e+00
 -1 8655 2.50000e-01 5.00000e-01 3.68750e+00
 -1 8656 2.50000e-01 7.50000e-01 3.75000e+00
 -1 8657 2.50000e-01 5.00000e-01 3.87500e+00
 -1 8658 3.12500e-01 5.00000e-01 3.87500e+00
 -1 8659 2.50000e-01 5.00000e-01 3.81250e+00
 -1 8660 2.50000e-01 7.50000e-01 3.87500e+00
 -1 8661 2.50000e-01 5.00000e-01 4.00000e+00
 -1 8662 3.12500e-01 5.00000e-01 4.00000e+00
 -1 8663 2.50000e-01 5.00000e-01 3.93750e+00
 -1 8664 2.50000e-01 7.50000e-01 4.00000e+00
 -1 8665 1.25000e-01 5.00000e-01 0.00000e+00
 -1 8666 1.25000e-01 5.00000e-01 1.25000e-01
 -1 8667 1.87500e-01 5.00000e-01 4.44089e-16
 -1 8668 1.87500e-01 5.00000e-01 1.25000e-01
 -1 8669 1.25000e-01 7.50000e-01 4.44089e-16
 -1 8670 1.25000e-01 5.00000e-01 6.25000e-02
 -1 8671 1.25000e-01 7.50000e-01 1.25000e-01
 -1 8672 1.25000e-01 5.00000e-01 2.50000e-01
 -1 8673 1.87500e-01 5.00000e-01 2.50000e-01
 -1 8674 1.25000e-01 5.00000e-01 1.87500e-01
 -1 8675 1.25000e-01 7.50000e-01 2.50000e-01
 -1 8676 1.25000e-01 5.00000e-01 3.75000e-01
 -1 8677 1.87500e-01 5.00000e-01 3.75000e-01
 -1 8678 1.25000e-01 5.00000e-01 3.12500e-01
 -1 8679 1.25000e-01 7.50000e-01 3.75000e-01
 -1 8680 1.25000e-01 5.00000e-01 5.00000e-01
 -1 8681 1.87500e-01 5.00000e-01 5.00000e-01
 -1 8682 1.25000e-01 5.00000e-01 4.37500e-01
 -1 8683 1.25000e-01 7.50000e-01 5.00000e-01
 -1 8684 1.25000e-01 5.00000e-01 6.25000e-01
 -1 8685 1.87500e-01 5.00000e-01 6.25000e-01
 -1 8686 1.25000e-01 5.00000e-01 5.62500e-01
 -1 8687 1.25000e-01 7.50000e-01 6.25000e-01
 -1 8688 1.25000e-01 5.00000e-01 7.50000e-01
 -1 8689 1.87500e-01 5.00000e-01 7.50000e-01
 -1 8690 1.25000e-01 5.00000e-01 6.87500e-01
 -1 8691 1.25000e-01 7.50000e-01 7.50000e-01
 -1 8692 1.25000e-01 5.00000e-01 8.75000e-01
 -1 8693 1.87500e-01 5.00000e-01 8.75000e-01
 -1 8694 1.25000e-01 5.00000e-01 8.12500e-01
 -1 8695 1.25000e-01 7.50000e-01 8.75000e-01
 -1 8696 1.25000e-01 5.00000e-01 1.00000e+00
 -1 8697 1.87500e-01 5.00000e-01 1.00000e+00
 -1 8698 1.25000e-01 5.00000e-01 9.37500e-01
 -1 8699 1.25000e-01 7.50000e-01 1.00000e+00
 -1 8700 1.25000e-01 5.00000e-01 1.12500e+00
 -1 8701 1.87500e-01 5.00000e-01 1.12500e+00
 -1 8702 1.25000e-01 5.00000e-01 1.06250e+00
 -1 8703 1.25000e-01 7.50000e-01 1.12500e+00
 -1 8704 1.25000e-01 5.00000e-01 1.25000e+00
 -1 8705 1.87500e-01 5.00000e-01 1.25000e+00
 -1 8706 1.25000e-01 5.00000e-01 1.18750e+00
 -1 8707 1.25000e-01 7.50000e-01 1.25000e+00
 -1 8708 1.25000e-01 5.00000e-01 1.37500e+00
 -1 8709 1.87500e-01 5.00000e-01 1.37500e+00
 -1 8710 1.25000e-01 5.00000e-01 1.31250e+00
 -1 8711 1.25000e-01 7.50000e-01 1.37500e+00
 -1 8712 1.25000e-01 5.00000e-01 1.50000e+00
 -1 8713 1.87500e-01 5.00000e-01 1.50000e+00
 -1 8714 1.25000e-01 5.00000e-01 1.43750e+00
 -1 8715 1.25000e-01 7.50000e-01 1.50000e+00
 -1 8716 1.25000e-01 5.00000e-01 1.62500e+00
 -1 8717 1.87500e-01 5.00000e-01 1.62500e+00
 -1 8718 1.25000e-01 5.00000e-01 1.56250e+00
 -1 8719 1.25000e-01 7.50000e-01 1.62500e+00
 -1 8720 1.25000e-01 5.00000e-01 1.75000e+00
 -1 8721 1.87500e-01 5.00000e-01 1.75000e+00
 -1 8722 1.25000e-01 5.00000e-01 1.68750e+00
 -1 8723 1.25000e-01 7.50000e-01 1.75000e+00
 -1 8724 1.25000e-01 5.00000e-01 1.87500e+00
 -1 8725 1.87500e-01 5.00000e-01 1.87500e+00
 -1 8726 1.25000e-01 5.00000e-01 1.81250e+00
 -1 8727 1.25000e-01 7.50000e-01 1.87500e+00
 -1 8728 1.25000e-01 5.00000e-01 2.00000e+00
 -1 8729 1.87500e-01 5.00000e-01 2.00000e+00
 -1 8730 1.25000e-01 5.00000e-01 1.93750e+00
 -1 8731 1.25000e-01 7.50000e-01 2.00000e+00
 -1 8732 1.25000e-01 5.00000e-01 2.12500e+00
 -1 8733 1.87500e-01 5.00000e-01 2.12500e+00
 -1 8734 1.25000e-01 5.00000e-01 2.06250e+00
 -1 8735 1.25000e-01 7.50000e-01 2.12500e+00
 -1 8736 1.25000e-01 5.00000e-01 2.25000e+00
 -1 8737 1.87500e-01 5.00000e-01 2.25000e+00
 -1 8738 1.25000e-01 5.00000e-01 2.18750e+00
 -1 8739 1.25000e-01 7.50000e-01 2.25000e+00
 -1 8740 1.25000e-01 5.00000e-01 2.37500e+00
 -1 8741 1.87500e-01 5.00000e-01 2.37500e+00
 -1 8742 1.25000e-01 5.00000e-01 2.31250e+00
 -1 8743 1.25000e-01 7.50000e-01 2.37500e+00
 -1 8744 1.25000e-01 5.00000e-01 2.50000e+00
 -1 8745 1.87500e-01 5.00000e-01 2.50000e+00
 -1 8746 1.25000e-01 5.00000e-01 2.43750e+00
 -1 8747 1.25000e-01 7.50000e-01 2.50000e+00
 -1 8748 1.25000e-01 5.00000e-01 2.62500e+00
 -1 8749 1.87500e-01 5.00000e-01 2.62500e+00
 -1 8750 1.25000e-01 5.00000e-01 2.56250e+00
 -1 8751 1.25000e-01 7.50000e-01 2.62500e+00
 -1 8752 1.25000e-01 5.00000e-01 2.75000e+00
 -1 8753 1.87500e-01 5.00000e-01 2.75000e+00
 -1 8754 1.25000e-01 5.00000e-01 2.68750e+00
 -1 8755 1.25000e-01 7.50000e-01 2.75000e+00
 -1 8756 1.25000e-01 5.00000e-01 2.87500e+00
 -1 8757 1.87500e-01 5.00000e-01 2.87500e+00
 -1 8758 1.25000e-01 5.00000e-01 2.81250e+00
 -1 8759 1.25000e-01 7.50000e-01 2.87500e+00
 -1 8760 1.25000e-01 5.00000e-01 3.00000e+00
 -1 8761 1.87500e-01 5.00000e-01 3.00000e+00
 -1 8762 1.25000e-01 5.00000e-01 2.93750e+00
 -1 8763 1.25000e-01 7.50000e-01 3.00000e+00
 -1 8764 1.25000e-01 5.00000e-01 3.12500e+00
 -1 8765 1.87500e-01 5.00000e-01 3.12500e+00
 -1 8766 1.25000e-01 5.00000e-01 3.06250e+00
 -1 8767 1.25000e-01 7.50000e-01 3.12500e+00
 -1 8768 1.25000e-01 5.00000e-01 3.25000e+00
 -1 8769 1.87500e-01 5.00000e-01 3.25000e+00
 -1 8770 1.25000e-01 5.00000e-01 3.18750e+00
 -1 8771 1.25000e-01 7.50000e-01 3.25000e+00
 -1 8772 1.25000e-01 5.00000e-01 3.37500e+00
 -1 8773 1.87500e-01 5.00000e-01 3.37500e+00
 -1 8774 1.25000e-01 5.00000e-01 3.31250e+00
 -1 8775 1.25000e-01 7.50000e-01 3.37500e+00
 -1 8776 1.25000e-01 5.00000e-01 3.50000e+00
 -1 8777 1.87500e-01 5.00000e-01 3.50000e+00
 -1 8778 1.25000e-01 5.00000e-01 3.43750e+00
 -1 8779 1.25000e-01 7.50000e-01 3.50000e+00
 -1 8780 1.25000e-01 5.00000e-01 3.62500e+00
 -1 8781 1.87500e-01 5.00000e-01 3.62500e+00
 -1 8782 1.25000e-01 5.00000e-01 3.56250e+00
 -1 8783 1.25000e-01 7.50000e-01 3.62500e+00
 -1 8784 1.25000e-01 5.00000e-01 3.75000e+00
 -1 8785 1.87500e-01 5.00000e-01 3.75000e+00
 -1 8786 1.25000e-01 5.00000e-01 3.68750e+00
 -1 8787 1.25000e-01 7.50000e-01 3.75000e+00
 -1 8788 1.25000e-01 5.00000e-01 3.87500e+00
 -1 8789 1.87500e-01 5.00000e-01 3.87500e+00
 -1 8790 1.25000e-01 5.00000e-01 3.81250e+00
 -1 8791 1.25000e-01 7.50000e-01 3.87500e+00
 -1 8792 1.25000e-01 5.00000e-01 4.00000e+00
 -1 8793 1.87500e-01 5.00000e-01 4.00000e+00
 -1 8794 1.25000e-01 5.00000e-01 3.93750e+00
 -1 8795 1.25000e-01 7.50000e-01 4.00000e+00
 -1 8796 0.00000e+00 5.00000e-01 0.00000e+00
 -1 8797 0.00000e+00 5.00000e-01 1.25000e-01
 -1 8798 6.25000e-02 5.00000e-01 0.00000e+00
 -1 8799 6.25000e-02 5.00000e-01 1.25000e-01
 -1 8800 0.00000e+00 7.50000e-01 0.00000e+00
 -1 8801 0.00000e+00 5.00000e-01 6.25000e-02
 -1 8802 0.00000e+00 7.50000e-01 1.25000e-01
 -1 8803 0.00000e+00 5.00000e-01 2.50000e-01
 -1 8804 6.25000e-02 5.00000e-01 2.50000e-01
 -1 8805-1.11022e-16 5.00000e-01 1.87500e-01
 -1 8806 0.00000e+00 7.50000e-01 2.50000e-01
 -1 8807 0.00000e+00 5.00000e-01 3.75000e-01
 -1 8808 6.25000e-02 5.00000e-01 3.75000e-01
 -1 8809 0.00000e+00 5.00000e-01 3.12500e-01
 -1 8810 0.00000e+00 7.50000e-01 3.75000e-01
 -1 8811-1.11022e-16 5.00000e-01 5.00000e-01
 -1 8812 6.25000e-02 5.00000e-01 5.00000e-01
 -1 8813 0.00000e+00 5.00000e-01 4.37500e-01
 -1 8814 0.00000e+00 7.50000e-01 5.00000e-01
 -1 8815 0.00000e+00 5.00000e-01 6.25000e-01
 -1 8816 6.25000e-02 5.00000e-01 6.25000e-01
 -1 8817 0.00000e+00 5.00000e-01 5.62500e-01
 -1 8818-1.11022e-16 7.50000e-01 6.25000e-01
 -1 8819 1.11022e-16 5.00000e-01 7.50000e-01
 -1 8820 6.25000e-02 5.00000e-01 7.50000e-01
 -1 8821 0.00000e+00 5.00000e-01 6.87500e-01
 -1 8822 0.00000e+00 7.50000e-01 7.50000e-01
 -1 8823 0.00000e+00 5.00000e-01 8.75000e-01
 -1 8824 6.25000e-02 5.00000e-01 8.75000e-01
 -1 8825-1.11022e-16 5.00000e-01 8.12500e-01
 -1 8826 0.00000e+00 7.50000e-01 8.75000e-01
 -1 8827 0.00000e+00 5.00000e-01 1.00000e+00
 -1 8828 6.25000e-02 5.00000e-01 1.00000e+00
 -1 8829 0.00000e+00 5.00000e-01 9.37500e-01
 -1 8830 0.00000e+00 7.50000e-01 1.00000e+00
 -1 8831-1.11022e-16 5.00000e-01 1.12500e+00
 -1 8832 6.25000e-02 5.00000e-01 1.12500e+00
 -1 8833 1.11022e-16 5.00000e-01 1.06250e+00
 -1 8834 1.11022e-16 7.50000e-01 1.12500e+00
 -1 8835 1.11022e-16 5.00000e-01 1.25000e+00
 -1 8836 6.25000e-02 5.00000e-01 1.25000e+00
 -1 8837 0.00000e+00 5.00000e-01 1.18750e+00
 -1 8838-3.33067e-16 7.50000e-01 1.25000e+00
 -1 8839 1.11022e-16 5.00000e-01 1.37500e+00
 -1 8840 6.25000e-02 5.00000e-01 1.37500e+00
 -1 8841 0.00000e+00 5.00000e-01 1.31250e+00
 -1 8842-3.33067e-16 7.50000e-01 1.37500e+00
 -1 8843 0.00000e+00 5.00000e-01 1.50000e+00
 -1 8844 6.25000e-02 5.00000e-01 1.50000e+00
 -1 8845-1.11022e-16 5.00000e-01 1.43750e+00
 -1 8846-1.11022e-16 7.50000e-01 1.50000e+00
 -1 8847 0.00000e+00 5.00000e-01 1.62500e+00
 -1 8848 6.25000e-02 5.00000e-01 1.62500e+00
 -1 8849 1.11022e-16 5.00000e-01 1.56250e+00
 -1 8850 1.11022e-16 7.50000e-01 1.62500e+00
 -1 8851-1.11022e-16 5.00000e-01 1.75000e+00
 -1 8852 6.25000e-02 5.00000e-01 1.75000e+00
 -1 8853 1.11022e-16 5.00000e-01 1.68750e+00
 -1 8854 1.11022e-16 7.50000e-01 1.75000e+00
 -1 8855 0.00000e+00 5.00000e-01 1.87500e+00
 -1 8856 6.25000e-02 5.00000e-01 1.87500e+00
 -1 8857 0.00000e+00 5.00000e-01 1.81250e+00
 -1 8858-3.33067e-16 7.50000e-01 1.87500e+00
 -1 8859 1.11022e-16 5.00000e-01 2.00000e+00
 -1 8860 6.25000e-02 5.00000e-01 2.00000e+00
 -1 8861 0.00000e+00 5.00000e-01 1.93750e+00
 -1 8862-3.33067e-16 7.50000e-01 2.00000e+00
 -1 8863 0.00000e+00 5.00000e-01 2.12500e+00
 -1 8864 6.25000e-02 5.00000e-01 2.12500e+00
 -1 8865-1.11022e-16 5.00000e-01 2.06250e+00
 -1 8866-1.11022e-16 7.50000e-01 2.12500e+00
 -1 8867 0.00000e+00 5.00000e-01 2.25000e+00
 -1 8868 6.25000e-02 5.00000e-01 2.25000e+00
 -1 8869 0.00000e+00 5.00000e-01 2.18750e+00
 -1 8870 1.11022e-16 7.50000e-01 2.25000e+00
 -1 8871-1.11022e-16 5.00000e-01 2.37500e+00
 -1 8872 6.25000e-02 5.00000e-01 2.37500e+00
 -1 8873 1.11022e-16 5.00000e-01 2.31250e+00
 -1 8874 1.11022e-16 7.50000e-01 2.37500e+00
 -1 8875 0.00000e+00 5.00000e-01 2.50000e+00
 -1 8876 6.25000e-02 5.00000e-01 2.50000e+00
 -1 8877 0.00000e+00 5.00000e-01 2.43750e+00
 -1 8878-3.33067e-16 7.50000e-01 2.50000e+00
 -1 8879 1.11022e-16 5.00000e-01 2.62500e+00
 -1 8880 6.25000e-02 5.00000e-01 2.62500e+00
 -1 8881 0.00000e+00 5.00000e-01 2.56250e+00
 -1 8882-3.33067e-16 7.50000e-01 2.62500e+00
 -1 8883 0.00000e+00 5.00000e-01 2.75000e+00
 -1 8884 6.25000e-02 5.00000e-01 2.75000e+00
 -1 8885-3.33067e-16 5.00000e-01 2.68750e+00
 -1 8886-1.11022e-16 7.50000e-01 2.75000e+00
 -1 8887 0.00000e+00 5.00000e-01 2.87500e+00
 -1 8888 6.25000e-02 5.00000e-01 2.87500e+00
 -1 8889 0.00000e+00 5.00000e-01 2.81250e+00
 -1 8890 1.11022e-16 7.50000e-01 2.87500e+00
 -1 8891-3.33067e-16 5.00000e-01 3.00000e+00
 -1 8892 6.25000e-02 5.00000e-01 3.00000e+00
 -1 8893 0.00000e+00 5.00000e-01 2.93750e+00
 -1 8894 0.00000e+00 7.50000e-01 3.00000e+00
 -1 8895 0.00000e+00 5.00000e-01 3.12500e+00
 -1 8896 6.25000e-02 5.00000e-01 3.12500e+00
 -1 8897 0.00000e+00 5.00000e-01 3.06250e+00
 -1 8898-3.33067e-16 7.50000e-01 3.12500e+00
 -1 8899 0.00000e+00 5.00000e-01 3.25000e+00
 -1 8900 6.25000e-02 5.00000e-01 3.25000e+00
 -1 8901 0.00000e+00 5.00000e-01 3.18750e+00
 -1 8902-1.11022e-16 7.50000e-01 3.25000e+00
 -1 8903 0.00000e+00 5.00000e-01 3.37500e+00
 -1 8904 6.25000e-02 5.00000e-01 3.37500e+00
 -1 8905-3.33067e-16 5.00000e-01 3.31250e+00
 -1 8906-1.11022e-16 7.50000e-01 3.37500e+00
 -1 8907-3.33067e-16 5.00000e-01 3.50000e+00
 -1 8908 6.25000e-02 5.00000e-01 3.50000e+00
 -1 8909 0.00000e+00 5.00000e-01 3.43750e+00
 -1 8910 1.11022e-16 7.50000e-01 3.50000e+00
 -1 8911-3.33067e-16 5.00000e-01 3.62500e+00
 -1 8912 6.25000e-02 5.00000e-01 3.62500e+00
 -1 8913 0.00000e+00 5.00000e-01 3.56250e+00
 -1 8914 0.00000e+00 7.50000e-01 3.62500e+00
 -1 8915 0.00000e+00 5.00000e-01 3.75000e+00
 -1 8916 6.25000e-02 5.00000e-01 3.75000e+00
 -1 8917 0.00000e+00 5.00000e-01 3.68750e+00
 -1 8918-3.33067e-16 7.50000e-01 3.75000e+00
 -1 8919 0.00000e+00 5.00000e-01 3.87500e+00
 -1 8920 6.25000e-02 5.00000e-01 3.87500e+00
 -1 8921-3.33067e-16 5.00000e-01 3.81250e+00
 -1 8922-1.11022e-16 7.50000e-01 3.87500e+00
 -1 8923 0.00000e+00 5.00000e-01 4.00000e+00
 -1 8924 6.25000e-02 5.00000e-01 4.00000e+00
 -1 8925-3.33067e-16 5.00000e-01 3.93750e+00
 -1 8926 0.00000e+00 7.50000e-01 4.00000e+00
 -1 8927 1.00000e+00-2.22045e-16 0.00000e+00
 -1 8928 1.00000e+00-2.22045e-16 1.25000e-01
 -1 8929 8.75000e-01-2.22045e-16 0.00000e+00
 -1 8930 8.75000e-01-2.22045e-16 1.25000e-01
 -1 8931 1.00000e+00 2.50000e-01 0.00000e+00
 -1 8932 1.00000e+00-2.22045e-16 6.25000e-02
 -1 8933 1.00000e+00 2.50000e-01 1.25000e-01
 -1 8934 9.37500e-01-2.22045e-16 0.00000e+00
 -1 8935 9.37500e-01-2.22045e-16 1.25000e-01
 -1 8936 8.75000e-01 2.50000e-01 0.00000e+00
 -1 8937 8.75000e-01-2.22045e-16 6.25000e-02
 -1 8938 8.75000e-01 2.50000e-01 1.25000e-01
 -1 8939 1.00000e+00-2.22045e-16 2.50000e-01
 -1 8940 8.75000e-01-2.22045e-16 2.50000e-01
 -1 8941 1.00000e+00-2.22045e-16 1.87500e-01
 -1 8942 1.00000e+00 2.50000e-01 2.50000e-01
 -1 8943 9.37500e-01-2.22045e-16 2.50000e-01
 -1 8944 8.75000e-01-2.22045e-16 1.87500e-01
 -1 8945 8.75000e-01 2.50000e-01 2.50000e-01
 -1 8946 1.00000e+00-2.22045e-16 3.75000e-01
 -1 8947 8.75000e-01-2.22045e-16 3.75000e-01
 -1 8948 1.00000e+00-2.22045e-16 3.12500e-01
 -1 8949 1.00000e+00 2.50000e-01 3.75000e-01
 -1 8950 9.37500e-01-2.22045e-16 3.75000e-01
 -1 8951 8.75000e-01-2.22045e-16 3.12500e-01
 -1 8952 8.75000e-01 2.50000e-01 3.75000e-01
 -1 8953 1.00000e+00-2.22045e-16 5.00000e-01
 -1 8954 8.75000e-01-2.22045e-16 5.00000e-01
 -1 8955 1.00000e+00-2.22045e-16 4.37500e-01
 -1 8956 1.00000e+00 2.50000e-01 5.00000e-01
 -1 8957 9.37500e-01-1.11022e-15 5.00000e-01
 -1 8958 8.75000e-01-2.22045e-16 4.37500e-01
 -1 8959 8.75000e-01 2.50000e-01 5.00000e-01
 -1 8960 1.00000e+00-2.22045e-16 6.25000e-01
 -1 8961 8.75000e-01-2.22045e-16 6.25000e-01
 -1 8962 1.00000e+00-2.22045e-16 5.62500e-01
 -1 8963 1.00000e+00 2.50000e-01 6.25000e-01
 -1 8964 9.37500e-01-2.22045e-16 6.25000e-01
 -1 8965 8.75000e-01-2.22045e-16 5.62500e-01
 -1 8966 8.75000e-01 2.50000e-01 6.25000e-01
 -1 8967 1.00000e+00-2.22045e-16 7.50000e-01
 -1 8968 8.75000e-01-2.22045e-16 7.50000e-01
 -1 8969 1.00000e+00-2.22045e-16 6.87500e-01
 -1 8970 1.00000e+00 2.50000e-01 7.50000e-01
 -1 8971 9.37500e-01-2.22045e-16 7.50000e-01
 -1 8972 8.75000e-01-2.22045e-16 6.87500e-01
 -1 8973 8.75000e-01 2.50000e-01 7.50000e-01
 -1 8974 1.00000e+00-2.22045e-16 8.75000e-01
 -1 8975 8.75000e-01-2.22045e-16 8.75000e-01
 -1 8976 1.00000e+00-2.22045e-16 8.12500e-01
 -1 8977 1.00000e+00 2.50000e-01 8.75000e-01
 -1 8978 9.37500e-01-2.22045e-16 8.75000e-01
 -1 8979 8.75000e-01-2.22045e-16 8.12500e-01
 -1 8980 8.75000e-01 2.50000e-01 8.75000e-01
 -1 8981 1.00000e+00-2.22045e-16 1.00000e+00
 -1 8982 8.75000e-01-2.22045e-16 1.00000e+00
 -1 8983 1.00000e+00-2.22045e-16 9.37500e-01
 -1 8984 1.00000e+00 2.50000e-01 1.00000e+00
 -1 8985 9.37500e-01-2.22045e-16 1.00000e+00
 -1 8986 8.75000e-01-2.22045e-16 9.37500e-01
 -1 8987 8.75000e-01 2.50000e-01 1.00000e+00
 -1 8988 1.00000e+00-2.22045e-16 1.12500e+00
 -1 8989 8.75000e-01 4.44089e-16 1.12500e+00
 -1 8990 1.00000e+00-2.22045e-16 1.06250e+00
 -1 8991 1.00000e+00 2.50000e-01 1.12500e+00
 -1 8992 9.37500e-01-2.22045e-16 1.12500e+00
 -1 8993 8.75000e-01 1.11022e-15 1.06250e+00
 -1 8994 8.75000e-01 2.50000e-01 1.12500e+00
 -1 8995 1.00000e+00-2.22045e-16 1.25000e+00
 -1 8996 8.75000e-01-4.44089e-16 1.25000e+00
 -1 8997 1.00000e+00-2.22045e-16 1.18750e+00
 -1 8998 1.00000e+00 2.50000e-01 1.25000e+00
 -1 8999 9.37500e-01-2.22045e-16 1.25000e+00
 -1 9000 8.75000e-01-2.22045e-16 1.18750e+00
 -1 9001 8.75000e-01 2.50000e-01 1.25000e+00
 -1 9002 1.00000e+00-2.22045e-16 1.37500e+00
 -1 9003 8.75000e-01-2.22045e-16 1.37500e+00
 -1 9004 1.00000e+00-2.22045e-16 1.31250e+00
 -1 9005 1.00000e+00 2.50000e-01 1.37500e+00
 -1 9006 9.37500e-01-2.22045e-16 1.37500e+00
 -1 9007 8.75000e-01-2.22045e-16 1.31250e+00
 -1 9008 8.75000e-01 2.50000e-01 1.37500e+00
 -1 9009 1.00000e+00-2.22045e-16 1.50000e+00
 -1 9010 8.75000e-01-2.22045e-16 1.50000e+00
 -1 9011 1.00000e+00-2.22045e-16 1.43750e+00
 -1 9012 1.00000e+00 2.50000e-01 1.50000e+00
 -1 9013 9.37500e-01-2.22045e-16 1.50000e+00
 -1 9014 8.75000e-01-2.22045e-16 1.43750e+00
 -1 9015 8.75000e-01 2.50000e-01 1.50000e+00
 -1 9016 1.00000e+00-2.22045e-16 1.62500e+00
 -1 9017 8.75000e-01-2.22045e-16 1.62500e+00
 -1 9018 1.00000e+00-2.22045e-16 1.56250e+00
 -1 9019 1.00000e+00 2.50000e-01 1.62500e+00
 -1 9020 9.37500e-01-4.44089e-16 1.62500e+00
 -1 9021 8.75000e-01 4.44089e-16 1.56250e+00
 -1 9022 8.75000e-01 2.50000e-01 1.62500e+00
 -1 9023 1.00000e+00-2.22045e-16 1.75000e+00
 -1 9024 8.75000e-01-2.22045e-16 1.75000e+00
 -1 9025 1.00000e+00-2.22045e-16 1.68750e+00
 -1 9026 1.00000e+00 2.50000e-01 1.75000e+00
 -1 9027 9.37500e-01-2.22045e-16 1.75000e+00
 -1 9028 8.75000e-01-2.22045e-16 1.68750e+00
 -1 9029 8.75000e-01 2.50000e-01 1.75000e+00
 -1 9030 1.00000e+00-2.22045e-16 1.87500e+00
 -1 9031 8.75000e-01-2.22045e-16 1.87500e+00
 -1 9032 1.00000e+00-2.22045e-16 1.81250e+00
 -1 9033 1.00000e+00 2.50000e-01 1.87500e+00
 -1 9034 9.37500e-01-2.22045e-16 1.87500e+00
 -1 9035 8.75000e-01-2.22045e-16 1.81250e+00
 -1 9036 8.75000e-01 2.50000e-01 1.87500e+00
 -1 9037 1.00000e+00-2.22045e-16 2.00000e+00
 -1 9038 8.75000e-01-4.44089e-16 2.00000e+00
 -1 9039 1.00000e+00-2.22045e-16 1.93750e+00
 -1 9040 1.00000e+00 2.50000e-01 2.00000e+00
 -1 9041 9.37500e-01-4.44089e-16 2.00000e+00
 -1 9042 8.75000e-01-2.22045e-16 1.93750e+00
 -1 9043 8.75000e-01 2.50000e-01 2.00000e+00
 -1 9044 1.00000e+00-2.22045e-16 2.12500e+00
 -1 9045 8.75000e-01-2.22045e-16 2.12500e+00
 -1 9046 1.00000e+00-2.22045e-16 2.06250e+00
 -1 9047 1.00000e+00 2.50000e-01 2.12500e+00
 -1 9048 9.37500e-01-2.22045e-16 2.12500e+00
 -1 9049 8.75000e-01-2.22045e-16 2.06250e+00
 -1 9050 8.75000e-01 2.50000e-01 2.12500e+00
 -1 9051 1.00000e+00-2.22045e-16 2.25000e+00
 -1 9052 8.75000e-01-2.22045e-16 2.25000e+00
 -1 9053 1.00000e+00-2.22045e-16 2.18750e+00
 -1 9054 1.00000e+00 2.50000e-01 2.25000e+00
 -1 9055 9.37500e-01-2.22045e-16 2.25000e+00
 -1 9056 8.75000e-01-2.22045e-16 2.18750e+00
 -1 9057 8.75000e-01 2.50000e-01 2.25000e+00
 -1 9058 1.00000e+00-2.22045e-16 2.37500e+00
 -1 9059 8.75000e-01-2.22045e-16 2.37500e+00
 -1 9060 1.00000e+00-2.22045e-16 2.31250e+00
 -1 9061 1.00000e+00 2.50000e-01 2.37500e+00
 -1 9062 9.37500e-01-2.22045e-16 2.37500e+00
 -1 9063 8.75000e-01 4.44089e-16 2.31250e+00
 -1 9064 8.75000e-01 2.50000e-01 2.37500e+00
 -1 9065 1.00000e+00-2.22045e-16 2.50000e+00
 -1 9066 8.75000e-01-2.22045e-16 2.50000e+00
 -1 9067 1.00000e+00-2.22045e-16 2.43750e+00
 -1 9068 1.00000e+00 2.50000e-01 2.50000e+00
 -1 9069 9.37500e-01-2.22045e-16 2.50000e+00
 -1 9070 8.75000e-01-2.22045e-16 2.43750e+00
 -1 9071 8.75000e-01 2.50000e-01 2.50000e+00
 -1 9072 1.00000e+00-2.22045e-16 2.62500e+00
 -1 9073 8.75000e-01-2.22045e-16 2.62500e+00
 -1 9074 1.00000e+00-2.22045e-16 2.56250e+00
 -1 9075 1.00000e+00 2.50000e-01 2.62500e+00
 -1 9076 9.37500e-01-4.44089e-16 2.62500e+00
 -1 9077 8.75000e-01-4.44089e-16 2.56250e+00
 -1 9078 8.75000e-01 2.50000e-01 2.62500e+00
 -1 9079 1.00000e+00-2.22045e-16 2.75000e+00
 -1 9080 8.75000e-01-4.44089e-16 2.75000e+00
 -1 9081 1.00000e+00-2.22045e-16 2.68750e+00
 -1 9082 1.00000e+00 2.50000e-01 2.75000e+00
 -1 9083 9.37500e-01 4.44089e-16 2.75000e+00
 -1 9084 8.75000e-01-2.22045e-16 2.68750e+00
 -1 9085 8.75000e-01 2.50000e-01 2.75000e+00
 -1 9086 1.00000e+00-2.22045e-16 2.87500e+00
 -1 9087 8.75000e-01-2.22045e-16 2.87500e+00
 -1 9088 1.00000e+00-2.22045e-16 2.81250e+00
 -1 9089 1.00000e+00 2.50000e-01 2.87500e+00
 -1 9090 9.37500e-01-2.22045e-16 2.87500e+00
 -1 9091 8.75000e-01-4.44089e-16 2.81250e+00
 -1 9092 8.75000e-01 2.50000e-01 2.87500e+00
 -1 9093 1.00000e+00-2.22045e-16 3.00000e+00
 -1 9094 8.75000e-01-2.22045e-16 3.00000e+00
 -1 9095 1.00000e+00-2.22045e-16 2.93750e+00
 -1 9096 1.00000e+00 2.50000e-01 3.00000e+00
 -1 9097 9.37500e-01-2.22045e-16 3.00000e+00
 -1 9098 8.75000e-01 4.44089e-16 2.93750e+00
 -1 9099 8.75000e-01 2.50000e-01 3.00000e+00
 -1 9100 1.00000e+00-2.22045e-16 3.12500e+00
 -1 9101 8.75000e-01 4.44089e-16 3.12500e+00
 -1 9102 1.00000e+00-2.22045e-16 3.06250e+00
 -1 9103 1.00000e+00 2.50000e-01 3.12500e+00
 -1 9104 9.37500e-01-2.22045e-16 3.12500e+00
 -1 9105 8.75000e-01-2.22045e-16 3.06250e+00
 -1 9106 8.75000e-01 2.50000e-01 3.12500e+00
 -1 9107 1.00000e+00-2.22045e-16 3.25000e+00
 -1 9108 8.75000e-01-2.22045e-16 3.25000e+00
 -1 9109 1.00000e+00-2.22045e-16 3.18750e+00
 -1 9110 1.00000e+00 2.50000e-01 3.25000e+00
 -1 9111 9.37500e-01-2.22045e-16 3.25000e+00
 -1 9112 8.75000e-01-2.22045e-16 3.18750e+00
 -1 9113 8.75000e-01 2.50000e-01 3.25000e+00
 -1 9114 1.00000e+00-2.22045e-16 3.37500e+00
 -1 9115 8.75000e-01-2.22045e-16 3.37500e+00
 -1 9116 1.00000e+00-2.22045e-16 3.31250e+00
 -1 9117 1.00000e+00 2.50000e-01 3.37500e+00
 -1 9118 9.37500e-01-2.22045e-16 3.37500e+00
 -1 9119 8.75000e-01-4.44089e-16 3.31250e+00
 -1 9120 8.75000e-01 2.50000e-01 3.37500e+00
 -1 9121 1.00000e+00-2.22045e-16 3.50000e+00
 -1 9122 8.75000e-01 4.44089e-16 3.50000e+00
 -1 9123 1.00000e+00-2.22045e-16 3.43750e+00
 -1 9124 1.00000e+00 2.50000e-01 3.50000e+00
 -1 9125 9.37500e-01-2.22045e-16 3.50000e+00
 -1 9126 8.75000e-01-2.22045e-16 3.43750e+00
 -1 9127 8.75000e-01 2.50000e-01 3.50000e+00
 -1 9128 1.00000e+00-2.22045e-16 3.62500e+00
 -1 9129 8.75000e-01 4.44089e-16 3.62500e+00
 -1 9130 1.00000e+00-2.22045e-16 3.56250e+00
 -1 9131 1.00000e+00 2.50000e-01 3.62500e+00
 -1 9132 9.37500e-01-2.22045e-16 3.62500e+00
 -1 9133 8.75000e-01-4.44089e-16 3.56250e+00
 -1 9134 8.75000e-01 2.50000e-01 3.62500e+00
 -1 9135 1.00000e+00-2.22045e-16 3.75000e+00
 -1 9136 8.75000e-01-2.22045e-16 3.75000e+00
 -1 9137 1.00000e+00-2.22045e-16 3.68750e+00
 -1 9138 1.00000e+00 2.50000e-01 3.75000e+00
 -1 9139 9.37500e-01-2.22045e-16 3.75000e+00
 -1 9140 8.75000e-01-2.22045e-16 3.68750e+00
 -1 9141 8.75000e-01 2.50000e-01 3.75000e+00
 -1 9142 1.00000e+00-2.22045e-16 3.87500e+00
 -1 9143 8.75000e-01 4.44089e-16 3.87500e+00
 -1 9144 1.00000e+00-2.22045e-16 3.81250e+00
 -1 9145 1.00000e+00 2.50000e-01 3.87500e+00
 -1 9146 9.37500e-01-2.22045e-16 3.87500e+00
 -1 9147 8.75000e-01-2.22045e-16 3.81250e+00
 -1 9148 8.75000e-01 2.50000e-01 3.87500e+00
 -1 9149 1.00000e+00-2.22045e-16 4.00000e+00
 -1 9150 8.75000e-01-2.22045e-16 4.00000e+00
 -1 9151 1.00000e+00-2.22045e-16 3.93750e+00
 -1 9152 1.00000e+00 2.50000e-01 4.00000e+00
 -1 9153 9.37500e-01-2.22045e-16 4.00000e+00
 -1 9154 8.75000e-01-2.22045e-16 3.93750e+00
 -1 9155 8.75000e-01 2.50000e-01 4.00000e+00
 -1 9156 7.50000e-01-2.22045e-16 0.00000e+00
 -1 9157 7.50000e-01-2.22045e-16 1.25000e-01
 -1 9158 8.12500e-01-2.22045e-16 0.00000e+00
 -1 9159 8.12500e-01-2.22045e-16 1.25000e-01
 -1 9160 7.50000e-01 2.50000e-01 0.00000e+00
 -1 9161 7.50000e-01-2.22045e-16 6.25000e-02
 -1 9162 7.50000e-01 2.50000e-01 1.25000e-01
 -1 9163 7.50000e-01-2.22045e-16 2.50000e-01
 -1 9164 8.12500e-01-4.44089e-16 2.50000e-01
 -1 9165 7.50000e-01-2.22045e-16 1.87500e-01
 -1 9166 7.50000e-01 2.50000e-01 2.50000e-01
 -1 9167 7.50000e-01-2.22045e-16 3.75000e-01
 -1 9168 8.12500e-01-2.22045e-16 3.75000e-01
 -1 9169 7.50000e-01-2.22045e-16 3.12500e-01
 -1 9170 7.50000e-01 2.50000e-01 3.75000e-01
 -1 9171 7.50000e-01-4.44089e-16 5.00000e-01
 -1 9172 8.12500e-01-4.44089e-16 5.00000e-01
 -1 9173 7.50000e-01-1.11022e-15 4.37500e-01
 -1 9174 7.50000e-01 2.50000e-01 5.00000e-01
 -1 9175 7.50000e-01-2.22045e-16 6.25000e-01
 -1 9176 8.12500e-01-2.22045e-16 6.25000e-01
 -1 9177 7.50000e-01-1.11022e-15 5.62500e-01
 -1 9178 7.50000e-01 2.50000e-01 6.25000e-01
 -1 9179 7.50000e-01-2.22045e-16 7.50000e-01
 -1 9180 8.12500e-01-2.22045e-16 7.50000e-01
 -1 9181 7.50000e-01-2.22045e-16 6.87500e-01
 -1 9182 7.50000e-01 2.50000e-01 7.50000e-01
 -1 9183 7.50000e-01-2.22045e-16 8.75000e-01
 -1 9184 8.12500e-01-2.22045e-16 8.75000e-01
 -1 9185 7.50000e-01-2.22045e-16 8.12500e-01
 -1 9186 7.50000e-01 2.50000e-01 8.75000e-01
 -1 9187 7.50000e-01-2.22045e-16 1.00000e+00
 -1 9188 8.12500e-01-2.22045e-16 1.00000e+00
 -1 9189 7.50000e-01-2.22045e-16 9.37500e-01
 -1 9190 7.50000e-01 2.50000e-01 1.00000e+00
 -1 9191 7.50000e-01 4.44089e-16 1.12500e+00
 -1 9192 8.12500e-01-2.22045e-16 1.12500e+00
 -1 9193 7.50000e-01-2.22045e-16 1.06250e+00
 -1 9194 7.50000e-01 2.50000e-01 1.12500e+00
 -1 9195 7.50000e-01-2.22045e-16 1.25000e+00
 -1 9196 8.12500e-01-2.22045e-16 1.25000e+00
 -1 9197 7.50000e-01-2.22045e-16 1.18750e+00
 -1 9198 7.50000e-01 2.50000e-01 1.25000e+00
 -1 9199 7.50000e-01-2.22045e-16 1.37500e+00
 -1 9200 8.12500e-01-2.22045e-16 1.37500e+00
 -1 9201 7.50000e-01-2.22045e-16 1.31250e+00
 -1 9202 7.50000e-01 2.50000e-01 1.37500e+00
 -1 9203 7.50000e-01-2.22045e-16 1.50000e+00
 -1 9204 8.12500e-01-2.22045e-16 1.50000e+00
 -1 9205 7.50000e-01-2.22045e-16 1.43750e+00
 -1 9206 7.50000e-01 2.50000e-01 1.50000e+00
 -1 9207 7.50000e-01 4.44089e-16 1.62500e+00
 -1 9208 8.12500e-01-4.44089e-16 1.62500e+00
 -1 9209 7.50000e-01-2.22045e-16 1.56250e+00
 -1 9210 7.50000e-01 2.50000e-01 1.62500e+00
 -1 9211 7.50000e-01-2.22045e-16 1.75000e+00
 -1 9212 8.12500e-01-2.22045e-16 1.75000e+00
 -1 9213 7.50000e-01-2.22045e-16 1.68750e+00
 -1 9214 7.50000e-01 2.50000e-01 1.75000e+00
 -1 9215 7.50000e-01-4.44089e-16 1.87500e+00
 -1 9216 8.12500e-01-2.22045e-16 1.87500e+00
 -1 9217 7.50000e-01-2.22045e-16 1.81250e+00
 -1 9218 7.50000e-01 2.50000e-01 1.87500e+00
 -1 9219 7.50000e-01-2.22045e-16 2.00000e+00
 -1 9220 8.12500e-01-4.44089e-16 2.00000e+00
 -1 9221 7.50000e-01-2.22045e-16 1.93750e+00
 -1 9222 7.50000e-01 2.50000e-01 2.00000e+00
 -1 9223 7.50000e-01-2.22045e-16 2.12500e+00
 -1 9224 8.12500e-01-2.22045e-16 2.12500e+00
 -1 9225 7.50000e-01-2.22045e-16 2.06250e+00
 -1 9226 7.50000e-01 2.50000e-01 2.12500e+00
 -1 9227 7.50000e-01-4.44089e-16 2.25000e+00
 -1 9228 8.12500e-01-2.22045e-16 2.25000e+00
 -1 9229 7.50000e-01-2.22045e-16 2.18750e+00
 -1 9230 7.50000e-01 2.50000e-01 2.25000e+00
 -1 9231 7.50000e-01-2.22045e-16 2.37500e+00
 -1 9232 8.12500e-01-2.22045e-16 2.37500e+00
 -1 9233 7.50000e-01-2.22045e-16 2.31250e+00
 -1 9234 7.50000e-01 2.50000e-01 2.37500e+00
 -1 9235 7.50000e-01-2.22045e-16 2.50000e+00
 -1 9236 8.12500e-01-2.22045e-16 2.50000e+00
 -1 9237 7.50000e-01-2.22045e-16 2.43750e+00
 -1 9238 7.50000e-01 2.50000e-01 2.50000e+00
 -1 9239 7.50000e-01-2.22045e-16 2.62500e+00
 -1 9240 8.12500e-01-2.22045e-16 2.62500e+00
 -1 9241 7.50000e-01-2.22045e-16 2.56250e+00
 -1 9242 7.50000e-01 2.50000e-01 2.62500e+00
 -1 9243 7.50000e-01-2.22045e-16 2.75000e+00
 -1 9244 8.12500e-01-2.22045e-16 2.75000e+00
 -1 9245 7.50000e-01-2.22045e-16 2.68750e+00
 -1 9246 7.50000e-01 2.50000e-01 2.75000e+00
 -1 9247 7.50000e-01-2.22045e-16 2.87500e+00
 -1 9248 8.12500e-01-2.22045e-16 2.87500e+00
 -1 9249 7.50000e-01-2.22045e-16 2.81250e+00
 -1 9250 7.50000e-01 2.50000e-01 2.87500e+00
 -1 9251 7.50000e-01-2.22045e-16 3.00000e+00
 -1 9252 8.12500e-01-2.22045e-16 3.00000e+00
 -1 9253 7.50000e-01-2.22045e-16 2.93750e+00
 -1 9254 7.50000e-01 2.50000e-01 3.00000e+00
 -1 9255 7.50000e-01-2.22045e-16 3.12500e+00
 -1 9256 8.12500e-01-2.22045e-16 3.12500e+00
 -1 9257 7.50000e-01 4.44089e-16 3.06250e+00
 -1 9258 7.50000e-01 2.50000e-01 3.12500e+00
 -1 9259 7.50000e-01-2.22045e-16 3.25000e+00
 -1 9260 8.12500e-01-2.22045e-16 3.25000e+00
 -1 9261 7.50000e-01-2.22045e-16 3.18750e+00
 -1 9262 7.50000e-01 2.50000e-01 3.25000e+00
 -1 9263 7.50000e-01-2.22045e-16 3.37500e+00
 -1 9264 8.12500e-01-1.11022e-15 3.37500e+00
 -1 9265 7.50000e-01-2.22045e-16 3.31250e+00
 -1 9266 7.50000e-01 2.50000e-01 3.37500e+00
 -1 9267 7.50000e-01-2.22045e-16 3.50000e+00
 -1 9268 8.12500e-01-2.22045e-16 3.50000e+00
 -1 9269 7.50000e-01-2.22045e-16 3.43750e+00
 -1 9270 7.50000e-01 2.50000e-01 3.50000e+00
 -1 9271 7.50000e-01-2.22045e-16 3.62500e+00
 -1 9272 8.12500e-01-2.22045e-16 3.62500e+00
 -1 9273 7.50000e-01-2.22045e-16 3.56250e+00
 -1 9274 7.50000e-01 2.50000e-01 3.62500e+00
 -1 9275 7.50000e-01-2.22045e-16 3.75000e+00
 -1 9276 8.12500e-01-2.22045e-16 3.75000e+00
 -1 9277 7.50000e-01-2.22045e-16 3.68750e+00
 -1 9278 7.50000e-01 2.50000e-01 3.75000e+00
 -1 9279 7.50000e-01-2.22045e-16 3.87500e+00
 -1 9280 8.12500e-01-2.22045e-16 3.87500e+00
 -1 9281 7.50000e-01-2.22045e-16 3.81250e+00
 -1 9282 7.50000e-01 2.50000e-01 3.87500e+00
 -1 9283 7.50000e-01-2.22045e-16 4.00000e+00
 -1 9284 8.12500e-01-2.22045e-16 4.00000e+00
 -1 9285 7.50000e-01-4.44089e-16 3.93750e+00
 -1 9286 7.50000e-01 2.50000e-01 4.00000e+00
 -1 9287 6.25000e-01-2.22045e-16 0.00000e+00
 -1 9288 6.25000e-01-2.22045e-16 1.25000e-01
 -1 9289 6.87500e-01-2.22045e-16 0.00000e+00
 -1 9290 6.87500e-01-2.22045e-16 1.25000e-01
 -1 9291 6.25000e-01 2.50000e-01 0.00000e+00
 -1 9292 6.25000e-01-2.22045e-16 6.25000e-02
 -1 9293 6.25000e-01 2.50000e-01 1.25000e-01
 -1 9294 6.25000e-01-2.22045e-16 2.50000e-01
 -1 9295 6.87500e-01-2.22045e-16 2.50000e-01
 -1 9296 6.25000e-01-2.22045e-16 1.87500e-01
 -1 9297 6.25000e-01 2.50000e-01 2.50000e-01
 -1 9298 6.25000e-01-2.22045e-16 3.75000e-01
 -1 9299 6.87500e-01-2.22045e-16 3.75000e-01
 -1 9300 6.25000e-01-2.22045e-16 3.12500e-01
 -1 9301 6.25000e-01 2.50000e-01 3.75000e-01
 -1 9302 6.25000e-01-4.44089e-16 5.00000e-01
 -1 9303 6.87500e-01-1.11022e-15 5.00000e-01
 -1 9304 6.25000e-01-4.44089e-16 4.37500e-01
 -1 9305 6.25000e-01 2.50000e-01 5.00000e-01
 -1 9306 6.25000e-01-2.22045e-16 6.25000e-01
 -1 9307 6.87500e-01 4.44089e-16 6.25000e-01
 -1 9308 6.25000e-01-2.22045e-16 5.62500e-01
 -1 9309 6.25000e-01 2.50000e-01 6.25000e-01
 -1 9310 6.25000e-01-2.22045e-16 7.50000e-01
 -1 9311 6.87500e-01-2.22045e-16 7.50000e-01
 -1 9312 6.25000e-01-2.22045e-16 6.87500e-01
 -1 9313 6.25000e-01 2.50000e-01 7.50000e-01
 -1 9314 6.25000e-01-2.22045e-16 8.75000e-01
 -1 9315 6.87500e-01-2.22045e-16 8.75000e-01
 -1 9316 6.25000e-01-2.22045e-16 8.12500e-01
 -1 9317 6.25000e-01 2.50000e-01 8.75000e-01
 -1 9318 6.25000e-01-2.22045e-16 1.00000e+00
 -1 9319 6.87500e-01-2.22045e-16 1.00000e+00
 -1 9320 6.25000e-01-2.22045e-16 9.37500e-01
 -1 9321 6.25000e-01 2.50000e-01 1.00000e+00
 -1 9322 6.25000e-01 1.11022e-15 1.12500e+00
 -1 9323 6.87500e-01-2.22045e-16 1.12500e+00
 -1 9324 6.25000e-01-2.22045e-16 1.06250e+00
 -1 9325 6.25000e-01 2.50000e-01 1.12500e+00
 -1 9326 6.25000e-01-2.22045e-16 1.25000e+00
 -1 9327 6.87500e-01-2.22045e-16 1.25000e+00
 -1 9328 6.25000e-01 4.44089e-16 1.18750e+00
 -1 9329 6.25000e-01 2.50000e-01 1.25000e+00
 -1 9330 6.25000e-01-2.22045e-16 1.37500e+00
 -1 9331 6.87500e-01-2.22045e-16 1.37500e+00
 -1 9332 6.25000e-01-2.22045e-16 1.31250e+00
 -1 9333 6.25000e-01 2.50000e-01 1.37500e+00
 -1 9334 6.25000e-01-2.22045e-16 1.50000e+00
 -1 9335 6.87500e-01-2.22045e-16 1.50000e+00
 -1 9336 6.25000e-01-2.22045e-16 1.43750e+00
 -1 9337 6.25000e-01 2.50000e-01 1.50000e+00
 -1 9338 6.25000e-01-2.22045e-16 1.62500e+00
 -1 9339 6.87500e-01-2.22045e-16 1.62500e+00
 -1 9340 6.25000e-01-2.22045e-16 1.56250e+00
 -1 9341 6.25000e-01 2.50000e-01 1.62500e+00
 -1 9342 6.25000e-01-2.22045e-16 1.75000e+00
 -1 9343 6.87500e-01-4.44089e-16 1.75000e+00
 -1 9344 6.25000e-01-4.44089e-16 1.68750e+00
 -1 9345 6.25000e-01 2.50000e-01 1.75000e+00
 -1 9346 6.25000e-01-2.22045e-16 1.87500e+00
 -1 9347 6.87500e-01-2.22045e-16 1.87500e+00
 -1 9348 6.25000e-01-2.22045e-16 1.81250e+00
 -1 9349 6.25000e-01 2.50000e-01 1.87500e+00
 -1 9350 6.25000e-01-2.22045e-16 2.00000e+00
 -1 9351 6.87500e-01 4.44089e-16 2.00000e+00
 -1 9352 6.25000e-01-2.22045e-16 1.93750e+00
 -1 9353 6.25000e-01 2.50000e-01 2.00000e+00
 -1 9354 6.25000e-01-2.22045e-16 2.12500e+00
 -1 9355 6.87500e-01-2.22045e-16 2.12500e+00
 -1 9356 6.25000e-01-2.22045e-16 2.06250e+00
 -1 9357 6.25000e-01 2.50000e-01 2.12500e+00
 -1 9358 6.25000e-01-2.22045e-16 2.25000e+00
 -1 9359 6.87500e-01-2.22045e-16 2.25000e+00
 -1 9360 6.25000e-01-2.22045e-16 2.18750e+00
 -1 9361 6.25000e-01 2.50000e-01 2.25000e+00
 -1 9362 6.25000e-01-2.22045e-16 2.37500e+00
 -1 9363 6.87500e-01-2.22045e-16 2.37500e+00
 -1 9364 6.25000e-01-2.22045e-16 2.31250e+00
 -1 9365 6.25000e-01 2.50000e-01 2.37500e+00
 -1 9366 6.25000e-01-2.22045e-16 2.50000e+00
 -1 9367 6.87500e-01-2.22045e-16 2.50000e+00
 -1 9368 6.25000e-01-2.22045e-16 2.43750e+00
 -1 9369 6.25000e-01 2.50000e-01 2.50000e+00
 -1 9370 6.25000e-01-2.22045e-16 2.62500e+00
 -1 9371 6.87500e-01-2.22045e-16 2.62500e+00
 -1 9372 6.25000e-01-2.22045e-16 2.56250e+00
 -1 9373 6.25000e-01 2.50000e-01 2.62500e+00
 -1 9374 6.25000e-01-2.22045e-16 2.75000e+00
 -1 9375 6.87500e-01 4.44089e-16 2.75000e+00
 -1 9376 6.25000e-01-2.22045e-16 2.68750e+00
 -1 9377 6.25000e-01 2.50000e-01 2.75000e+00
 -1 9378 6.25000e-01-2.22045e-16 2.87500e+00
 -1 9379 6.87500e-01-4.44089e-16 2.87500e+00
 -1 9380 6.25000e-01-4.44089e-16 2.81250e+00
 -1 9381 6.25000e-01 2.50000e-01 2.87500e+00
 -1 9382 6.25000e-01-2.22045e-16 3.00000e+00
 -1 9383 6.87500e-01-2.22045e-16 3.00000e+00
 -1 9384 6.25000e-01-2.22045e-16 2.93750e+00
 -1 9385 6.25000e-01 2.50000e-01 3.00000e+00
 -1 9386 6.25000e-01-2.22045e-16 3.12500e+00
 -1 9387 6.87500e-01 4.44089e-16 3.12500e+00
 -1 9388 6.25000e-01-2.22045e-16 3.06250e+00
 -1 9389 6.25000e-01 2.50000e-01 3.12500e+00
 -1 9390 6.25000e-01-2.22045e-16 3.25000e+00
 -1 9391 6.87500e-01-2.22045e-16 3.25000e+00
 -1 9392 6.25000e-01-2.22045e-16 3.18750e+00
 -1 9393 6.25000e-01 2.50000e-01 3.25000e+00
 -1 9394 6.25000e-01-2.22045e-16 3.37500e+00
 -1 9395 6.87500e-01-2.22045e-16 3.37500e+00
 -1 9396 6.25000e-01-2.22045e-16 3.31250e+00
 -1 9397 6.25000e-01 2.50000e-01 3.37500e+00
 -1 9398 6.25000e-01-2.22045e-16 3.50000e+00
 -1 9399 6.87500e-01-4.44089e-16 3.50000e+00
 -1 9400 6.25000e-01 4.44089e-16 3.43750e+00
 -1 9401 6.25000e-01 2.50000e-01 3.50000e+00
 -1 9402 6.25000e-01-2.22045e-16 3.62500e+00
 -1 9403 6.87500e-01-2.22045e-16 3.62500e+00
 -1 9404 6.25000e-01-2.22045e-16 3.56250e+00
 -1 9405 6.25000e-01 2.50000e-01 3.62500e+00
 -1 9406 6.25000e-01-2.22045e-16 3.75000e+00
 -1 9407 6.87500e-01-2.22045e-16 3.75000e+00
 -1 9408 6.25000e-01-2.22045e-16 3.68750e+00
 -1 9409 6.25000e-01 2.50000e-01 3.75000e+00
 -1 9410 6.25000e-01-2.22045e-16 3.87500e+00
 -1 9411 6.87500e-01-2.22045e-16 3.87500e+00
 -1 9412 6.25000e-01-2.22045e-16 3.81250e+00
 -1 9413 6.25000e-01 2.50000e-01 3.87500e+00
 -1 9414 6.25000e-01-2.22045e-16 4.00000e+00
 -1 9415 6.87500e-01-2.22045e-16 4.00000e+00
 -1 9416 6.25000e-01 4.44089e-16 3.93750e+00
 -1 9417 6.25000e-01 2.50000e-01 4.00000e+00
 -1 9418 5.00000e-01-2.22045e-16 0.00000e+00
 -1 9419 5.00000e-01-2.22045e-16 1.25000e-01
 -1 9420 5.62500e-01-2.22045e-16 0.00000e+00
 -1 9421 5.62500e-01-2.22045e-16 1.25000e-01
 -1 9422 5.00000e-01 2.50000e-01 0.00000e+00
 -1 9423 5.00000e-01-2.22045e-16 6.25000e-02
 -1 9424 5.00000e-01 2.50000e-01 1.25000e-01
 -1 9425 5.00000e-01-4.44089e-16 2.50000e-01
 -1 9426 5.62500e-01-2.22045e-16 2.50000e-01
 -1 9427 5.00000e-01-2.22045e-16 1.87500e-01
 -1 9428 5.00000e-01 2.50000e-01 2.50000e-01
 -1 9429 5.00000e-01-4.44089e-16 3.75000e-01
 -1 9430 5.62500e-01-2.22045e-16 3.75000e-01
 -1 9431 5.00000e-01-4.44089e-16 3.12500e-01
 -1 9432 5.00000e-01 2.50000e-01 3.75000e-01
 -1 9433 5.00000e-01-4.44089e-16 5.00000e-01
 -1 9434 5.62500e-01-2.22045e-16 5.00000e-01
 -1 9435 5.00000e-01-4.44089e-16 4.37500e-01
 -1 9436 5.00000e-01 2.50000e-01 5.00000e-01
 -1 9437 5.00000e-01-2.22045e-16 6.25000e-01
 -1 9438 5.62500e-01-2.22045e-16 6.25000e-01
 -1 9439 5.00000e-01-4.44089e-16 5.62500e-01
 -1 9440 5.00000e-01 2.50000e-01 6.25000e-01
 -1 9441 5.00000e-01-2.22045e-16 7.50000e-01
 -1 9442 5.62500e-01-2.22045e-16 7.50000e-01
 -1 9443 5.00000e-01-2.22045e-16 6.87500e-01
 -1 9444 5.00000e-01 2.50000e-01 7.50000e-01
 -1 9445 5.00000e-01-2.22045e-16 8.75000e-01
 -1 9446 5.62500e-01-2.22045e-16 8.75000e-01
 -1 9447 5.00000e-01-2.22045e-16 8.12500e-01
 -1 9448 5.00000e-01 2.50000e-01 8.75000e-01
 -1 9449 5.00000e-01-2.22045e-16 1.00000e+00
 -1 9450 5.62500e-01-2.22045e-16 1.00000e+00
 -1 9451 5.00000e-01-2.22045e-16 9.37500e-01
 -1 9452 5.00000e-01 2.50000e-01 1.00000e+00
 -1 9453 5.00000e-01 4.44089e-16 1.12500e+00
 -1 9454 5.62500e-01-2.22045e-16 1.12500e+00
 -1 9455 5.00000e-01 4.44089e-16 1.06250e+00
 -1 9456 5.00000e-01 2.50000e-01 1.12500e+00
 -1 9457 5.00000e-01 4.44089e-16 1.25000e+00
 -1 9458 5.62500e-01-2.22045e-16 1.25000e+00
 -1 9459 5.00000e-01 4.44089e-16 1.18750e+00
 -1 9460 5.00000e-01 2.50000e-01 1.25000e+00
 -1 9461 5.00000e-01-2.22045e-16 1.37500e+00
 -1 9462 5.62500e-01-2.22045e-16 1.37500e+00
 -1 9463 5.00000e-01-2.22045e-16 1.31250e+00
 -1 9464 5.00000e-01 2.50000e-01 1.37500e+00
 -1 9465 5.00000e-01-2.22045e-16 1.50000e+00
 -1 9466 5.62500e-01-2.22045e-16 1.50000e+00
 -1 9467 5.00000e-01-2.22045e-16 1.43750e+00
 -1 9468 5.00000e-01 2.50000e-01 1.50000e+00
 -1 9469 5.00000e-01 4.44089e-16 1.62500e+00
 -1 9470 5.62500e-01-2.22045e-16 1.62500e+00
 -1 9471 5.00000e-01-4.44089e-16 1.56250e+00
 -1 9472 5.00000e-01 2.50000e-01 1.62500e+00
 -1 9473 5.00000e-01-4.44089e-16 1.75000e+00
 -1 9474 5.62500e-01-2.22045e-16 1.75000e+00
 -1 9475 5.00000e-01-4.44089e-16 1.68750e+00
 -1 9476 5.00000e-01 2.50000e-01 1.75000e+00
 -1 9477 5.00000e-01-4.44089e-16 1.87500e+00
 -1 9478 5.62500e-01-2.22045e-16 1.87500e+00
 -1 9479 5.00000e-01-4.44089e-16 1.81250e+00
 -1 9480 5.00000e-01 2.50000e-01 1.87500e+00
 -1 9481 5.00000e-01-4.44089e-16 2.00000e+00
 -1 9482 5.62500e-01-2.22045e-16 2.00000e+00
 -1 9483 5.00000e-01-4.44089e-16 1.93750e+00
 -1 9484 5.00000e-01 2.50000e-01 2.00000e+00
 -1 9485 5.00000e-01-2.22045e-16 2.12500e+00
 -1 9486 5.62500e-01-2.22045e-16 2.12500e+00
 -1 9487 5.00000e-01-4.44089e-16 2.06250e+00
 -1 9488 5.00000e-01 2.50000e-01 2.12500e+00
 -1 9489 5.00000e-01-2.22045e-16 2.25000e+00
 -1 9490 5.62500e-01-2.22045e-16 2.25000e+00
 -1 9491 5.00000e-01-2.22045e-16 2.18750e+00
 -1 9492 5.00000e-01 2.50000e-01 2.25000e+00
 -1 9493 5.00000e-01-2.22045e-16 2.37500e+00
 -1 9494 5.62500e-01-2.22045e-16 2.37500e+00
 -1 9495 5.00000e-01-2.22045e-16 2.31250e+00
 -1 9496 5.00000e-01 2.50000e-01 2.37500e+00
 -1 9497 5.00000e-01-2.22045e-16 2.50000e+00
 -1 9498 5.62500e-01-2.22045e-16 2.50000e+00
 -1 9499 5.00000e-01-2.22045e-16 2.43750e+00
 -1 9500 5.00000e-01 2.50000e-01 2.50000e+00
 -1 9501 5.00000e-01-2.22045e-16 2.62500e+00
 -1 9502 5.62500e-01-2.22045e-16 2.62500e+00
 -1 9503 5.00000e-01-2.22045e-16 2.56250e+00
 -1 9504 5.00000e-01 2.50000e-01 2.62500e+00
 -1 9505 5.00000e-01 4.44089e-16 2.75000e+00
 -1 9506 5.62500e-01-2.22045e-16 2.75000e+00
 -1 9507 5.00000e-01-2.22045e-16 2.68750e+00
 -1 9508 5.00000e-01 2.50000e-01 2.75000e+00
 -1 9509 5.00000e-01 4.44089e-16 2.87500e+00
 -1 9510 5.62500e-01-2.22045e-16 2.87500e+00
 -1 9511 5.00000e-01 4.44089e-16 2.81250e+00
 -1 9512 5.00000e-01 2.50000e-01 2.87500e+00
 -1 9513 5.00000e-01-4.44089e-16 3.00000e+00
 -1 9514 5.62500e-01-4.44089e-16 3.00000e+00
 -1 9515 5.00000e-01 4.44089e-16 2.93750e+00
 -1 9516 5.00000e-01 2.50000e-01 3.00000e+00
 -1 9517 5.00000e-01 4.44089e-16 3.12500e+00
 -1 9518 5.62500e-01-2.22045e-16 3.12500e+00
 -1 9519 5.00000e-01 4.44089e-16 3.06250e+00
 -1 9520 5.00000e-01 2.50000e-01 3.12500e+00
 -1 9521 5.00000e-01-4.44089e-16 3.25000e+00
 -1 9522 5.62500e-01-2.22045e-16 3.25000e+00
 -1 9523 5.00000e-01 4.44089e-16 3.18750e+00
 -1 9524 5.00000e-01 2.50000e-01 3.25000e+00
 -1 9525 5.00000e-01-4.44089e-16 3.37500e+00
 -1 9526 5.62500e-01-2.22045e-16 3.37500e+00
 -1 9527 5.00000e-01-4.44089e-16 3.31250e+00
 -1 9528 5.00000e-01 2.50000e-01 3.37500e+00
 -1 9529 5.00000e-01-4.44089e-16 3.50000e+00
 -1 9530 5.62500e-01-2.22045e-16 3.50000e+00
 -1 9531 5.00000e-01-4.44089e-16 3.43750e+00
 -1 9532 5.00000e-01 2.50000e-01 3.50000e+00
 -1 9533 5.00000e-01-2.22045e-16 3.62500e+00
 -1 9534 5.62500e-01-2.22045e-16 3.62500e+00
 -1 9535 5.00000e-01-4.44089e-16 3.56250e+00
 -1 9536 5.00000e-01 2.50000e-01 3.62500e+00
 -1 9537 5.00000e-01-4.44089e-16 3.75000e+00
 -1 9538 5.62500e-01-2.22045e-16 3.75000e+00
 -1 9539 5.00000e-01-4.44089e-16 3.68750e+00
 -1 9540 5.00000e-01 2.50000e-01 3.75000e+00
 -1 9541 5.00000e-01-2.22045e-16 3.87500e+00
 -1 9542 5.62500e-01-2.22045e-16 3.87500e+00
 -1 9543 5.00000e-01-2.22045e-16 3.81250e+00
 -1 9544 5.00000e-01 2.50000e-01 3.87500e+00
 -1 9545 5.00000e-01-2.22045e-16 4.00000e+00
 -1 9546 5.62500e-01-2.22045e-16 4.00000e+00
 -1 9547 5.00000e-01 4.44089e-16 3.93750e+00
 -1 9548 5.00000e-01 2.50000e-01 4.00000e+00
 -1 9549 3.75000e-01-2.22045e-16 0.00000e+00
 -1 9550 3.75000e-01-2.22045e-16 1.25000e-01
 -1 9551 4.37500e-01-2.22045e-16 0.00000e+00
 -1 9552 4.37500e-01-2.22045e-16 1.25000e-01
 -1 9553 3.75000e-01 2.50000e-01 0.00000e+00
 -1 9554 3.75000e-01-2.22045e-16 6.25000e-02
 -1 9555 3.75000e-01 2.50000e-01 1.25000e-01
 -1 9556 3.75000e-01-2.22045e-16 2.50000e-01
 -1 9557 4.37500e-01-2.22045e-16 2.50000e-01
 -1 9558 3.75000e-01-2.22045e-16 1.87500e-01
 -1 9559 3.75000e-01 2.50000e-01 2.50000e-01
 -1 9560 3.75000e-01-2.22045e-16 3.75000e-01
 -1 9561 4.37500e-01-2.22045e-16 3.75000e-01
 -1 9562 3.75000e-01-2.22045e-16 3.12500e-01
 -1 9563 3.75000e-01 2.50000e-01 3.75000e-01
 -1 9564 3.75000e-01-2.22045e-16 5.00000e-01
 -1 9565 4.37500e-01-4.44089e-16 5.00000e-01
 -1 9566 3.75000e-01-1.11022e-15 4.37500e-01
 -1 9567 3.75000e-01 2.50000e-01 5.00000e-01
 -1 9568 3.75000e-01-2.22045e-16 6.25000e-01
 -1 9569 4.37500e-01-2.22045e-16 6.25000e-01
 -1 9570 3.75000e-01-4.44089e-16 5.62500e-01
 -1 9571 3.75000e-01 2.50000e-01 6.25000e-01
 -1 9572 3.75000e-01-2.22045e-16 7.50000e-01
 -1 9573 4.37500e-01-2.22045e-16 7.50000e-01
 -1 9574 3.75000e-01-2.22045e-16 6.87500e-01
 -1 9575 3.75000e-01 2.50000e-01 7.50000e-01
 -1 9576 3.75000e-01-2.22045e-16 8.75000e-01
 -1 9577 4.37500e-01-2.22045e-16 8.75000e-01
 -1 9578 3.75000e-01-2.22045e-16 8.12500e-01
 -1 9579 3.75000e-01 2.50000e-01 8.75000e-01
 -1 9580 3.75000e-01-2.22045e-16 1.00000e+00
 -1 9581 4.37500e-01-2.22045e-16 1.00000e+00
 -1 9582 3.75000e-01-2.22045e-16 9.37500e-01
 -1 9583 3.75000e-01 2.50000e-01 1.00000e+00
 -1 9584 3.75000e-01 1.11022e-15 1.12500e+00
 -1 9585 4.37500e-01 4.44089e-16 1.12500e+00
 -1 9586 3.75000e-01-2.22045e-16 1.06250e+00
 -1 9587 3.75000e-01 2.50000e-01 1.12500e+00
 -1 9588 3.75000e-01-2.22045e-16 1.25000e+00
 -1 9589 4.37500e-01-2.22045e-16 1.25000e+00
 -1 9590 3.75000e-01-2.22045e-16 1.18750e+00
 -1 9591 3.75000e-01 2.50000e-01 1.25000e+00
 -1 9592 3.75000e-01-2.22045e-16 1.37500e+00
 -1 9593 4.37500e-01-2.22045e-16 1.37500e+00
 -1 9594 3.75000e-01-2.22045e-16 1.31250e+00
 -1 9595 3.75000e-01 2.50000e-01 1.37500e+00
 -1 9596 3.75000e-01-2.22045e-16 1.50000e+00
 -1 9597 4.37500e-01-2.22045e-16 1.50000e+00
 -1 9598 3.75000e-01-2.22045e-16 1.43750e+00
 -1 9599 3.75000e-01 2.50000e-01 1.50000e+00
 -1 9600 3.75000e-01-2.22045e-16 1.62500e+00
 -1 9601 4.37500e-01-2.22045e-16 1.62500e+00
 -1 9602 3.75000e-01-2.22045e-16 1.56250e+00
 -1 9603 3.75000e-01 2.50000e-01 1.62500e+00
 -1 9604 3.75000e-01-2.22045e-16 1.75000e+00
 -1 9605 4.37500e-01-2.22045e-16 1.75000e+00
 -1 9606 3.75000e-01-2.22045e-16 1.68750e+00
 -1 9607 3.75000e-01 2.50000e-01 1.75000e+00
 -1 9608 3.75000e-01-2.22045e-16 1.87500e+00
 -1 9609 4.37500e-01-4.44089e-16 1.87500e+00
 -1 9610 3.75000e-01-2.22045e-16 1.81250e+00
 -1 9611 3.75000e-01 2.50000e-01 1.87500e+00
 -1 9612 3.75000e-01-2.22045e-16 2.00000e+00
 -1 9613 4.37500e-01-2.22045e-16 2.00000e+00
 -1 9614 3.75000e-01-2.22045e-16 1.93750e+00
 -1 9615 3.75000e-01 2.50000e-01 2.00000e+00
 -1 9616 3.75000e-01-2.22045e-16 2.12500e+00
 -1 9617 4.37500e-01-2.22045e-16 2.12500e+00
 -1 9618 3.75000e-01-2.22045e-16 2.06250e+00
 -1 9619 3.75000e-01 2.50000e-01 2.12500e+00
 -1 9620 3.75000e-01-2.22045e-16 2.25000e+00
 -1 9621 4.37500e-01-2.22045e-16 2.25000e+00
 -1 9622 3.75000e-01-2.22045e-16 2.18750e+00
 -1 9623 3.75000e-01 2.50000e-01 2.25000e+00
 -1 9624 3.75000e-01-2.22045e-16 2.37500e+00
 -1 9625 4.37500e-01-2.22045e-16 2.37500e+00
 -1 9626 3.75000e-01 4.44089e-16 2.31250e+00
 -1 9627 3.75000e-01 2.50000e-01 2.37500e+00
 -1 9628 3.75000e-01-2.22045e-16 2.50000e+00
 -1 9629 4.37500e-01-2.22045e-16 2.50000e+00
 -1 9630 3.75000e-01-2.22045e-16 2.43750e+00
 -1 9631 3.75000e-01 2.50000e-01 2.50000e+00
 -1 9632 3.75000e-01-2.22045e-16 2.62500e+00
 -1 9633 4.37500e-01-2.22045e-16 2.62500e+00
 -1 9634 3.75000e-01-2.22045e-16 2.56250e+00
 -1 9635 3.75000e-01 2.50000e-01 2.62500e+00
 -1 9636 3.75000e-01-2.22045e-16 2.75000e+00
 -1 9637 4.37500e-01-2.22045e-16 2.75000e+00
 -1 9638 3.75000e-01-2.22045e-16 2.68750e+00
 -1 9639 3.75000e-01 2.50000e-01 2.75000e+00
 -1 9640 3.75000e-01-2.22045e-16 2.87500e+00
 -1 9641 4.37500e-01-4.44089e-16 2.87500e+00
 -1 9642 3.75000e-01-2.22045e-16 2.81250e+00
 -1 9643 3.75000e-01 2.50000e-01 2.87500e+00
 -1 9644 3.75000e-01-4.44089e-16 3.00000e+00
 -1 9645 4.37500e-01-4.44089e-16 3.00000e+00
 -1 9646 3.75000e-01 4.44089e-16 2.93750e+00
 -1 9647 3.75000e-01 2.50000e-01 3.00000e+00
 -1 9648 3.75000e-01-2.22045e-16 3.12500e+00
 -1 9649 4.37500e-01-2.22045e-16 3.12500e+00
 -1 9650 3.75000e-01-2.22045e-16 3.06250e+00
 -1 9651 3.75000e-01 2.50000e-01 3.12500e+00
 -1 9652 3.75000e-01-2.22045e-16 3.25000e+00
 -1 9653 4.37500e-01-2.22045e-16 3.25000e+00
 -1 9654 3.75000e-01-2.22045e-16 3.18750e+00
 -1 9655 3.75000e-01 2.50000e-01 3.25000e+00
 -1 9656 3.75000e-01-2.22045e-16 3.37500e+00
 -1 9657 4.37500e-01-2.22045e-16 3.37500e+00
 -1 9658 3.75000e-01-2.22045e-16 3.31250e+00
 -1 9659 3.75000e-01 2.50000e-01 3.37500e+00
 -1 9660 3.75000e-01-2.22045e-16 3.50000e+00
 -1 9661 4.37500e-01-2.22045e-16 3.50000e+00
 -1 9662 3.75000e-01-2.22045e-16 3.43750e+00
 -1 9663 3.75000e-01 2.50000e-01 3.50000e+00
 -1 9664 3.75000e-01 4.44089e-16 3.62500e+00
 -1 9665 4.37500e-01-2.22045e-16 3.62500e+00
 -1 9666 3.75000e-01-2.22045e-16 3.56250e+00
 -1 9667 3.75000e-01 2.50000e-01 3.62500e+00
 -1 9668 3.75000e-01-2.22045e-16 3.75000e+00
 -1 9669 4.37500e-01-2.22045e-16 3.75000e+00
 -1 9670 3.75000e-01-2.22045e-16 3.68750e+00
 -1 9671 3.75000e-01 2.50000e-01 3.75000e+00
 -1 9672 3.75000e-01 4.44089e-16 3.87500e+00
 -1 9673 4.37500e-01-2.22045e-16 3.87500e+00
 -1 9674 3.75000e-01-2.22045e-16 3.81250e+00
 -1 9675 3.75000e-01 2.50000e-01 3.87500e+00
 -1 9676 3.75000e-01-2.22045e-16 4.00000e+00
 -1 9677 4.37500e-01-2.22045e-16 4.00000e+00
 -1 9678 3.75000e-01 4.44089e-16 3.93750e+00
 -1 9679 3.75000e-01 2.50000e-01 4.00000e+00
 -1 9680 2.50000e-01-2.22045e-16 0.00000e+00
 -1 9681 2.50000e-01-2.22045e-16 1.25000e-01
 -1 9682 3.12500e-01-2.22045e-16 0.00000e+00
 -1 9683 3.12500e-01-2.22045e-16 1.25000e-01
 -1 9684 2.50000e-01 2.50000e-01-2.22045e-16
 -1 9685 2.50000e-01-2.22045e-16 6.25000e-02
 -1 9686 2.50000e-01 2.50000e-01 1.25000e-01
 -1 9687 2.50000e-01-2.22045e-16 2.50000e-01
 -1 9688 3.12500e-01-2.22045e-16 2.50000e-01
 -1 9689 2.50000e-01-2.22045e-16 1.87500e-01
 -1 9690 2.50000e-01 2.50000e-01 2.50000e-01
 -1 9691 2.50000e-01-2.22045e-16 3.75000e-01
 -1 9692 3.12500e-01-2.22045e-16 3.75000e-01
 -1 9693 2.50000e-01-2.22045e-16 3.12500e-01
 -1 9694 2.50000e-01 2.50000e-01 3.75000e-01
 -1 9695 2.50000e-01-4.44089e-16 5.00000e-01
 -1 9696 3.12500e-01-1.11022e-15 5.00000e-01
 -1 9697 2.50000e-01-4.44089e-16 4.37500e-01
 -1 9698 2.50000e-01 2.50000e-01 5.00000e-01
 -1 9699 2.50000e-01-2.22045e-16 6.25000e-01
 -1 9700 3.12500e-01-2.22045e-16 6.25000e-01
 -1 9701 2.50000e-01-4.44089e-16 5.62500e-01
 -1 9702 2.50000e-01 2.50000e-01 6.25000e-01
 -1 9703 2.50000e-01-2.22045e-16 7.50000e-01
 -1 9704 3.12500e-01-2.22045e-16 7.50000e-01
 -1 9705 2.50000e-01-2.22045e-16 6.87500e-01
 -1 9706 2.50000e-01 2.50000e-01 7.50000e-01
 -1 9707 2.50000e-01-2.22045e-16 8.75000e-01
 -1 9708 3.12500e-01-2.22045e-16 8.75000e-01
 -1 9709 2.50000e-01 4.44089e-16 8.12500e-01
 -1 9710 2.50000e-01 2.50000e-01 8.75000e-01
 -1 9711 2.50000e-01-2.22045e-16 1.00000e+00
 -1 9712 3.12500e-01-2.22045e-16 1.00000e+00
 -1 9713 2.50000e-01 4.44089e-16 9.37500e-01
 -1 9714 2.50000e-01 2.50000e-01 1.00000e+00
 -1 9715 2.50000e-01 1.11022e-15 1.12500e+00
 -1 9716 3.12500e-01 4.44089e-16 1.12500e+00
 -1 9717 2.50000e-01 1.11022e-15 1.06250e+00
 -1 9718 2.50000e-01 2.50000e-01 1.12500e+00
 -1 9719 2.50000e-01-2.22045e-16 1.25000e+00
 -1 9720 3.12500e-01-2.22045e-16 1.25000e+00
 -1 9721 2.50000e-01-2.22045e-16 1.18750e+00
 -1 9722 2.50000e-01 2.50000e-01 1.25000e+00
 -1 9723 2.50000e-01-2.22045e-16 1.37500e+00
 -1 9724 3.12500e-01-2.22045e-16 1.37500e+00
 -1 9725 2.50000e-01-2.22045e-16 1.31250e+00
 -1 9726 2.50000e-01 2.50000e-01 1.37500e+00
 -1 9727 2.50000e-01-2.22045e-16 1.50000e+00
 -1 9728 3.12500e-01-2.22045e-16 1.50000e+00
 -1 9729 2.50000e-01-2.22045e-16 1.43750e+00
 -1 9730 2.50000e-01 2.50000e-01 1.50000e+00
 -1 9731 2.50000e-01 4.44089e-16 1.62500e+00
 -1 9732 3.12500e-01-2.22045e-16 1.62500e+00
 -1 9733 2.50000e-01-2.22045e-16 1.56250e+00
 -1 9734 2.50000e-01 2.50000e-01 1.62500e+00
 -1 9735 2.50000e-01-2.22045e-16 1.75000e+00
 -1 9736 3.12500e-01-4.44089e-16 1.75000e+00
 -1 9737 2.50000e-01-2.22045e-16 1.68750e+00
 -1 9738 2.50000e-01 2.50000e-01 1.75000e+00
 -1 9739 2.50000e-01-2.22045e-16 1.87500e+00
 -1 9740 3.12500e-01-2.22045e-16 1.87500e+00
 -1 9741 2.50000e-01-2.22045e-16 1.81250e+00
 -1 9742 2.50000e-01 2.50000e-01 1.87500e+00
 -1 9743 2.50000e-01-2.22045e-16 2.00000e+00
 -1 9744 3.12500e-01 4.44089e-16 2.00000e+00
 -1 9745 2.50000e-01-2.22045e-16 1.93750e+00
 -1 9746 2.50000e-01 2.50000e-01 2.00000e+00
 -1 9747 2.50000e-01-2.22045e-16 2.12500e+00
 -1 9748 3.12500e-01-2.22045e-16 2.12500e+00
 -1 9749 2.50000e-01-2.22045e-16 2.06250e+00
 -1 9750 2.50000e-01 2.50000e-01 2.12500e+00
 -1 9751 2.50000e-01-2.22045e-16 2.25000e+00
 -1 9752 3.12500e-01-2.22045e-16 2.25000e+00
 -1 9753 2.50000e-01-2.22045e-16 2.18750e+00
 -1 9754 2.50000e-01 2.50000e-01 2.25000e+00
 -1 9755 2.50000e-01-2.22045e-16 2.37500e+00
 -1 9756 3.12500e-01-2.22045e-16 2.37500e+00
 -1 9757 2.50000e-01-2.22045e-16 2.31250e+00
 -1 9758 2.50000e-01 2.50000e-01 2.37500e+00
 -1 9759 2.50000e-01-2.22045e-16 2.50000e+00
 -1 9760 3.12500e-01-2.22045e-16 2.50000e+00
 -1 9761 2.50000e-01-2.22045e-16 2.43750e+00
 -1 9762 2.50000e-01 2.50000e-01 2.50000e+00
 -1 9763 2.50000e-01-2.22045e-16 2.62500e+00
 -1 9764 3.12500e-01-2.22045e-16 2.62500e+00
 -1 9765 2.50000e-01-2.22045e-16 2.56250e+00
 -1 9766 2.50000e-01 2.50000e-01 2.62500e+00
 -1 9767 2.50000e-01-2.22045e-16 2.75000e+00
 -1 9768 3.12500e-01-2.22045e-16 2.75000e+00
 -1 9769 2.50000e-01-2.22045e-16 2.68750e+00
 -1 9770 2.50000e-01 2.50000e-01 2.75000e+00
 -1 9771 2.50000e-01-2.22045e-16 2.87500e+00
 -1 9772 3.12500e-01-2.22045e-16 2.87500e+00
 -1 9773 2.50000e-01-2.22045e-16 2.81250e+00
 -1 9774 2.50000e-01 2.50000e-01 2.87500e+00
 -1 9775 2.50000e-01-2.22045e-16 3.00000e+00
 -1 9776 3.12500e-01-2.22045e-16 3.00000e+00
 -1 9777 2.50000e-01-2.22045e-16 2.93750e+00
 -1 9778 2.50000e-01 2.50000e-01 3.00000e+00
 -1 9779 2.50000e-01-2.22045e-16 3.12500e+00
 -1 9780 3.12500e-01 4.44089e-16 3.12500e+00
 -1 9781 2.50000e-01-2.22045e-16 3.06250e+00
 -1 9782 2.50000e-01 2.50000e-01 3.12500e+00
 -1 9783 2.50000e-01-2.22045e-16 3.25000e+00
 -1 9784 3.12500e-01-2.22045e-16 3.25000e+00
 -1 9785 2.50000e-01-2.22045e-16 3.18750e+00
 -1 9786 2.50000e-01 2.50000e-01 3.25000e+00
 -1 9787 2.50000e-01-2.22045e-16 3.37500e+00
 -1 9788 3.12500e-01-2.22045e-16 3.37500e+00
 -1 9789 2.50000e-01-2.22045e-16 3.31250e+00
 -1 9790 2.50000e-01 2.50000e-01 3.37500e+00
 -1 9791 2.50000e-01-2.22045e-16 3.50000e+00
 -1 9792 3.12500e-01-2.22045e-16 3.50000e+00
 -1 9793 2.50000e-01-2.22045e-16 3.43750e+00
 -1 9794 2.50000e-01 2.50000e-01 3.50000e+00
 -1 9795 2.50000e-01-2.22045e-16 3.62500e+00
 -1 9796 3.12500e-01-2.22045e-16 3.62500e+00
 -1 9797 2.50000e-01-2.22045e-16 3.56250e+00
 -1 9798 2.50000e-01 2.50000e-01 3.62500e+00
 -1 9799 2.50000e-01-2.22045e-16 3.75000e+00
 -1 9800 3.12500e-01-2.22045e-16 3.75000e+00
 -1 9801 2.50000e-01-2.22045e-16 3.68750e+00
 -1 9802 2.50000e-01 2.50000e-01 3.75000e+00
 -1 9803 2.50000e-01-2.22045e-16 3.87500e+00
 -1 9804 3.12500e-01-2.22045e-16 3.87500e+00
 -1 9805 2.50000e-01 4.44089e-16 3.81250e+00
 -1 9806 2.50000e-01 2.50000e-01 3.87500e+00
 -1 9807 2.50000e-01-2.22045e-16 4.00000e+00
 -1 9808 3.12500e-01-2.22045e-16 4.00000e+00
 -1 9809 2.50000e-01-2.22045e-16 3.93750e+00
 -1 9810 2.50000e-01 2.50000e-01 4.00000e+00
 -1 9811 1.25000e-01-2.22045e-16 0.00000e+00
 -1 9812 1.25000e-01-2.22045e-16 1.25000e-01
 -1 9813 1.87500e-01-2.22045e-16 0.00000e+00
 -1 9814 1.87500e-01-2.22045e-16 1.25000e-01
 -1 9815 1.25000e-01 2.50000e-01 4.44089e-16
 -1 9816 1.25000e-01-2.22045e-16 6.25000e-02
 -1 9817 1.25000e-01 2.50000e-01 1.25000e-01
 -1 9818 1.25000e-01-2.22045e-16 2.50000e-01
 -1 9819 1.87500e-01-2.22045e-16 2.50000e-01
 -1 9820 1.25000e-01-2.22045e-16 1.87500e-01
 -1 9821 1.25000e-01 2.50000e-01 2.50000e-01
 -1 9822 1.25000e-01-2.22045e-16 3.75000e-01
 -1 9823 1.87500e-01-2.22045e-16 3.75000e-01
 -1 9824 1.25000e-01-2.22045e-16 3.12500e-01
 -1 9825 1.25000e-01 2.50000e-01 3.75000e-01
 -1 9826 1.25000e-01-4.44089e-16 5.00000e-01
 -1 9827 1.87500e-01-4.44089e-16 5.00000e-01
 -1 9828 1.25000e-01-2.22045e-16 4.37500e-01
 -1 9829 1.25000e-01 2.50000e-01 5.00000e-01
 -1 9830 1.25000e-01-2.22045e-16 6.25000e-01
 -1 9831 1.87500e-01-2.22045e-16 6.25000e-01
 -1 9832 1.25000e-01-4.44089e-16 5.62500e-01
 -1 9833 1.25000e-01 2.50000e-01 6.25000e-01
 -1 9834 1.25000e-01-2.22045e-16 7.50000e-01
 -1 9835 1.87500e-01-2.22045e-16 7.50000e-01
 -1 9836 1.25000e-01-2.22045e-16 6.87500e-01
 -1 9837 1.25000e-01 2.50000e-01 7.50000e-01
 -1 9838 1.25000e-01-2.22045e-16 8.75000e-01
 -1 9839 1.87500e-01-2.22045e-16 8.75000e-01
 -1 9840 1.25000e-01-2.22045e-16 8.12500e-01
 -1 9841 1.25000e-01 2.50000e-01 8.75000e-01
 -1 9842 1.25000e-01-2.22045e-16 1.00000e+00
 -1 9843 1.87500e-01-2.22045e-16 1.00000e+00
 -1 9844 1.25000e-01-2.22045e-16 9.37500e-01
 -1 9845 1.25000e-01 2.50000e-01 1.00000e+00
 -1 9846 1.25000e-01 1.11022e-15 1.12500e+00
 -1 9847 1.87500e-01 4.44089e-16 1.12500e+00
 -1 9848 1.25000e-01 4.44089e-16 1.06250e+00
 -1 9849 1.25000e-01 2.50000e-01 1.12500e+00
 -1 9850 1.25000e-01-2.22045e-16 1.25000e+00
 -1 9851 1.87500e-01-2.22045e-16 1.25000e+00
 -1 9852 1.25000e-01-2.22045e-16 1.18750e+00
 -1 9853 1.25000e-01 2.50000e-01 1.25000e+00
 -1 9854 1.25000e-01-2.22045e-16 1.37500e+00
 -1 9855 1.87500e-01-2.22045e-16 1.37500e+00
 -1 9856 1.25000e-01-2.22045e-16 1.31250e+00
 -1 9857 1.25000e-01 2.50000e-01 1.37500e+00
 -1 9858 1.25000e-01-2.22045e-16 1.50000e+00
 -1 9859 1.87500e-01-2.22045e-16 1.50000e+00
 -1 9860 1.25000e-01-2.22045e-16 1.43750e+00
 -1 9861 1.25000e-01 2.50000e-01 1.50000e+00
 -1 9862 1.25000e-01-2.22045e-16 1.62500e+00
 -1 9863 1.87500e-01-4.44089e-16 1.62500e+00
 -1 9864 1.25000e-01-2.22045e-16 1.56250e+00
 -1 9865 1.25000e-01 2.50000e-01 1.62500e+00
 -1 9866 1.25000e-01-2.22045e-16 1.75000e+00
 -1 9867 1.87500e-01-2.22045e-16 1.75000e+00
 -1 9868 1.25000e-01-2.22045e-16 1.68750e+00
 -1 9869 1.25000e-01 2.50000e-01 1.75000e+00
 -1 9870 1.25000e-01-2.22045e-16 1.87500e+00
 -1 9871 1.87500e-01-2.22045e-16 1.87500e+00
 -1 9872 1.25000e-01-2.22045e-16 1.81250e+00
 -1 9873 1.25000e-01 2.50000e-01 1.87500e+00
 -1 9874 1.25000e-01-2.22045e-16 2.00000e+00
 -1 9875 1.87500e-01-2.22045e-16 2.00000e+00
 -1 9876 1.25000e-01-2.22045e-16 1.93750e+00
 -1 9877 1.25000e-01 2.50000e-01 2.00000e+00
 -1 9878 1.25000e-01 4.44089e-16 2.12500e+00
 -1 9879 1.87500e-01-2.22045e-16 2.12500e+00
 -1 9880 1.25000e-01-2.22045e-16 2.06250e+00
 -1 9881 1.25000e-01 2.50000e-01 2.12500e+00
 -1 9882 1.25000e-01-2.22045e-16 2.25000e+00
 -1 9883 1.87500e-01-2.22045e-16 2.25000e+00
 -1 9884 1.25000e-01-2.22045e-16 2.18750e+00
 -1 9885 1.25000e-01 2.50000e-01 2.25000e+00
 -1 9886 1.25000e-01-2.22045e-16 2.37500e+00
 -1 9887 1.87500e-01-2.22045e-16 2.37500e+00
 -1 9888 1.25000e-01-2.22045e-16 2.31250e+00
 -1 9889 1.25000e-01 2.50000e-01 2.37500e+00
 -1 9890 1.25000e-01-2.22045e-16 2.50000e+00
 -1 9891 1.87500e-01-4.44089e-16 2.50000e+00
 -1 9892 1.25000e-01-2.22045e-16 2.43750e+00
 -1 9893 1.25000e-01 2.50000e-01 2.50000e+00
 -1 9894 1.25000e-01-2.22045e-16 2.62500e+00
 -1 9895 1.87500e-01-2.22045e-16 2.62500e+00
 -1 9896 1.25000e-01-4.44089e-16 2.56250e+00
 -1 9897 1.25000e-01 2.50000e-01 2.62500e+00
 -1 9898 1.25000e-01-2.22045e-16 2.75000e+00
 -1 9899 1.87500e-01-2.22045e-16 2.75000e+00
 -1 9900 1.25000e-01-2.22045e-16 2.68750e+00
 -1 9901 1.25000e-01 2.50000e-01 2.75000e+00
 -1 9902 1.25000e-01-2.22045e-16 2.87500e+00
 -1 9903 1.87500e-01-2.22045e-16 2.87500e+00
 -1 9904 1.25000e-01-4.44089e-16 2.81250e+00
 -1 9905 1.25000e-01 2.50000e-01 2.87500e+00
 -1 9906 1.25000e-01-2.22045e-16 3.00000e+00
 -1 9907 1.87500e-01-2.22045e-16 3.00000e+00
 -1 9908 1.25000e-01-2.22045e-16 2.93750e+00
 -1 9909 1.25000e-01 2.50000e-01 3.00000e+00
 -1 9910 1.25000e-01-2.22045e-16 3.12500e+00
 -1 9911 1.87500e-01-2.22045e-16 3.12500e+00
 -1 9912 1.25000e-01-2.22045e-16 3.06250e+00
 -1 9913 1.25000e-01 2.50000e-01 3.12500e+00
 -1 9914 1.25000e-01-2.22045e-16 3.25000e+00
 -1 9915 1.87500e-01-2.22045e-16 3.25000e+00
 -1 9916 1.25000e-01-2.22045e-16 3.18750e+00
 -1 9917 1.25000e-01 2.50000e-01 3.25000e+00
 -1 9918 1.25000e-01-2.22045e-16 3.37500e+00
 -1 9919 1.87500e-01-4.44089e-16 3.37500e+00
 -1 9920 1.25000e-01-4.44089e-16 3.31250e+00
 -1 9921 1.25000e-01 2.50000e-01 3.37500e+00
 -1 9922 1.25000e-01-2.22045e-16 3.50000e+00
 -1 9923 1.87500e-01-2.22045e-16 3.50000e+00
 -1 9924 1.25000e-01-2.22045e-16 3.43750e+00
 -1 9925 1.25000e-01 2.50000e-01 3.50000e+00
 -1 9926 1.25000e-01 4.44089e-16 3.62500e+00
 -1 9927 1.87500e-01-2.22045e-16 3.62500e+00
 -1 9928 1.25000e-01-4.44089e-16 3.56250e+00
 -1 9929 1.25000e-01 2.50000e-01 3.62500e+00
 -1 9930 1.25000e-01-2.22045e-16 3.75000e+00
 -1 9931 1.87500e-01-2.22045e-16 3.75000e+00
 -1 9932 1.25000e-01-2.22045e-16 3.68750e+00
 -1 9933 1.25000e-01 2.50000e-01 3.75000e+00
 -1 9934 1.25000e-01 4.44089e-16 3.87500e+00
 -1 9935 1.87500e-01-2.22045e-16 3.87500e+00
 -1 9936 1.25000e-01-2.22045e-16 3.81250e+00
 -1 9937 1.25000e-01 2.50000e-01 3.87500e+00
 -1 9938 1.25000e-01-2.22045e-16 4.00000e+00
 -1 9939 1.87500e-01-2.22045e-16 4.00000e+00
 -1 9940 1.25000e-01-2.22045e-16 3.93750e+00
 -1 9941 1.25000e-01 2.50000e-01 4.00000e+00
 -1 9942 0.00000e+00-2.22045e-16 0.00000e+00
 -1 9943 0.00000e+00-2.22045e-16 1.25000e-01
 -1 9944 6.25000e-02-2.22045e-16 0.00000e+00
 -1 9945 6.25000e-02-2.22045e-16 1.25000e-01
 -1 9946 0.00000e+00 2.50000e-01 0.00000e+00
 -1 9947 0.00000e+00-2.22045e-16 6.25000e-02
 -1 9948-1.11022e-16 2.50000e-01 1.25000e-01
 -1 9949 0.00000e+00-2.22045e-16 2.50000e-01
 -1 9950 6.25000e-02-2.22045e-16 2.50000e-01
 -1 9951 0.00000e+00-2.22045e-16 1.87500e-01
 -1 9952 0.00000e+00 2.50000e-01 2.50000e-01
 -1 9953 0.00000e+00-2.22045e-16 3.75000e-01
 -1 9954 6.25000e-02-2.22045e-16 3.75000e-01
 -1 9955 0.00000e+00-2.22045e-16 3.12500e-01
 -1 9956 0.00000e+00 2.50000e-01 3.75000e-01
 -1 9957 0.00000e+00-2.22045e-16 5.00000e-01
 -1 9958 6.25000e-02-1.11022e-15 5.00000e-01
 -1 9959 0.00000e+00-2.22045e-16 4.37500e-01
 -1 9960-1.11022e-16 2.50000e-01 5.00000e-01
 -1 9961 0.00000e+00-2.22045e-16 6.25000e-01
 -1 9962 6.25000e-02-2.22045e-16 6.25000e-01
 -1 9963 0.00000e+00-2.22045e-16 5.62500e-01
 -1 9964 0.00000e+00 2.50000e-01 6.25000e-01
 -1 9965 0.00000e+00-2.22045e-16 7.50000e-01
 -1 9966 6.25000e-02-2.22045e-16 7.50000e-01
 -1 9967 0.00000e+00-2.22045e-16 6.87500e-01
 -1 9968-1.11022e-16 2.50000e-01 7.50000e-01
 -1 9969 0.00000e+00-2.22045e-16 8.75000e-01
 -1 9970 6.25000e-02-2.22045e-16 8.75000e-01
 -1 9971 0.00000e+00-2.22045e-16 8.12500e-01
 -1 9972 0.00000e+00 2.50000e-01 8.75000e-01
 -1 9973 0.00000e+00-2.22045e-16 1.00000e+00
 -1 9974 6.25000e-02-2.22045e-16 1.00000e+00
 -1 9975 0.00000e+00-2.22045e-16 9.37500e-01
 -1 9976 0.00000e+00 2.50000e-01 1.00000e+00
 -1 9977 0.00000e+00-2.22045e-16 1.12500e+00
 -1 9978 6.25000e-02 4.44089e-16 1.12500e+00
 -1 9979 0.00000e+00-2.22045e-16 1.06250e+00
 -1 9980 0.00000e+00 2.50000e-01 1.12500e+00
 -1 9981 0.00000e+00-2.22045e-16 1.25000e+00
 -1 9982 6.25000e-02-2.22045e-16 1.25000e+00
 -1 9983 0.00000e+00-2.22045e-16 1.18750e+00
 -1 9984 0.00000e+00 2.50000e-01 1.25000e+00
 -1 9985 0.00000e+00-2.22045e-16 1.37500e+00
 -1 9986 6.25000e-02-2.22045e-16 1.37500e+00
 -1 9987 0.00000e+00-2.22045e-16 1.31250e+00
 -1 9988-3.33067e-16 2.50000e-01 1.37500e+00
 -1 9989 0.00000e+00-2.22045e-16 1.50000e+00
 -1 9990 6.25000e-02-2.22045e-16 1.50000e+00
 -1 9991 0.00000e+00-2.22045e-16 1.43750e+00
 -1 9992 0.00000e+00 2.50000e-01 1.50000e+00
 -1 9993 0.00000e+00-2.22045e-16 1.62500e+00
 -1 9994 6.25000e-02-2.22045e-16 1.62500e+00
 -1 9995 0.00000e+00-2.22045e-16 1.56250e+00
 -1 9996 0.00000e+00 2.50000e-01 1.62500e+00
 -1 9997 0.00000e+00-2.22045e-16 1.75000e+00
 -1 9998 6.25000e-02-2.22045e-16 1.75000e+00
 -1 9999 0.00000e+00-2.22045e-16 1.68750e+00
 -110000 0.00000e+00 2.50000e-01 1.75000e+00
 -110001 0.00000e+00-2.22045e-16 1.87500e+00
 -110002 6.25000e-02-2.22045e-16 1.87500e+00
 -110003 0.00000e+00-2.22045e-16 1.81250e+00
 -110004 0.00000e+00 2.50000e-01 1.87500e+00
 -110005 0.00000e+00-2.22045e-16 2.00000e+00
 -110006 6.25000e-02-4.44089e-16 2.00000e+00
 -110007 0.00000e+00-2.22045e-16 1.93750e+00
 -110008-3.33067e-16 2.50000e-01 2.00000e+00
 -110009 0.00000e+00-2.22045e-16 2.12500e+00
 -110010 6.25000e-02-2.22045e-16 2.12500e+00
 -110011 0.00000e+00-2.22045e-16 2.06250e+00
 -110012 0.00000e+00 2.50000e-01 2.12500e+00
 -110013 0.00000e+00-2.22045e-16 2.25000e+00
 -110014 6.25000e-02-2.22045e-16 2.25000e+00
 -110015 0.00000e+00-2.22045e-16 2.18750e+00
 -110016 0.00000e+00 2.50000e-01 2.25000e+00
 -110017 0.00000e+00-2.22045e-16 2.37500e+00
 -110018 6.25000e-02-2.22045e-16 2.37500e+00
 -110019 0.00000e+00-2.22045e-16 2.31250e+00
 -110020 0.00000e+00 2.50000e-01 2.37500e+00
 -110021 0.00000e+00-2.22045e-16 2.50000e+00
 -110022 6.25000e-02-2.22045e-16 2.50000e+00
 -110023 0.00000e+00-2.22045e-16 2.43750e+00
 -110024 0.00000e+00 2.50000e-01 2.50000e+00
 -110025 0.00000e+00-2.22045e-16 2.62500e+00
 -110026 6.25000e-02-4.44089e-16 2.62500e+00
 -110027 0.00000e+00-2.22045e-16 2.56250e+00
 -110028-3.33067e-16 2.50000e-01 2.62500e+00
 -110029 0.00000e+00-2.22045e-16 2.75000e+00
 -110030 6.25000e-02-2.22045e-16 2.75000e+00
 -110031 0.00000e+00-2.22045e-16 2.68750e+00
 -110032 0.00000e+00 2.50000e-01 2.75000e+00
 -110033 0.00000e+00-2.22045e-16 2.87500e+00
 -110034 6.25000e-02-2.22045e-16 2.87500e+00
 -110035 0.00000e+00-2.22045e-16 2.81250e+00
 -110036 0.00000e+00 2.50000e-01 2.87500e+00
 -110037 0.00000e+00-2.22045e-16 3.00000e+00
 -110038 6.25000e-02-2.22045e-16 3.00000e+00
 -110039 0.00000e+00-2.22045e-16 2.93750e+00
 -110040 0.00000e+00 2.50000e-01 3.00000e+00
 -110041 0.00000e+00-2.22045e-16 3.12500e+00
 -110042 6.25000e-02-2.22045e-16 3.12500e+00
 -110043 0.00000e+00-2.22045e-16 3.06250e+00
 -110044 0.00000e+00 2.50000e-01 3.12500e+00
 -110045 0.00000e+00-2.22045e-16 3.25000e+00
 -110046 6.25000e-02-2.22045e-16 3.25000e+00
 -110047 0.00000e+00-2.22045e-16 3.18750e+00
 -110048-3.33067e-16 2.50000e-01 3.25000e+00
 -110049 0.00000e+00-2.22045e-16 3.37500e+00
 -110050 6.25000e-02-2.22045e-16 3.37500e+00
 -110051 0.00000e+00-2.22045e-16 3.31250e+00
 -110052 0.00000e+00 2.50000e-01 3.37500e+00
 -110053 0.00000e+00-2.22045e-16 3.50000e+00
 -110054 6.25000e-02-2.22045e-16 3.50000e+00
 -110055 0.00000e+00-2.22045e-16 3.43750e+00
 -110056 0.00000e+00 2.50000e-01 3.50000e+00
 -110057 0.00000e+00-2.22045e-16 3.62500e+00
 -110058 6.25000e-02-2.22045e-16 3.62500e+00
 -110059 0.00000e+00-2.22045e-16 3.56250e+00
 -110060 0.00000e+00 2.50000e-01 3.62500e+00
 -110061 0.00000e+00-2.22045e-16 3.75000e+00
 -110062 6.25000e-02-2.22045e-16 3.75000e+00
 -110063 0.00000e+00-2.22045e-16 3.68750e+00
 -110064 0.00000e+00 2.50000e-01 3.75000e+00
 -110065 0.00000e+00-2.22045e-16 3.87500e+00
 -110066 6.25000e-02-2.22045e-16 3.87500e+00
 -110067 0.00000e+00-2.22045e-16 3.81250e+00
 -110068-3.33067e-16 2.50000e-01 3.87500e+00
 -110069 0.00000e+00-2.22045e-16 4.00000e+00
 -110070 6.25000e-02-2.22045e-16 4.00000e+00
 -110071 0.00000e+00-2.22045e-16 3.93750e+00
 -110072 0.00000e+00 2.50000e-01 4.00000e+00
 -3
    3C                          2048                                     1
 -1        81    4    0    1
 -2        56        57        58        59        60        61        62        63        64        65
 -2        66        67        68        69        70        71        72        73        74        75
 -1        82    4    0    1
 -2        59        58        76        77        63        62        78        79        66        80
 -2        81        82        71        70        83        84        74        85        86        87
 -1        83    4    0    1
 -2        77        76        88        89        79        78        90        91        81        92
 -2        93        94        84        83        95        96        86        97        98        99
 -1        84    4    0    1
 -2        89        88       100       101        91        90       102       103        93       104
 -2       105       106        96        95       107       108        98       109       110       111
 -1        85    4    0    1
 -2       101       100       112       113       103       102       114       115       105       116
 -2       117       118       108       107       119       120       110       121       122       123
 -1        86    4    0    1
 -2       113       112       124       125       115       114       126       127       117       128
 -2       129       130       120       119       131       132       122       133       134       135
 -1        87    4    0    1
 -2       125       124       136       137       127       126       138       139       129       140
 -2       141       142       132       131       143       144       134       145       146       147
 -1        88    4    0    1
 -2       137       136       148       149       139       138       150       151       141       152
 -2       153       154       144       143       155       156       146       157       158       159
 -1        89    4    0    1
 -2       149       148       160       161       151       150       162       163       153       164
 -2       165       166       156       155       167       168       158       169       170       171
 -1        90    4    0    1
 -2       161       160       172       173       163       162       174       175       165       176
 -2       177       178       168       167       179       180       170       181       182       183
 -1        91    4    0    1
 -2       173       172       184       185       175       174       186       187       177       188
 -2       189       190       180       179       191       192       182       193       194       195
 -1        92    4    0    1
 -2       185       184       196       197       187       186       198       199       189       200
 -2       201       202       192       191       203       204       194       205       206       207
 -1        93    4    0    1
 -2       197       196       208       209       199       198       210       211       201       212
 -2       213       214       204       203       215       216       206       217       218       219
 -1        94    4    0    1
 -2       209       208       220       221       211       210       222       223       213       224
 -2       225       226       216       215       227       228       218       229       230       231
 -1        95    4    0    1
 -2       221       220       232       233       223       222       234       235       225       236
 -2       237       238       228       227       239       240       230       241       242       243
 -1        96    4    0    1
 -2       233       232       244       245       235       234       246       247       237       248
 -2       249       250       240       239       251       252       242       253       254       255
 -1        97    4    0    1
 -2       245       244       256       257       247       246       258       259       249       260
 -2       261       262       252       251       263       264       254       265       266       267
 -1        98    4    0    1
 -2       257       256       268       269       259       258       270       271       261       272
 -2       273       274       264       263       275       276       266       277       278       279
 -1        99    4    0    1
 -2       269       268       280       281       271       270       282       283       273       284
 -2       285       286       276       275       287       288       278       289       290       291
 -1       100    4    0    1
 -2       281       280       292       293       283       282       294       295       285       296
 -2       297       298       288       287       299       300       290       301       302       303
 -1       101    4    0    1
 -2       293       292       304       305       295       294       306       307       297       308
 -2       309       310       300       299       311       312       302       313       314       315
 -1       102    4    0    1
 -2       305       304       316       317       307       306       318       319       309       320
 -2       321       322       312       311       323       324       314       325       326       327
 -1       103    4    0    1
 -2       317       316       328       329       319       318       330       331       321       332
 -2       333       334       324       323       335       336       326       337       338       339
 -1       104    4    0    1
 -2       329       328       340       341       331       330       342       343       333       344
 -2       345       346       336       335       347       348       338       349       350       351
 -1       105    4    0    1
 -2       341       340       352       353       343       342       354       355       345       356
 -2       357       358       348       347       359       360       350       361       362       363
 -1       106    4    0    1
 -2       353       352       364       365       355       354       366       367       357       368
 -2       369       370       360       359       371       372       362       373       374       375
 -1       107    4    0    1
 -2       365       364       376       377       367       366       378       379       369       380
 -2       381       382       372       371       383       384       374       385       386       387
 -1       108    4    0    1
 -2       377       376       388       389       379       378       390       391       381       392
 -2       393       394       384       383       395       396       386       397       398       399
 -1       109    4    0    1
 -2       389       388       400       401       391       390       402       403       393       404
 -2       405       406       396       395       407       408       398       409       410       411
 -1       110    4    0    1
 -2       401       400       412       413       403       402       414       415       405       416
 -2       417       418       408       407       419       420       410       421       422       423
 -1       111    4    0    1
 -2       413       412       424       425       415       414       426       427       417       428
 -2       429       430       420       419       431       432       422       433       434       435
 -1       112    4    0    1
 -2       425       424       436       437       427       426       438       439       429       440
 -2       441       442       432       431       443       444       434       445       446       447
 -1       113    4    0    1
 -2        60        61        62        63       448       449       450       451        72        73
 -2        74        75       452       453       454       455       456       457       458       459
 -1       114    4    0    1
 -2        63        62        78        79       451       450       460       461        74        85
 -2        86        87       455       454       462       463       458       464       465       466
 -1       115    4    0    1
 -2        79        78        90        91       461       460       467       468        86        97
 -2        98        99       463       462       469       470       465       471       472       473
 -1       116    4    0    1
 -2        91        90       102       103       468       467       474       475        98       109
 -2       110       111       470       469       476       477       472       478       479       480
 -1       117    4    0    1
 -2       103       102       114       115       475       474       481       482       110       121
 -2       122       123       477       476       483       484       479       485       486       487
 -1       118    4    0    1
 -2       115       114       126       127       482       481       488       489       122       133
 -2       134       135       484       483       490       491       486       492       493       494
 -1       119    4    0    1
 -2       127       126       138       139       489       488       495       496       134       145
 -2       146       147       491       490       497       498       493       499       500       501
 -1       120    4    0    1
 -2       139       138       150       151       496       495       502       503       146       157
 -2       158       159       498       497       504       505       500       506       507       508
 -1       121    4    0    1
 -2       151       150       162       163       503       502       509       510       158       169
 -2       170       171       505       504       511       512       507       513       514       515
 -1       122    4    0    1
 -2       163       162       174       175       510       509       516       517       170       181
 -2       182       183       512       511       518       519       514       520       521       522
 -1       123    4    0    1
 -2       175       174       186       187       517       516       523       524       182       193
 -2       194       195       519       518       525       526       521       527       528       529
 -1       124    4    0    1
 -2       187       186       198       199       524       523       530       531       194       205
 -2       206       207       526       525       532       533       528       534       535       536
 -1       125    4    0    1
 -2       199       198       210       211       531       530       537       538       206       217
 -2       218       219       533       532       539       540       535       541       542       543
 -1       126    4    0    1
 -2       211       210       222       223       538       537       544       545       218       229
 -2       230       231       540       539       546       547       542       548       549       550
 -1       127    4    0    1
 -2       223       222       234       235       545       544       551       552       230       241
 -2       242       243       547       546       553       554       549       555       556       557
 -1       128    4    0    1
 -2       235       234       246       247       552       551       558       559       242       253
 -2       254       255       554       553       560       561       556       562       563       564
 -1       129    4    0    1
 -2       247       246       258       259       559       558       565       566       254       265
 -2       266       267       561       560       567       568       563       569       570       571
 -1       130    4    0    1
 -2       259       258       270       271       566       565       572       573       266       277
 -2       278       279       568       567       574       575       570       576       577       578
 -1       131    4    0    1
 -2       271       270       282       283       573       572       579       580       278       289
 -2       290       291       575       574       581       582       577       583       584       585
 -1       132    4    0    1
 -2       283       282       294       295       580       579       586       587       290       301
 -2       302       303       582       581       588       589       584       590       591       592
 -1       133    4    0    1
 -2       295       294       306       307       587       586       593       594       302       313
 -2       314       315       589       588       595       596       591       597       598       599
 -1       134    4    0    1
 -2       307       306       318       319       594       593       600       601       314       325
 -2       326       327       596       595       602       603       598       604       605       606
 -1       135    4    0    1
 -2       319       318       330       331       601       600       607       608       326       337
 -2       338       339       603       602       609       610       605       611       612       613
 -1       136    4    0    1
 -2       331       330       342       343       608       607       614       615       338       349
 -2       350       351       610       609       616       617       612       618       619       620
 -1       137    4    0    1
 -2       343       342       354       355       615       614       621       622       350       361
 -2       362       363       617       616       623       624       619       625       626       627
 -1       138    4    0    1
 -2       355       354       366       367       622       621       628       629       362       373
 -2       374       375       624       623       630       631       626       632       633       634
 -1       139    4    0    1
 -2       367       366       378       379       629       628       635       636       374       385
 -2       386       387       631       630       637       638       633       639       640       641
 -1       140    4    0    1
 -2       379       378       390       391       636       635       642       643       386       397
 -2       398       399       638       637       644       645       640       646       647       648
 -1       141    4    0    1
 -2       391       390       402       403       643       642       649       650       398       409
 -2       410       411       645       644       651       652       647       653       654       655
 -1       142    4    0    1
 -2       403       402       414       415       650       649       656       657       410       421
 -2       422       423       652       651       658       659       654       660       661       662
 -1       143    4    0    1
 -2       415       414       426       427       657       656       663       664       422       433
 -2       434       435       659       658       665       666       661       667       668       669
 -1       144    4    0    1
 -2       427       426       438       439       664       663       670       671       434       445
 -2       446       447       666       665       672       673       668       674       675       676
 -1       145    4    0    1
 -2       448       449       450       451       677       678       679       680       456       457
 -2       458       459       681       682       683       684       685       686       687       688
 -1       146    4    0    1
 -2       451       450       460       461       680       679       689       690       458       464
 -2       465       466       684       683       691       692       687       693       694       695
 -1       147    4    0    1
 -2       461       460       467       468       690       689       696       697       465       471
 -2       472       473       692       691       698       699       694       700       701       702
 -1       148    4    0    1
 -2       468       467       474       475       697       696       703       704       472       478
 -2       479       480       699       698       705       706       701       707       708       709
 -1       149    4    0    1
 -2       475       474       481       482       704       703       710       711       479       485
 -2       486       487       706       705       712       713       708       714       715       716
 -1       150    4    0    1
 -2       482       481       488       489       711       710       717       718       486       492
 -2       493       494       713       712       719       720       715       721       722       723
 -1       151    4    0    1
 -2       489       488       495       496       718       717       724       725       493       499
 -2       500       501       720       719       726       727       722       728       729       730
 -1       152    4    0    1
 -2       496       495       502       503       725       724       731       732       500       506
 -2       507       508       727       726       733       734       729       735       736       737
 -1       153    4    0    1
 -2       503       502       509       510       732       731       738       739       507       513
 -2       514       515       734       733       740       741       736       742       743       744
 -1       154    4    0    1
 -2       510       509       516       517       739       738       745       746       514       520
 -2       521       522       741       740       747       748       743       749       750       751
 -1       155    4    0    1
 -2       517       516       523       524       746       745       752       753       521       527
 -2       528       529       748       747       754       755       750       756       757       758
 -1       156    4    0    1
 -2       524       523       530       531       753       752       759       760       528       534
 -2       535       536       755       754       761       762       757       763       764       765
 -1       157    4    0    1
 -2       531       530       537       538       760       759       766       767       535       541
 -2       542       543       762       761       768       769       764       770       771       772
 -1       158    4    0    1
 -2       538       537       544       545       767       766       773       774       542       548
 -2       549       550       769       768       775       776       771       777       778       779
 -1       159    4    0    1
 -2       545       544       551       552       774       773       780       781       549       555
 -2       556       557       776       775       782       783       778       784       785       786
 -1       160    4    0    1
 -2       552       551       558       559       781       780       787       788       556       562
 -2       563       564       783       782       789       790       785       791       792       793
 -1       161    4    0    1
 -2       559       558       565       566       788       787       794       795       563       569
 -2       570       571       790       789       796       797       792       798       799       800
 -1       162    4    0    1
 -2       566       565       572       573       795       794       801       802       570       576
 -2       577       578       797       796       803       804       799       805       806       807
 -1       163    4    0    1
 -2       573       572       579       580       802       801       808       809       577       583
 -2       584       585       804       803       810       811       806       812       813       814
 -1       164    4    0    1
 -2       580       579       586       587       809       808       815       816       584       590
 -2       591       592       811       810       817       818       813       819       820       821
 -1       165    4    0    1
 -2       587       586       593       594       816       815       822       823       591       597
 -2       598       599       818       817       824       825       820       826       827       828
 -1       166    4    0    1
 -2       594       593       600       601       823       822       829       830       598       604
 -2       605       606       825       824       831       832       827       833       834       835
 -1       167    4    0    1
 -2       601       600       607       608       830       829       836       837       605       611
 -2       612       613       832       831       838       839       834       840       841       842
 -1       168    4    0    1
 -2       608       607       614       615       837       836       843       844       612       618
 -2       619       620       839       838       845       846       841       847       848       849
 -1       169    4    0    1
 -2       615       614       621       622       844       843       850       851       619       625
 -2       626       627       846       845       852       853       848       854       855       856
 -1       170    4    0    1
 -2       622       621       628       629       851       850       857       858       626       632
 -2       633       634       853       852       859       860       855       861       862       863
 -1       171    4    0    1
 -2       629       628       635       636       858       857       864       865       633       639
 -2       640       641       860       859       866       867       862       868       869       870
 -1       172    4    0    1
 -2       636       635       642       643       865       864       871       872       640       646
 -2       647       648       867       866       873       874       869       875       876       877
 -1       173    4    0    1
 -2       643       642       649       650       872       871       878       879       647       653
 -2       654       655       874       873       880       881       876       882       883       884
 -1       174    4    0    1
 -2       650       649       656       657       879       878       885       886       654       660
 -2       661       662       881       880       887       888       883       889       890       891
 -1       175    4    0    1
 -2       657       656       663       664       886       885       892       893       661       667
 -2       668       669       888       887       894       895       890       896       897       898
 -1       176    4    0    1
 -2       664       663       670       671       893       892       899       900       668       674
 -2       675       676       895       894       901       902       897       903       904       905
 -1       177    4    0    1
 -2       677       678       679       680       906       907       908       909       685       686
 -2       687       688       910       911       912       913       914       915       916       917
 -1       178    4    0    1
 -2       680       679       689       690       909       908       918       919       687       693
 -2       694       695       913       912       920       921       916       922       923       924
 -1       179    4    0    1
 -2       690       689       696       697       919       918       925       926       694       700
 -2       701       702       921       920       927       928       923       929       930       931
 -1       180    4    0    1
 -2       697       696       703       704       926       925       932       933       701       707
 -2       708       709       928       927       934       935       930       936       937       938
 -1       181    4    0    1
 -2       704       703       710       711       933       932       939       940       708       714
 -2       715       716       935       934       941       942       937       943       944       945
 -1       182    4    0    1
 -2       711       710       717       718       940       939       946       947       715       721
 -2       722       723       942       941       948       949       944       950       951       952
 -1       183    4    0    1
 -2       718       717       724       725       947       946       953       954       722       728
 -2       729       730       949       948       955       956       951       957       958       959
 -1       184    4    0    1
 -2       725       724       731       732       954       953       960       961       729       735
 -2       736       737       956       955       962       963       958       964       965       966
 -1       185    4    0    1
 -2       732       731       738       739       961       960       967       968       736       742
 -2       743       744       963       962       969       970       965       971       972       973
 -1       186    4    0    1
 -2       739       738       745       746       968       967       974       975       743       749
 -2       750       751       970       969       976       977       972       978       979       980
 -1       187    4    0    1
 -2       746       745       752       753       975       974       981       982       750       756
 -2       757       758       977       976       983       984       979       985       986       987
 -1       188    4    0    1
 -2       753       752       759       760       982       981       988       989       757       763
 -2       764       765       984       983       990       991       986       992       993       994
 -1       189    4    0    1
 -2       760       759       766       767       989       988       995       996       764       770
 -2       771       772       991       990       997       998       993       999      1000      1001
 -1       190    4    0    1
 -2       767       766       773       774       996       995      1002      1003       771       777
 -2       778       779       998       997      1004      1005      1000      1006      1007      1008
 -1       191    4    0    1
 -2       774       773       780       781      1003      1002      1009      1010       778       784
 -2       785       786      1005      1004      1011      1012      1007      1013      1014      1015
 -1       192    4    0    1
 -2       781       780       787       788      1010      1009      1016      1017       785       791
 -2       792       793      1012      1011      1018      1019      1014      1020      1021      1022
 -1       193    4    0    1
 -2       788       787       794       795      1017      1016      1023      1024       792       798
 -2       799       800      1019      1018      1025      1026      1021      1027      1028      1029
 -1       194    4    0    1
 -2       795       794       801       802      1024      1023      1030      1031       799       805
 -2       806       807      1026      1025      1032      1033      1028      1034      1035      1036
 -1       195    4    0    1
 -2       802       801       808       809      1031      1030      1037      1038       806       812
 -2       813       814      1033      1032      1039      1040      1035      1041      1042      1043
 -1       196    4    0    1
 -2       809       808       815       816      1038      1037      1044      1045       813       819
 -2       820       821      1040      1039      1046      1047      1042      1048      1049      1050
 -1       197    4    0    1
 -2       816       815       822       823      1045      1044      1051      1052       820       826
 -2       827       828      1047      1046      1053      1054      1049      1055      1056      1057
 -1       198    4    0    1
 -2       823       822       829       830      1052      1051      1058      1059       827       833
 -2       834       835      1054      1053      1060      1061      1056      1062      1063      1064
 -1       199    4    0    1
 -2       830       829       836       837      1059      1058      1065      1066       834       840
 -2       841       842      1061      1060      1067      1068      1063      1069      1070      1071
 -1       200    4    0    1
 -2       837       836       843       844      1066      1065      1072      1073       841       847
 -2       848       849      1068      1067      1074      1075      1070      1076      1077      1078
 -1       201    4    0    1
 -2       844       843       850       851      1073      1072      1079      1080       848       854
 -2       855       856      1075      1074      1081      1082      1077      1083      1084      1085
 -1       202    4    0    1
 -2       851       850       857       858      1080      1079      1086      1087       855       861
 -2       862       863      1082      1081      1088      1089      1084      1090      1091      1092
 -1       203    4    0    1
 -2       858       857       864       865      1087      1086      1093      1094       862       868
 -2       869       870      1089      1088      1095      1096      1091      1097      1098      1099
 -1       204    4    0    1
 -2       865       864       871       872      1094      1093      1100      1101       869       875
 -2       876       877      1096      1095      1102      1103      1098      1104      1105      1106
 -1       205    4    0    1
 -2       872       871       878       879      1101      1100      1107      1108       876       882
 -2       883       884      1103      1102      1109      1110      1105      1111      1112      1113
 -1       206    4    0    1
 -2       879       878       885       886      1108      1107      1114      1115       883       889
 -2       890       891      1110      1109      1116      1117      1112      1118      1119      1120
 -1       207    4    0    1
 -2       886       885       892       893      1115      1114      1121      1122       890       896
 -2       897       898      1117      1116      1123      1124      1119      1125      1126      1127
 -1       208    4    0    1
 -2       893       892       899       900      1122      1121      1128      1129       897       903
 -2       904       905      1124      1123      1130      1131      1126      1132      1133      1134
 -1       209    4    0    1
 -2       906       907       908       909      1135      1136      1137      1138       914       915
 -2       916       917      1139      1140      1141      1142      1143      1144      1145      1146
 -1       210    4    0    1
 -2       909       908       918       919      1138      1137      1147      1148       916       922
 -2       923       924      1142      1141      1149      1150      1145      1151      1152      1153
 -1       211    4    0    1
 -2       919       918       925       926      1148      1147      1154      1155       923       929
 -2       930       931      1150      1149      1156      1157      1152      1158      1159      1160
 -1       212    4    0    1
 -2       926       925       932       933      1155      1154      1161      1162       930       936
 -2       937       938      1157      1156      1163      1164      1159      1165      1166      1167
 -1       213    4    0    1
 -2       933       932       939       940      1162      1161      1168      1169       937       943
 -2       944       945      1164      1163      1170      1171      1166      1172      1173      1174
 -1       214    4    0    1
 -2       940       939       946       947      1169      1168      1175      1176       944       950
 -2       951       952      1171      1170      1177      1178      1173      1179      1180      1181
 -1       215    4    0    1
 -2       947       946       953       954      1176      1175      1182      1183       951       957
 -2       958       959      1178      1177      1184      1185      1180      1186      1187      1188
 -1       216    4    0    1
 -2       954       953       960       961      1183      1182      1189      1190       958       964
 -2       965       966      1185      1184      1191      1192      1187      1193      1194      1195
 -1       217    4    0    1
 -2       961       960       967       968      1190      1189      1196      1197       965       971
 -2       972       973      1192      1191      1198      1199      1194      1200      1201      1202
 -1       218    4    0    1
 -2       968       967       974       975      1197      1196      1203      1204       972       978
 -2       979       980      1199      1198      1205      1206      1201      1207      1208      1209
 -1       219    4    0    1
 -2       975       974       981       982      1204      1203      1210      1211       979       985
 -2       986       987      1206      1205      1212      1213      1208      1214      1215      1216
 -1       220    4    0    1
 -2       982       981       988       989      1211      1210      1217      1218       986       992
 -2       993       994      1213      1212      1219      1220      1215      1221      1222      1223
 -1       221    4    0    1
 -2       989       988       995       996      1218      1217      1224      1225       993       999
 -2      1000      1001      1220      1219      1226      1227      1222      1228      1229      1230
 -1       222    4    0    1
 -2       996       995      1002      1003      1225      1224      1231      1232      1000      1006
 -2      1007      1008      1227      1226      1233      1234      1229      1235      1236      1237
 -1       223    4    0    1
 -2      1003      1002      1009      1010      1232      1231      1238      1239      1007      1013
 -2      1014      1015      1234      1233      1240      1241      1236      1242      1243      1244
 -1       224    4    0    1
 -2      1010      1009      1016      1017      1239      1238      1245      1246      1014      1020
 -2      1021      1022      1241      1240      1247      1248      1243      1249      1250      1251
 -1       225    4    0    1
 -2      1017      1016      1023      1024      1246      1245      1252      1253      1021      1027
 -2      1028      1029      1248      1247      1254      1255      1250      1256      1257      1258
 -1       226    4    0    1
 -2      1024      1023      1030      1031      1253      1252      1259      1260      1028      1034
 -2      1035      1036      1255      1254      1261      1262      1257      1263      1264      1265
 -1       227    4    0    1
 -2      1031      1030      1037      1038      1260      1259      1266      1267      1035      1041
 -2      1042      1043      1262      1261      1268      1269      1264      1270      1271      1272
 -1       228    4    0    1
 -2      1038      1037      1044      1045      1267      1266      1273      1274      1042      1048
 -2      1049      1050      1269      1268      1275      1276      1271      1277      1278      1279
 -1       229    4    0    1
 -2      1045      1044      1051      1052      1274      1273      1280      1281      1049      1055
 -2      1056      1057      1276      1275      1282      1283      1278      1284      1285      1286
 -1       230    4    0    1
 -2      1052      1051      1058      1059      1281      1280      1287      1288      1056      1062
 -2      1063      1064      1283      1282      1289      1290      1285      1291      1292      1293
 -1       231    4    0    1
 -2      1059      1058      1065      1066      1288      1287      1294      1295      1063      1069
 -2      1070      1071      1290      1289      1296      1297      1292      1298      1299      1300
 -1       232    4    0    1
 -2      1066      1065      1072      1073      1295      1294      1301      1302      1070      1076
 -2      1077      1078      1297      1296      1303      1304      1299      1305      1306      1307
 -1       233    4    0    1
 -2      1073      1072      1079      1080      1302      1301      1308      1309      1077      1083
 -2      1084      1085      1304      1303      1310      1311      1306      1312      1313      1314
 -1       234    4    0    1
 -2      1080      1079      1086      1087      1309      1308      1315      1316      1084      1090
 -2      1091      1092      1311      1310      1317      1318      1313      1319      1320      1321
 -1       235    4    0    1
 -2      1087      1086      1093      1094      1316      1315      1322      1323      1091      1097
 -2      1098      1099      1318      1317      1324      1325      1320      1326      1327      1328
 -1       236    4    0    1
 -2      1094      1093      1100      1101      1323      1322      1329      1330      1098      1104
 -2      1105      1106      1325      1324      1331      1332      1327      1333      1334      1335
 -1       237    4    0    1
 -2      1101      1100      1107      1108      1330      1329      1336      1337      1105      1111
 -2      1112      1113      1332      1331      1338      1339      1334      1340      1341      1342
 -1       238    4    0    1
 -2      1108      1107      1114      1115      1337      1336      1343      1344      1112      1118
 -2      1119      1120      1339      1338      1345      1346      1341      1347      1348      1349
 -1       239    4    0    1
 -2      1115      1114      1121      1122      1344      1343      1350      1351      1119      1125
 -2      1126      1127      1346      1345      1352      1353      1348      1354      1355      1356
 -1       240    4    0    1
 -2      1122      1121      1128      1129      1351      1350      1357      1358      1126      1132
 -2      1133      1134      1353      1352      1359      1360      1355      1361      1362      1363
 -1       241    4    0    1
 -2      1135      1136      1137      1138      1364      1365      1366      1367      1143      1144
 -2      1145      1146      1368      1369      1370      1371      1372      1373      1374      1375
 -1       242    4    0    1
 -2      1138      1137      1147      1148      1367      1366      1376      1377      1145      1151
 -2      1152      1153      1371      1370      1378      1379      1374      1380      1381      1382
 -1       243    4    0    1
 -2      1148      1147      1154      1155      1377      1376      1383      1384      1152      1158
 -2      1159      1160      1379      1378      1385      1386      1381      1387      1388      1389
 -1       244    4    0    1
 -2      1155      1154      1161      1162      1384      1383      1390      1391      1159      1165
 -2      1166      1167      1386      1385      1392      1393      1388      1394      1395      1396
 -1       245    4    0    1
 -2      1162      1161      1168      1169      1391      1390      1397      1398      1166      1172
 -2      1173      1174      1393      1392      1399      1400      1395      1401      1402      1403
 -1       246    4    0    1
 -2      1169      1168      1175      1176      1398      1397      1404      1405      1173      1179
 -2      1180      1181      1400      1399      1406      1407      1402      1408      1409      1410
 -1       247    4    0    1
 -2      1176      1175      1182      1183      1405      1404      1411      1412      1180      1186
 -2      1187      1188      1407      1406      1413      1414      1409      1415      1416      1417
 -1       248    4    0    1
 -2      1183      1182      1189      1190      1412      1411      1418      1419      1187      1193
 -2      1194      1195      1414      1413      1420      1421      1416      1422      1423      1424
 -1       249    4    0    1
 -2      1190      1189      1196      1197      1419      1418      1425      1426      1194      1200
 -2      1201      1202      1421      1420      1427      1428      1423      1429      1430      1431
 -1       250    4    0    1
 -2      1197      1196      1203      1204      1426      1425      1432      1433      1201      1207
 -2      1208      1209      1428      1427      1434      1435      1430      1436      1437      1438
 -1       251    4    0    1
 -2      1204      1203      1210      1211      1433      1432      1439      1440      1208      1214
 -2      1215      1216      1435      1434      1441      1442      1437      1443      1444      1445
 -1       252    4    0    1
 -2      1211      1210      1217      1218      1440      1439      1446      1447      1215      1221
 -2      1222      1223      1442      1441      1448      1449      1444      1450      1451      1452
 -1       253    4    0    1
 -2      1218      1217      1224      1225      1447      1446      1453      1454      1222      1228
 -2      1229      1230      1449      1448      1455      1456      1451      1457      1458      1459
 -1       254    4    0    1
 -2      1225      1224      1231      1232      1454      1453      1460      1461      1229      1235
 -2      1236      1237      1456      1455      1462      1463      1458      1464      1465      1466
 -1       255    4    0    1
 -2      1232      1231      1238      1239      1461      1460      1467      1468      1236      1242
 -2      1243      1244      1463      1462      1469      1470      1465      1471      1472      1473
 -1       256    4    0    1
 -2      1239      1238      1245      1246      1468      1467      1474      1475      1243      1249
 -2      1250      1251      1470      1469      1476      1477      1472      1478      1479      1480
 -1       257    4    0    1
 -2      1246      1245      1252      1253      1475      1474      1481      1482      1250      1256
 -2      1257      1258      1477      1476      1483      1484      1479      1485      1486      1487
 -1       258    4    0    1
 -2      1253      1252      1259      1260      1482      1481      1488      1489      1257      1263
 -2      1264      1265      1484      1483      1490      1491      1486      1492      1493      1494
 -1       259    4    0    1
 -2      1260      1259      1266      1267      1489      1488      1495      1496      1264      1270
 -2      1271      1272      1491      1490      1497      1498      1493      1499      1500      1501
 -1       260    4    0    1
 -2      1267      1266      1273      1274      1496      1495      1502      1503      1271      1277
 -2      1278      1279      1498      1497      1504      1505      1500      1506      1507      1508
 -1       261    4    0    1
 -2      1274      1273      1280      1281      1503      1502      1509      1510      1278      1284
 -2      1285      1286      1505      1504      1511      1512      1507      1513      1514      1515
 -1       262    4    0    1
 -2      1281      1280      1287      1288      1510      1509      1516      1517      1285      1291
 -2      1292      1293      1512      1511      1518      1519      1514      1520      1521      1522
 -1       263    4    0    1
 -2      1288      1287      1294      1295      1517      1516      1523      1524      1292      1298
 -2      1299      1300      1519      1518      1525      1526      1521      1527      1528      1529
 -1       264    4    0    1
 -2      1295      1294      1301      1302      1524      1523      1530      1531      1299      1305
 -2      1306      1307      1526      1525      1532      1533      1528      1534      1535      1536
 -1       265    4    0    1
 -2      1302      1301      1308      1309      1531      1530      1537      1538      1306      1312
 -2      1313      1314      1533      1532      1539      1540      1535      1541      1542      1543
 -1       266    4    0    1
 -2      1309      1308      1315      1316      1538      1537      1544      1545      1313      1319
 -2      1320      1321      1540      1539      1546      1547      1542      1548      1549      1550
 -1       267    4    0    1
 -2      1316      1315      1322      1323      1545      1544      1551      1552      1320      1326
 -2      1327      1328      1547      1546      1553      1554      1549      1555      1556      1557
 -1       268    4    0    1
 -2      1323      1322      1329      1330      1552      1551      1558      1559      1327      1333
 -2      1334      1335      1554      1553      1560      1561      1556      1562      1563      1564
 -1       269    4    0    1
 -2      1330      1329      1336      1337      1559      1558      1565      1566      1334      1340
 -2      1341      1342      1561      1560      1567      1568      1563      1569      1570      1571
 -1       270    4    0    1
 -2      1337      1336      1343      1344      1566      1565      1572      1573      1341      1347
 -2      1348      1349      1568      1567      1574      1575      1570      1576      1577      1578
 -1       271    4    0    1
 -2      1344      1343      1350      1351      1573      1572      1579      1580      1348      1354
 -2      1355      1356      1575      1574      1581      1582      1577      1583      1584      1585
 -1       272    4    0    1
 -2      1351      1350      1357      1358      1580      1579      1586      1587      1355      1361
 -2      1362      1363      1582      1581      1588      1589      1584      1590      1591      1592
 -1       273    4    0    1
 -2      1364      1365      1366      1367      1593      1594      1595      1596      1372      1373
 -2      1374      1375      1597      1598      1599      1600      1601      1602      1603      1604
 -1       274    4    0    1
 -2      1367      1366      1376      1377      1596      1595      1605      1606      1374      1380
 -2      1381      1382      1600      1599      1607      1608      1603      1609      1610      1611
 -1       275    4    0    1
 -2      1377      1376      1383      1384      1606      1605      1612      1613      1381      1387
 -2      1388      1389      1608      1607      1614      1615      1610      1616      1617      1618
 -1       276    4    0    1
 -2      1384      1383      1390      1391      1613      1612      1619      1620      1388      1394
 -2      1395      1396      1615      1614      1621      1622      1617      1623      1624      1625
 -1       277    4    0    1
 -2      1391      1390      1397      1398      1620      1619      1626      1627      1395      1401
 -2      1402      1403      1622      1621      1628      1629      1624      1630      1631      1632
 -1       278    4    0    1
 -2      1398      1397      1404      1405      1627      1626      1633      1634      1402      1408
 -2      1409      1410      1629      1628      1635      1636      1631      1637      1638      1639
 -1       279    4    0    1
 -2      1405      1404      1411      1412      1634      1633      1640      1641      1409      1415
 -2      1416      1417      1636      1635      1642      1643      1638      1644      1645      1646
 -1       280    4    0    1
 -2      1412      1411      1418      1419      1641      1640      1647      1648      1416      1422
 -2      1423      1424      1643      1642      1649      1650      1645      1651      1652      1653
 -1       281    4    0    1
 -2      1419      1418      1425      1426      1648      1647      1654      1655      1423      1429
 -2      1430      1431      1650      1649      1656      1657      1652      1658      1659      1660
 -1       282    4    0    1
 -2      1426      1425      1432      1433      1655      1654      1661      1662      1430      1436
 -2      1437      1438      1657      1656      1663      1664      1659      1665      1666      1667
 -1       283    4    0    1
 -2      1433      1432      1439      1440      1662      1661      1668      1669      1437      1443
 -2      1444      1445      1664      1663      1670      1671      1666      1672      1673      1674
 -1       284    4    0    1
 -2      1440      1439      1446      1447      1669      1668      1675      1676      1444      1450
 -2      1451      1452      1671      1670      1677      1678      1673      1679      1680      1681
 -1       285    4    0    1
 -2      1447      1446      1453      1454      1676      1675      1682      1683      1451      1457
 -2      1458      1459      1678      1677      1684      1685      1680      1686      1687      1688
 -1       286    4    0    1
 -2      1454      1453      1460      1461      1683      1682      1689      1690      1458      1464
 -2      1465      1466      1685      1684      1691      1692      1687      1693      1694      1695
 -1       287    4    0    1
 -2      1461      1460      1467      1468      1690      1689      1696      1697      1465      1471
 -2      1472      1473      1692      1691      1698      1699      1694      1700      1701      1702
 -1       288    4    0    1
 -2      1468      1467      1474      1475      1697      1696      1703      1704      1472      1478
 -2      1479      1480      1699      1698      1705      1706      1701      1707      1708      1709
 -1       289    4    0    1
 -2      1475      1474      1481      1482      1704      1703      1710      1711      1479      1485
 -2      1486      1487      1706      1705      1712      1713      1708      1714      1715      1716
 -1       290    4    0    1
 -2      1482      1481      1488      1489      1711      1710      1717      1718      1486      1492
 -2      1493      1494      1713      1712      1719      1720      1715      1721      1722      1723
 -1       291    4    0    1
 -2      1489      1488      1495      1496      1718      1717      1724      1725      1493      1499
 -2      1500      1501      1720      1719      1726      1727      1722      1728      1729      1730
 -1       292    4    0    1
 -2      1496      1495      1502      1503      1725      1724      1731      1732      1500      1506
 -2      1507      1508      1727      1726      1733      1734      1729      1735      1736      1737
 -1       293    4    0    1
 -2      1503      1502      1509      1510      1732      1731      1738      1739      1507      1513
 -2      1514      1515      1734      1733      1740      1741      1736      1742      1743      1744
 -1       294    4    0    1
 -2      1510      1509      1516      1517      1739      1738      1745      1746      1514      1520
 -2      1521      1522      1741      1740      1747      1748      1743      1749      1750      1751
 -1       295    4    0    1
 -2      1517      1516      1523      1524      1746      1745      1752      1753      1521      1527
 -2      1528      1529      1748      1747      1754      1755      1750      1756      1757      1758
 -1       296    4    0    1
 -2      1524      1523      1530      1531      1753      1752      1759      1760      1528      1534
 -2      1535      1536      1755      1754      1761      1762      1757      1763      1764      1765
 -1       297    4    0    1
 -2      1531      1530      1537      1538      1760      1759      1766      1767      1535      1541
 -2      1542      1543      1762      1761      1768      1769      1764      1770      1771      1772
 -1       298    4    0    1
 -2      1538      1537      1544      1545      1767      1766      1773      1774      1542      1548
 -2      1549      1550      1769      1768      1775      1776      1771      1777      1778      1779
 -1       299    4    0    1
 -2      1545      1544      1551      1552      1774      1773      1780      1781      1549      1555
 -2      1556      1557      1776      1775      1782      1783      1778      1784      1785      1786
 -1       300    4    0    1
 -2      1552      1551      1558      1559      1781      1780      1787      1788      1556      1562
 -2      1563      1564      1783      1782      1789      1790      1785      1791      1792      1793
 -1       301    4    0    1
 -2      1559      1558      1565      1566      1788      1787      1794      1795      1563      1569
 -2      1570      1571      1790      1789      1796      1797      1792      1798      1799      1800
 -1       302    4    0    1
 -2      1566      1565      1572      1573      1795      1794      1801      1802      1570      1576
 -2      1577      1578      1797      1796      1803      1804      1799      1805      1806      1807
 -1       303    4    0    1
 -2      1573      1572      1579      1580      1802      1801      1808      1809      1577      1583
 -2      1584      1585      1804      1803      1810      1811      1806      1812      1813      1814
 -1       304    4    0    1
 -2      1580      1579      1586      1587      1809      1808      1815      1816      1584      1590
 -2      1591      1592      1811      1810      1817      1818      1813      1819      1820      1821
 -1       305    4    0    1
 -2      1593      1594      1595      1596      1822      1823      1824      1825      1601      1602
 -2      1603      1604      1826      1827      1828      1829      1830      1831      1832      1833
 -1       306    4    0    1
 -2      1596      1595      1605      1606      1825      1824      1834      1835      1603      1609
 -2      1610      1611      1829      1828      1836      1837      1832      1838      1839      1840
 -1       307    4    0    1
 -2      1606      1605      1612      1613      1835      1834      1841      1842      1610      1616
 -2      1617      1618      1837      1836      1843      1844      1839      1845      1846      1847
 -1       308    4    0    1
 -2      1613      1612      1619      1620      1842      1841      1848      1849      1617      1623
 -2      1624      1625      1844      1843      1850      1851      1846      1852      1853      1854
 -1       309    4    0    1
 -2      1620      1619      1626      1627      1849      1848      1855      1856      1624      1630
 -2      1631      1632      1851      1850      1857      1858      1853      1859      1860      1861
 -1       310    4    0    1
 -2      1627      1626      1633      1634      1856      1855      1862      1863      1631      1637
 -2      1638      1639      1858      1857      1864      1865      1860      1866      1867      1868
 -1       311    4    0    1
 -2      1634      1633      1640      1641      1863      1862      1869      1870      1638      1644
 -2      1645      1646      1865      1864      1871      1872      1867      1873      1874      1875
 -1       312    4    0    1
 -2      1641      1640      1647      1648      1870      1869      1876      1877      1645      1651
 -2      1652      1653      1872      1871      1878      1879      1874      1880      1881      1882
 -1       313    4    0    1
 -2      1648      1647      1654      1655      1877      1876      1883      1884      1652      1658
 -2      1659      1660      1879      1878      1885      1886      1881      1887      1888      1889
 -1       314    4    0    1
 -2      1655      1654      1661      1662      1884      1883      1890      1891      1659      1665
 -2      1666      1667      1886      1885      1892      1893      1888      1894      1895      1896
 -1       315    4    0    1
 -2      1662      1661      1668      1669      1891      1890      1897      1898      1666      1672
 -2      1673      1674      1893      1892      1899      1900      1895      1901      1902      1903
 -1       316    4    0    1
 -2      1669      1668      1675      1676      1898      1897      1904      1905      1673      1679
 -2      1680      1681      1900      1899      1906      1907      1902      1908      1909      1910
 -1       317    4    0    1
 -2      1676      1675      1682      1683      1905      1904      1911      1912      1680      1686
 -2      1687      1688      1907      1906      1913      1914      1909      1915      1916      1917
 -1       318    4    0    1
 -2      1683      1682      1689      1690      1912      1911      1918      1919      1687      1693
 -2      1694      1695      1914      1913      1920      1921      1916      1922      1923      1924
 -1       319    4    0    1
 -2      1690      1689      1696      1697      1919      1918      1925      1926      1694      1700
 -2      1701      1702      1921      1920      1927      1928      1923      1929      1930      1931
 -1       320    4    0    1
 -2      1697      1696      1703      1704      1926      1925      1932      1933      1701      1707
 -2      1708      1709      1928      1927      1934      1935      1930      1936      1937      1938
 -1       321    4    0    1
 -2      1704      1703      1710      1711      1933      1932      1939      1940      1708      1714
 -2      1715      1716      1935      1934      1941      1942      1937      1943      1944      1945
 -1       322    4    0    1
 -2      1711      1710      1717      1718      1940      1939      1946      1947      1715      1721
 -2      1722      1723      1942      1941      1948      1949      1944      1950      1951      1952
 -1       323    4    0    1
 -2      1718      1717      1724      1725      1947      1946      1953      1954      1722      1728
 -2      1729      1730      1949      1948      1955      1956      1951      1957      1958      1959
 -1       324    4    0    1
 -2      1725      1724      1731      1732      1954      1953      1960      1961      1729      1735
 -2      1736      1737      1956      1955      1962      1963      1958      1964      1965      1966
 -1       325    4    0    1
 -2      1732      1731      1738      1739      1961      1960      1967      1968      1736      1742
 -2      1743      1744      1963      1962      1969      1970      1965      1971      1972      1973
 -1       326    4    0    1
 -2      1739      1738      1745      1746      1968      1967      1974      1975      1743      1749
 -2      1750      1751      1970      1969      1976      1977      1972      1978      1979      1980
 -1       327    4    0    1
 -2      1746      1745      1752      1753      1975      1974      1981      1982      1750      1756
 -2      1757      1758      1977      1976      1983      1984      1979      1985      1986      1987
 -1       328    4    0    1
 -2      1753      1752      1759      1760      1982      1981      1988      1989      1757      1763
 -2      1764      1765      1984      1983      1990      1991      1986      1992      1993      1994
 -1       329    4    0    1
 -2      1760      1759      1766      1767      1989      1988      1995      1996      1764      1770
 -2      1771      1772      1991      1990      1997      1998      1993      1999      2000      2001
 -1       330    4    0    1
 -2      1767      1766      1773      1774      1996      1995      2002      2003      1771      1777
 -2      1778      1779      1998      1997      2004      2005      2000      2006      2007      2008
 -1       331    4    0    1
 -2      1774      1773      1780      1781      2003      2002      2009      2010      1778      1784
 -2      1785      1786      2005      2004      2011      2012      2007      2013      2014      2015
 -1       332    4    0    1
 -2      1781      1780      1787      1788      2010      2009      2016      2017      1785      1791
 -2      1792      1793      2012      2011      2018      2019      2014      2020      2021      2022
 -1       333    4    0    1
 -2      1788      1787      1794      1795      2017      2016      2023      2024      1792      1798
 -2      1799      1800      2019      2018      2025      2026      2021      2027      2028      2029
 -1       334    4    0    1
 -2      1795      1794      1801      1802      2024      2023      2030      2031      1799      1805
 -2      1806      1807      2026      2025      2032      2033      2028      2034      2035      2036
 -1       335    4    0    1
 -2      1802      1801      1808      1809      2031      2030      2037      2038      1806      1812
 -2      1813      1814      2033      2032      2039      2040      2035      2041      2042      2043
 -1       336    4    0    1
 -2      1809      1808      1815      1816      2038      2037      2044      2045      1813      1819
 -2      1820      1821      2040      2039      2046      2047      2042      2048      2049      2050
 -1       337    4    0    1
 -2        57      2051      2052        58        61      2053      2054        62      2055      2056
 -2      2057        65        69      2058      2059        70      2060      2061      2062        73
 -1       338    4    0    1
 -2        58      2052      2063        76        62      2054      2064        78      2057      2065
 -2      2066        80        70      2059      2067        83      2062      2068      2069        85
 -1       339    4    0    1
 -2        76      2063      2070        88        78      2064      2071        90      2066      2072
 -2      2073        92        83      2067      2074        95      2069      2075      2076        97
 -1       340    4    0    1
 -2        88      2070      2077       100        90      2071      2078       102      2073      2079
 -2      2080       104        95      2074      2081       107      2076      2082      2083       109
 -1       341    4    0    1
 -2       100      2077      2084       112       102      2078      2085       114      2080      2086
 -2      2087       116       107      2081      2088       119      2083      2089      2090       121
 -1       342    4    0    1
 -2       112      2084      2091       124       114      2085      2092       126      2087      2093
 -2      2094       128       119      2088      2095       131      2090      2096      2097       133
 -1       343    4    0    1
 -2       124      2091      2098       136       126      2092      2099       138      2094      2100
 -2      2101       140       131      2095      2102       143      2097      2103      2104       145
 -1       344    4    0    1
 -2       136      2098      2105       148       138      2099      2106       150      2101      2107
 -2      2108       152       143      2102      2109       155      2104      2110      2111       157
 -1       345    4    0    1
 -2       148      2105      2112       160       150      2106      2113       162      2108      2114
 -2      2115       164       155      2109      2116       167      2111      2117      2118       169
 -1       346    4    0    1
 -2       160      2112      2119       172       162      2113      2120       174      2115      2121
 -2      2122       176       167      2116      2123       179      2118      2124      2125       181
 -1       347    4    0    1
 -2       172      2119      2126       184       174      2120      2127       186      2122      2128
 -2      2129       188       179      2123      2130       191      2125      2131      2132       193
 -1       348    4    0    1
 -2       184      2126      2133       196       186      2127      2134       198      2129      2135
 -2      2136       200       191      2130      2137       203      2132      2138      2139       205
 -1       349    4    0    1
 -2       196      2133      2140       208       198      2134      2141       210      2136      2142
 -2      2143       212       203      2137      2144       215      2139      2145      2146       217
 -1       350    4    0    1
 -2       208      2140      2147       220       210      2141      2148       222      2143      2149
 -2      2150       224       215      2144      2151       227      2146      2152      2153       229
 -1       351    4    0    1
 -2       220      2147      2154       232       222      2148      2155       234      2150      2156
 -2      2157       236       227      2151      2158       239      2153      2159      2160       241
 -1       352    4    0    1
 -2       232      2154      2161       244       234      2155      2162       246      2157      2163
 -2      2164       248       239      2158      2165       251      2160      2166      2167       253
 -1       353    4    0    1
 -2       244      2161      2168       256       246      2162      2169       258      2164      2170
 -2      2171       260       251      2165      2172       263      2167      2173      2174       265
 -1       354    4    0    1
 -2       256      2168      2175       268       258      2169      2176       270      2171      2177
 -2      2178       272       263      2172      2179       275      2174      2180      2181       277
 -1       355    4    0    1
 -2       268      2175      2182       280       270      2176      2183       282      2178      2184
 -2      2185       284       275      2179      2186       287      2181      2187      2188       289
 -1       356    4    0    1
 -2       280      2182      2189       292       282      2183      2190       294      2185      2191
 -2      2192       296       287      2186      2193       299      2188      2194      2195       301
 -1       357    4    0    1
 -2       292      2189      2196       304       294      2190      2197       306      2192      2198
 -2      2199       308       299      2193      2200       311      2195      2201      2202       313
 -1       358    4    0    1
 -2       304      2196      2203       316       306      2197      2204       318      2199      2205
 -2      2206       320       311      2200      2207       323      2202      2208      2209       325
 -1       359    4    0    1
 -2       316      2203      2210       328       318      2204      2211       330      2206      2212
 -2      2213       332       323      2207      2214       335      2209      2215      2216       337
 -1       360    4    0    1
 -2       328      2210      2217       340       330      2211      2218       342      2213      2219
 -2      2220       344       335      2214      2221       347      2216      2222      2223       349
 -1       361    4    0    1
 -2       340      2217      2224       352       342      2218      2225       354      2220      2226
 -2      2227       356       347      2221      2228       359      2223      2229      2230       361
 -1       362    4    0    1
 -2       352      2224      2231       364       354      2225      2232       366      2227      2233
 -2      2234       368       359      2228      2235       371      2230      2236      2237       373
 -1       363    4    0    1
 -2       364      2231      2238       376       366      2232      2239       378      2234      2240
 -2      2241       380       371      2235      2242       383      2237      2243      2244       385
 -1       364    4    0    1
 -2       376      2238      2245       388       378      2239      2246       390      2241      2247
 -2      2248       392       383      2242      2249       395      2244      2250      2251       397
 -1       365    4    0    1
 -2       388      2245      2252       400       390      2246      2253       402      2248      2254
 -2      2255       404       395      2249      2256       407      2251      2257      2258       409
 -1       366    4    0    1
 -2       400      2252      2259       412       402      2253      2260       414      2255      2261
 -2      2262       416       407      2256      2263       419      2258      2264      2265       421
 -1       367    4    0    1
 -2       412      2259      2266       424       414      2260      2267       426      2262      2268
 -2      2269       428       419      2263      2270       431      2265      2271      2272       433
 -1       368    4    0    1
 -2       424      2266      2273       436       426      2267      2274       438      2269      2275
 -2      2276       440       431      2270      2277       443      2272      2278      2279       445
 -1       369    4    0    1
 -2        61      2053      2054        62       449      2280      2281       450      2060      2061
 -2      2062        73       453      2282      2283       454      2284      2285      2286       457
 -1       370    4    0    1
 -2        62      2054      2064        78       450      2281      2287       460      2062      2068
 -2      2069        85       454      2283      2288       462      2286      2289      2290       464
 -1       371    4    0    1
 -2        78      2064      2071        90       460      2287      2291       467      2069      2075
 -2      2076        97       462      2288      2292       469      2290      2293      2294       471
 -1       372    4    0    1
 -2        90      2071      2078       102       467      2291      2295       474      2076      2082
 -2      2083       109       469      2292      2296       476      2294      2297      2298       478
 -1       373    4    0    1
 -2       102      2078      2085       114       474      2295      2299       481      2083      2089
 -2      2090       121       476      2296      2300       483      2298      2301      2302       485
 -1       374    4    0    1
 -2       114      2085      2092       126       481      2299      2303       488      2090      2096
 -2      2097       133       483      2300      2304       490      2302      2305      2306       492
 -1       375    4    0    1
 -2       126      2092      2099       138       488      2303      2307       495      2097      2103
 -2      2104       145       490      2304      2308       497      2306      2309      2310       499
 -1       376    4    0    1
 -2       138      2099      2106       150       495      2307      2311       502      2104      2110
 -2      2111       157       497      2308      2312       504      2310      2313      2314       506
 -1       377    4    0    1
 -2       150      2106      2113       162       502      2311      2315       509      2111      2117
 -2      2118       169       504      2312      2316       511      2314      2317      2318       513
 -1       378    4    0    1
 -2       162      2113      2120       174       509      2315      2319       516      2118      2124
 -2      2125       181       511      2316      2320       518      2318      2321      2322       520
 -1       379    4    0    1
 -2       174      2120      2127       186       516      2319      2323       523      2125      2131
 -2      2132       193       518      2320      2324       525      2322      2325      2326       527
 -1       380    4    0    1
 -2       186      2127      2134       198       523      2323      2327       530      2132      2138
 -2      2139       205       525      2324      2328       532      2326      2329      2330       534
 -1       381    4    0    1
 -2       198      2134      2141       210       530      2327      2331       537      2139      2145
 -2      2146       217       532      2328      2332       539      2330      2333      2334       541
 -1       382    4    0    1
 -2       210      2141      2148       222       537      2331      2335       544      2146      2152
 -2      2153       229       539      2332      2336       546      2334      2337      2338       548
 -1       383    4    0    1
 -2       222      2148      2155       234       544      2335      2339       551      2153      2159
 -2      2160       241       546      2336      2340       553      2338      2341      2342       555
 -1       384    4    0    1
 -2       234      2155      2162       246       551      2339      2343       558      2160      2166
 -2      2167       253       553      2340      2344       560      2342      2345      2346       562
 -1       385    4    0    1
 -2       246      2162      2169       258       558      2343      2347       565      2167      2173
 -2      2174       265       560      2344      2348       567      2346      2349      2350       569
 -1       386    4    0    1
 -2       258      2169      2176       270       565      2347      2351       572      2174      2180
 -2      2181       277       567      2348      2352       574      2350      2353      2354       576
 -1       387    4    0    1
 -2       270      2176      2183       282       572      2351      2355       579      2181      2187
 -2      2188       289       574      2352      2356       581      2354      2357      2358       583
 -1       388    4    0    1
 -2       282      2183      2190       294       579      2355      2359       586      2188      2194
 -2      2195       301       581      2356      2360       588      2358      2361      2362       590
 -1       389    4    0    1
 -2       294      2190      2197       306       586      2359      2363       593      2195      2201
 -2      2202       313       588      2360      2364       595      2362      2365      2366       597
 -1       390    4    0    1
 -2       306      2197      2204       318       593      2363      2367       600      2202      2208
 -2      2209       325       595      2364      2368       602      2366      2369      2370       604
 -1       391    4    0    1
 -2       318      2204      2211       330       600      2367      2371       607      2209      2215
 -2      2216       337       602      2368      2372       609      2370      2373      2374       611
 -1       392    4    0    1
 -2       330      2211      2218       342       607      2371      2375       614      2216      2222
 -2      2223       349       609      2372      2376       616      2374      2377      2378       618
 -1       393    4    0    1
 -2       342      2218      2225       354       614      2375      2379       621      2223      2229
 -2      2230       361       616      2376      2380       623      2378      2381      2382       625
 -1       394    4    0    1
 -2       354      2225      2232       366       621      2379      2383       628      2230      2236
 -2      2237       373       623      2380      2384       630      2382      2385      2386       632
 -1       395    4    0    1
 -2       366      2232      2239       378       628      2383      2387       635      2237      2243
 -2      2244       385       630      2384      2388       637      2386      2389      2390       639
 -1       396    4    0    1
 -2       378      2239      2246       390       635      2387      2391       642      2244      2250
 -2      2251       397       637      2388      2392       644      2390      2393      2394       646
 -1       397    4    0    1
 -2       390      2246      2253       402       642      2391      2395       649      2251      2257
 -2      2258       409       644      2392      2396       651      2394      2397      2398       653
 -1       398    4    0    1
 -2       402      2253      2260       414       649      2395      2399       656      2258      2264
 -2      2265       421       651      2396      2400       658      2398      2401      2402       660
 -1       399    4    0    1
 -2       414      2260      2267       426       656      2399      2403       663      2265      2271
 -2      2272       433       658      2400      2404       665      2402      2405      2406       667
 -1       400    4    0    1
 -2       426      2267      2274       438       663      2403      2407       670      2272      2278
 -2      2279       445       665      2404      2408       672      2406      2409      2410       674
 -1       401    4    0    1
 -2       449      2280      2281       450       678      2411      2412       679      2284      2285
 -2      2286       457       682      2413      2414       683      2415      2416      2417       686
 -1       402    4    0    1
 -2       450      2281      2287       460       679      2412      2418       689      2286      2289
 -2      2290       464       683      2414      2419       691      2417      2420      2421       693
 -1       403    4    0    1
 -2       460      2287      2291       467       689      2418      2422       696      2290      2293
 -2      2294       471       691      2419      2423       698      2421      2424      2425       700
 -1       404    4    0    1
 -2       467      2291      2295       474       696      2422      2426       703      2294      2297
 -2      2298       478       698      2423      2427       705      2425      2428      2429       707
 -1       405    4    0    1
 -2       474      2295      2299       481       703      2426      2430       710      2298      2301
 -2      2302       485       705      2427      2431       712      2429      2432      2433       714
 -1       406    4    0    1
 -2       481      2299      2303       488       710      2430      2434       717      2302      2305
 -2      2306       492       712      2431      2435       719      2433      2436      2437       721
 -1       407    4    0    1
 -2       488      2303      2307       495       717      2434      2438       724      2306      2309
 -2      2310       499       719      2435      2439       726      2437      2440      2441       728
 -1       408    4    0    1
 -2       495      2307      2311       502       724      2438      2442       731      2310      2313
 -2      2314       506       726      2439      2443       733      2441      2444      2445       735
 -1       409    4    0    1
 -2       502      2311      2315       509       731      2442      2446       738      2314      2317
 -2      2318       513       733      2443      2447       740      2445      2448      2449       742
 -1       410    4    0    1
 -2       509      2315      2319       516       738      2446      2450       745      2318      2321
 -2      2322       520       740      2447      2451       747      2449      2452      2453       749
 -1       411    4    0    1
 -2       516      2319      2323       523       745      2450      2454       752      2322      2325
 -2      2326       527       747      2451      2455       754      2453      2456      2457       756
 -1       412    4    0    1
 -2       523      2323      2327       530       752      2454      2458       759      2326      2329
 -2      2330       534       754      2455      2459       761      2457      2460      2461       763
 -1       413    4    0    1
 -2       530      2327      2331       537       759      2458      2462       766      2330      2333
 -2      2334       541       761      2459      2463       768      2461      2464      2465       770
 -1       414    4    0    1
 -2       537      2331      2335       544       766      2462      2466       773      2334      2337
 -2      2338       548       768      2463      2467       775      2465      2468      2469       777
 -1       415    4    0    1
 -2       544      2335      2339       551       773      2466      2470       780      2338      2341
 -2      2342       555       775      2467      2471       782      2469      2472      2473       784
 -1       416    4    0    1
 -2       551      2339      2343       558       780      2470      2474       787      2342      2345
 -2      2346       562       782      2471      2475       789      2473      2476      2477       791
 -1       417    4    0    1
 -2       558      2343      2347       565       787      2474      2478       794      2346      2349
 -2      2350       569       789      2475      2479       796      2477      2480      2481       798
 -1       418    4    0    1
 -2       565      2347      2351       572       794      2478      2482       801      2350      2353
 -2      2354       576       796      2479      2483       803      2481      2484      2485       805
 -1       419    4    0    1
 -2       572      2351      2355       579       801      2482      2486       808      2354      2357
 -2      2358       583       803      2483      2487       810      2485      2488      2489       812
 -1       420    4    0    1
 -2       579      2355      2359       586       808      2486      2490       815      2358      2361
 -2      2362       590       810      2487      2491       817      2489      2492      2493       819
 -1       421    4    0    1
 -2       586      2359      2363       593       815      2490      2494       822      2362      2365
 -2      2366       597       817      2491      2495       824      2493      2496      2497       826
 -1       422    4    0    1
 -2       593      2363      2367       600       822      2494      2498       829      2366      2369
 -2      2370       604       824      2495      2499       831      2497      2500      2501       833
 -1       423    4    0    1
 -2       600      2367      2371       607       829      2498      2502       836      2370      2373
 -2      2374       611       831      2499      2503       838      2501      2504      2505       840
 -1       424    4    0    1
 -2       607      2371      2375       614       836      2502      2506       843      2374      2377
 -2      2378       618       838      2503      2507       845      2505      2508      2509       847
 -1       425    4    0    1
 -2       614      2375      2379       621       843      2506      2510       850      2378      2381
 -2      2382       625       845      2507      2511       852      2509      2512      2513       854
 -1       426    4    0    1
 -2       621      2379      2383       628       850      2510      2514       857      2382      2385
 -2      2386       632       852      2511      2515       859      2513      2516      2517       861
 -1       427    4    0    1
 -2       628      2383      2387       635       857      2514      2518       864      2386      2389
 -2      2390       639       859      2515      2519       866      2517      2520      2521       868
 -1       428    4    0    1
 -2       635      2387      2391       642       864      2518      2522       871      2390      2393
 -2      2394       646       866      2519      2523       873      2521      2524      2525       875
 -1       429    4    0    1
 -2       642      2391      2395       649       871      2522      2526       878      2394      2397
 -2      2398       653       873      2523      2527       880      2525      2528      2529       882
 -1       430    4    0    1
 -2       649      2395      2399       656       878      2526      2530       885      2398      2401
 -2      2402       660       880      2527      2531       887      2529      2532      2533       889
 -1       431    4    0    1
 -2       656      2399      2403       663       885      2530      2534       892      2402      2405
 -2      2406       667       887      2531      2535       894      2533      2536      2537       896
 -1       432    4    0    1
 -2       663      2403      2407       670       892      2534      2538       899      2406      2409
 -2      2410       674       894      2535      2539       901      2537      2540      2541       903
 -1       433    4    0    1
 -2       678      2411      2412       679       907      2542      2543       908      2415      2416
 -2      2417       686       911      2544      2545       912      2546      2547      2548       915
 -1       434    4    0    1
 -2       679      2412      2418       689       908      2543      2549       918      2417      2420
 -2      2421       693       912      2545      2550       920      2548      2551      2552       922
 -1       435    4    0    1
 -2       689      2418      2422       696       918      2549      2553       925      2421      2424
 -2      2425       700       920      2550      2554       927      2552      2555      2556       929
 -1       436    4    0    1
 -2       696      2422      2426       703       925      2553      2557       932      2425      2428
 -2      2429       707       927      2554      2558       934      2556      2559      2560       936
 -1       437    4    0    1
 -2       703      2426      2430       710       932      2557      2561       939      2429      2432
 -2      2433       714       934      2558      2562       941      2560      2563      2564       943
 -1       438    4    0    1
 -2       710      2430      2434       717       939      2561      2565       946      2433      2436
 -2      2437       721       941      2562      2566       948      2564      2567      2568       950
 -1       439    4    0    1
 -2       717      2434      2438       724       946      2565      2569       953      2437      2440
 -2      2441       728       948      2566      2570       955      2568      2571      2572       957
 -1       440    4    0    1
 -2       724      2438      2442       731       953      2569      2573       960      2441      2444
 -2      2445       735       955      2570      2574       962      2572      2575      2576       964
 -1       441    4    0    1
 -2       731      2442      2446       738       960      2573      2577       967      2445      2448
 -2      2449       742       962      2574      2578       969      2576      2579      2580       971
 -1       442    4    0    1
 -2       738      2446      2450       745       967      2577      2581       974      2449      2452
 -2      2453       749       969      2578      2582       976      2580      2583      2584       978
 -1       443    4    0    1
 -2       745      2450      2454       752       974      2581      2585       981      2453      2456
 -2      2457       756       976      2582      2586       983      2584      2587      2588       985
 -1       444    4    0    1
 -2       752      2454      2458       759       981      2585      2589       988      2457      2460
 -2      2461       763       983      2586      2590       990      2588      2591      2592       992
 -1       445    4    0    1
 -2       759      2458      2462       766       988      2589      2593       995      2461      2464
 -2      2465       770       990      2590      2594       997      2592      2595      2596       999
 -1       446    4    0    1
 -2       766      2462      2466       773       995      2593      2597      1002      2465      2468
 -2      2469       777       997      2594      2598      1004      2596      2599      2600      1006
 -1       447    4    0    1
 -2       773      2466      2470       780      1002      2597      2601      1009      2469      2472
 -2      2473       784      1004      2598      2602      1011      2600      2603      2604      1013
 -1       448    4    0    1
 -2       780      2470      2474       787      1009      2601      2605      1016      2473      2476
 -2      2477       791      1011      2602      2606      1018      2604      2607      2608      1020
 -1       449    4    0    1
 -2       787      2474      2478       794      1016      2605      2609      1023      2477      2480
 -2      2481       798      1018      2606      2610      1025      2608      2611      2612      1027
 -1       450    4    0    1
 -2       794      2478      2482       801      1023      2609      2613      1030      2481      2484
 -2      2485       805      1025      2610      2614      1032      2612      2615      2616      1034
 -1       451    4    0    1
 -2       801      2482      2486       808      1030      2613      2617      1037      2485      2488
 -2      2489       812      1032      2614      2618      1039      2616      2619      2620      1041
 -1       452    4    0    1
 -2       808      2486      2490       815      1037      2617      2621      1044      2489      2492
 -2      2493       819      1039      2618      2622      1046      2620      2623      2624      1048
 -1       453    4    0    1
 -2       815      2490      2494       822      1044      2621      2625      1051      2493      2496
 -2      2497       826      1046      2622      2626      1053      2624      2627      2628      1055
 -1       454    4    0    1
 -2       822      2494      2498       829      1051      2625      2629      1058      2497      2500
 -2      2501       833      1053      2626      2630      1060      2628      2631      2632      1062
 -1       455    4    0    1
 -2       829      2498      2502       836      1058      2629      2633      1065      2501      2504
 -2      2505       840      1060      2630      2634      1067      2632      2635      2636      1069
 -1       456    4    0    1
 -2       836      2502      2506       843      1065      2633      2637      1072      2505      2508
 -2      2509       847      1067      2634      2638      1074      2636      2639      2640      1076
 -1       457    4    0    1
 -2       843      2506      2510       850      1072      2637      2641      1079      2509      2512
 -2      2513       854      1074      2638      2642      1081      2640      2643      2644      1083
 -1       458    4    0    1
 -2       850      2510      2514       857      1079      2641      2645      1086      2513      2516
 -2      2517       861      1081      2642      2646      1088      2644      2647      2648      1090
 -1       459    4    0    1
 -2       857      2514      2518       864      1086      2645      2649      1093      2517      2520
 -2      2521       868      1088      2646      2650      1095      2648      2651      2652      1097
 -1       460    4    0    1
 -2       864      2518      2522       871      1093      2649      2653      1100      2521      2524
 -2      2525       875      1095      2650      2654      1102      2652      2655      2656      1104
 -1       461    4    0    1
 -2       871      2522      2526       878      1100      2653      2657      1107      2525      2528
 -2      2529       882      1102      2654      2658      1109      2656      2659      2660      1111
 -1       462    4    0    1
 -2       878      2526      2530       885      1107      2657      2661      1114      2529      2532
 -2      2533       889      1109      2658      2662      1116      2660      2663      2664      1118
 -1       463    4    0    1
 -2       885      2530      2534       892      1114      2661      2665      1121      2533      2536
 -2      2537       896      1116      2662      2666      1123      2664      2667      2668      1125
 -1       464    4    0    1
 -2       892      2534      2538       899      1121      2665      2669      1128      2537      2540
 -2      2541       903      1123      2666      2670      1130      2668      2671      2672      1132
 -1       465    4    0    1
 -2       907      2542      2543       908      1136      2673      2674      1137      2546      2547
 -2      2548       915      1140      2675      2676      1141      2677      2678      2679      1144
 -1       466    4    0    1
 -2       908      2543      2549       918      1137      2674      2680      1147      2548      2551
 -2      2552       922      1141      2676      2681      1149      2679      2682      2683      1151
 -1       467    4    0    1
 -2       918      2549      2553       925      1147      2680      2684      1154      2552      2555
 -2      2556       929      1149      2681      2685      1156      2683      2686      2687      1158
 -1       468    4    0    1
 -2       925      2553      2557       932      1154      2684      2688      1161      2556      2559
 -2      2560       936      1156      2685      2689      1163      2687      2690      2691      1165
 -1       469    4    0    1
 -2       932      2557      2561       939      1161      2688      2692      1168      2560      2563
 -2      2564       943      1163      2689      2693      1170      2691      2694      2695      1172
 -1       470    4    0    1
 -2       939      2561      2565       946      1168      2692      2696      1175      2564      2567
 -2      2568       950      1170      2693      2697      1177      2695      2698      2699      1179
 -1       471    4    0    1
 -2       946      2565      2569       953      1175      2696      2700      1182      2568      2571
 -2      2572       957      1177      2697      2701      1184      2699      2702      2703      1186
 -1       472    4    0    1
 -2       953      2569      2573       960      1182      2700      2704      1189      2572      2575
 -2      2576       964      1184      2701      2705      1191      2703      2706      2707      1193
 -1       473    4    0    1
 -2       960      2573      2577       967      1189      2704      2708      1196      2576      2579
 -2      2580       971      1191      2705      2709      1198      2707      2710      2711      1200
 -1       474    4    0    1
 -2       967      2577      2581       974      1196      2708      2712      1203      2580      2583
 -2      2584       978      1198      2709      2713      1205      2711      2714      2715      1207
 -1       475    4    0    1
 -2       974      2581      2585       981      1203      2712      2716      1210      2584      2587
 -2      2588       985      1205      2713      2717      1212      2715      2718      2719      1214
 -1       476    4    0    1
 -2       981      2585      2589       988      1210      2716      2720      1217      2588      2591
 -2      2592       992      1212      2717      2721      1219      2719      2722      2723      1221
 -1       477    4    0    1
 -2       988      2589      2593       995      1217      2720      2724      1224      2592      2595
 -2      2596       999      1219      2721      2725      1226      2723      2726      2727      1228
 -1       478    4    0    1
 -2       995      2593      2597      1002      1224      2724      2728      1231      2596      2599
 -2      2600      1006      1226      2725      2729      1233      2727      2730      2731      1235
 -1       479    4    0    1
 -2      1002      2597      2601      1009      1231      2728      2732      1238      2600      2603
 -2      2604      1013      1233      2729      2733      1240      2731      2734      2735      1242
 -1       480    4    0    1
 -2      1009      2601      2605      1016      1238      2732      2736      1245      2604      2607
 -2      2608      1020      1240      2733      2737      1247      2735      2738      2739      1249
 -1       481    4    0    1
 -2      1016      2605      2609      1023      1245      2736      2740      1252      2608      2611
 -2      2612      1027      1247      2737      2741      1254      2739      2742      2743      1256
 -1       482    4    0    1
 -2      1023      2609      2613      1030      1252      2740      2744      1259      2612      2615
 -2      2616      1034      1254      2741      2745      1261      2743      2746      2747      1263
 -1       483    4    0    1
 -2      1030      2613      2617      1037      1259      2744      2748      1266      2616      2619
 -2      2620      1041      1261      2745      2749      1268      2747      2750      2751      1270
 -1       484    4    0    1
 -2      1037      2617      2621      1044      1266      2748      2752      1273      2620      2623
 -2      2624      1048      1268      2749      2753      1275      2751      2754      2755      1277
 -1       485    4    0    1
 -2      1044      2621      2625      1051      1273      2752      2756      1280      2624      2627
 -2      2628      1055      1275      2753      2757      1282      2755      2758      2759      1284
 -1       486    4    0    1
 -2      1051      2625      2629      1058      1280      2756      2760      1287      2628      2631
 -2      2632      1062      1282      2757      2761      1289      2759      2762      2763      1291
 -1       487    4    0    1
 -2      1058      2629      2633      1065      1287      2760      2764      1294      2632      2635
 -2      2636      1069      1289      2761      2765      1296      2763      2766      2767      1298
 -1       488    4    0    1
 -2      1065      2633      2637      1072      1294      2764      2768      1301      2636      2639
 -2      2640      1076      1296      2765      2769      1303      2767      2770      2771      1305
 -1       489    4    0    1
 -2      1072      2637      2641      1079      1301      2768      2772      1308      2640      2643
 -2      2644      1083      1303      2769      2773      1310      2771      2774      2775      1312
 -1       490    4    0    1
 -2      1079      2641      2645      1086      1308      2772      2776      1315      2644      2647
 -2      2648      1090      1310      2773      2777      1317      2775      2778      2779      1319
 -1       491    4    0    1
 -2      1086      2645      2649      1093      1315      2776      2780      1322      2648      2651
 -2      2652      1097      1317      2777      2781      1324      2779      2782      2783      1326
 -1       492    4    0    1
 -2      1093      2649      2653      1100      1322      2780      2784      1329      2652      2655
 -2      2656      1104      1324      2781      2785      1331      2783      2786      2787      1333
 -1       493    4    0    1
 -2      1100      2653      2657      1107      1329      2784      2788      1336      2656      2659
 -2      2660      1111      1331      2785      2789      1338      2787      2790      2791      1340
 -1       494    4    0    1
 -2      1107      2657      2661      1114      1336      2788      2792      1343      2660      2663
 -2      2664      1118      1338      2789      2793      1345      2791      2794      2795      1347
 -1       495    4    0    1
 -2      1114      2661      2665      1121      1343      2792      2796      1350      2664      2667
 -2      2668      1125      1345      2793      2797      1352      2795      2798      2799      1354
 -1       496    4    0    1
 -2      1121      2665      2669      1128      1350      2796      2800      1357      2668      2671
 -2      2672      1132      1352      2797      2801      1359      2799      2802      2803      1361
 -1       497    4    0    1
 -2      1136      2673      2674      1137      1365      2804      2805      1366      2677      2678
 -2      2679      1144      1369      2806      2807      1370      2808      2809      2810      1373
 -1       498    4    0    1
 -2      1137      2674      2680      1147      1366      2805      2811      1376      2679      2682
 -2      2683      1151      1370      2807      2812      1378      2810      2813      2814      1380
 -1       499    4    0    1
 -2      1147      2680      2684      1154      1376      2811      2815      1383      2683      2686
 -2      2687      1158      1378      2812      2816      1385      2814      2817      2818      1387
 -1       500    4    0    1
 -2      1154      2684      2688      1161      1383      2815      2819      1390      2687      2690
 -2      2691      1165      1385      2816      2820      1392      2818      2821      2822      1394
 -1       501    4    0    1
 -2      1161      2688      2692      1168      1390      2819      2823      1397      2691      2694
 -2      2695      1172      1392      2820      2824      1399      2822      2825      2826      1401
 -1       502    4    0    1
 -2      1168      2692      2696      1175      1397      2823      2827      1404      2695      2698
 -2      2699      1179      1399      2824      2828      1406      2826      2829      2830      1408
 -1       503    4    0    1
 -2      1175      2696      2700      1182      1404      2827      2831      1411      2699      2702
 -2      2703      1186      1406      2828      2832      1413      2830      2833      2834      1415
 -1       504    4    0    1
 -2      1182      2700      2704      1189      1411      2831      2835      1418      2703      2706
 -2      2707      1193      1413      2832      2836      1420      2834      2837      2838      1422
 -1       505    4    0    1
 -2      1189      2704      2708      1196      1418      2835      2839      1425      2707      2710
 -2      2711      1200      1420      2836      2840      1427      2838      2841      2842      1429
 -1       506    4    0    1
 -2      1196      2708      2712      1203      1425      2839      2843      1432      2711      2714
 -2      2715      1207      1427      2840      2844      1434      2842      2845      2846      1436
 -1       507    4    0    1
 -2      1203      2712      2716      1210      1432      2843      2847      1439      2715      2718
 -2      2719      1214      1434      2844      2848      1441      2846      2849      2850      1443
 -1       508    4    0    1
 -2      1210      2716      2720      1217      1439      2847      2851      1446      2719      2722
 -2      2723      1221      1441      2848      2852      1448      2850      2853      2854      1450
 -1       509    4    0    1
 -2      1217      2720      2724      1224      1446      2851      2855      1453      2723      2726
 -2      2727      1228      1448      2852      2856      1455      2854      2857      2858      1457
 -1       510    4    0    1
 -2      1224      2724      2728      1231      1453      2855      2859      1460      2727      2730
 -2      2731      1235      1455      2856      2860      1462      2858      2861      2862      1464
 -1       511    4    0    1
 -2      1231      2728      2732      1238      1460      2859      2863      1467      2731      2734
 -2      2735      1242      1462      2860      2864      1469      2862      2865      2866      1471
 -1       512    4    0    1
 -2      1238      2732      2736      1245      1467      2863      2867      1474      2735      2738
 -2      2739      1249      1469      2864      2868      1476      2866      2869      2870      1478
 -1       513    4    0    1
 -2      1245      2736      2740      1252      1474      2867      2871      1481      2739      2742
 -2      2743      1256      1476      2868      2872      1483      2870      2873      2874      1485
 -1       514    4    0    1
 -2      1252      2740      2744      1259      1481      2871      2875      1488      2743      2746
 -2      2747      1263      1483      2872      2876      1490      2874      2877      2878      1492
 -1       515    4    0    1
 -2      1259      2744      2748      1266      1488      2875      2879      1495      2747      2750
 -2      2751      1270      1490      2876      2880      1497      2878      2881      2882      1499
 -1       516    4    0    1
 -2      1266      2748      2752      1273      1495      2879      2883      1502      2751      2754
 -2      2755      1277      1497      2880      2884      1504      2882      2885      2886      1506
 -1       517    4    0    1
 -2      1273      2752      2756      1280      1502      2883      2887      1509      2755      2758
 -2      2759      1284      1504      2884      2888      1511      2886      2889      2890      1513
 -1       518    4    0    1
 -2      1280      2756      2760      1287      1509      2887      2891      1516      2759      2762
 -2      2763      1291      1511      2888      2892      1518      2890      2893      2894      1520
 -1       519    4    0    1
 -2      1287      2760      2764      1294      1516      2891      2895      1523      2763      2766
 -2      2767      1298      1518      2892      2896      1525      2894      2897      2898      1527
 -1       520    4    0    1
 -2      1294      2764      2768      1301      1523      2895      2899      1530      2767      2770
 -2      2771      1305      1525      2896      2900      1532      2898      2901      2902      1534
 -1       521    4    0    1
 -2      1301      2768      2772      1308      1530      2899      2903      1537      2771      2774
 -2      2775      1312      1532      2900      2904      1539      2902      2905      2906      1541
 -1       522    4    0    1
 -2      1308      2772      2776      1315      1537      2903      2907      1544      2775      2778
 -2      2779      1319      1539      2904      2908      1546      2906      2909      2910      1548
 -1       523    4    0    1
 -2      1315      2776      2780      1322      1544      2907      2911      1551      2779      2782
 -2      2783      1326      1546      2908      2912      1553      2910      2913      2914      1555
 -1       524    4    0    1
 -2      1322      2780      2784      1329      1551      2911      2915      1558      2783      2786
 -2      2787      1333      1553      2912      2916      1560      2914      2917      2918      1562
 -1       525    4    0    1
 -2      1329      2784      2788      1336      1558      2915      2919      1565      2787      2790
 -2      2791      1340      1560      2916      2920      1567      2918      2921      2922      1569
 -1       526    4    0    1
 -2      1336      2788      2792      1343      1565      2919      2923      1572      2791      2794
 -2      2795      1347      1567      2920      2924      1574      2922      2925      2926      1576
 -1       527    4    0    1
 -2      1343      2792      2796      1350      1572      2923      2927      1579      2795      2798
 -2      2799      1354      1574      2924      2928      1581      2926      2929      2930      1583
 -1       528    4    0    1
 -2      1350      2796      2800      1357      1579      2927      2931      1586      2799      2802
 -2      2803      1361      1581      2928      2932      1588      2930      2933      2934      1590
 -1       529    4    0    1
 -2      1365      2804      2805      1366      1594      2935      2936      1595      2808      2809
 -2      2810      1373      1598      2937      2938      1599      2939      2940      2941      1602
 -1       530    4    0    1
 -2      1366      2805      2811      1376      1595      2936      2942      1605      2810      2813
 -2      2814      1380      1599      2938      2943      1607      2941      2944      2945      1609
 -1       531    4    0    1
 -2      1376      2811      2815      1383      1605      2942      2946      1612      2814      2817
 -2      2818      1387      1607      2943      2947      1614      2945      2948      2949      1616
 -1       532    4    0    1
 -2      1383      2815      2819      1390      1612      2946      2950      1619      2818      2821
 -2      2822      1394      1614      2947      2951      1621      2949      2952      2953      1623
 -1       533    4    0    1
 -2      1390      2819      2823      1397      1619      2950      2954      1626      2822      2825
 -2      2826      1401      1621      2951      2955      1628      2953      2956      2957      1630
 -1       534    4    0    1
 -2      1397      2823      2827      1404      1626      2954      2958      1633      2826      2829
 -2      2830      1408      1628      2955      2959      1635      2957      2960      2961      1637
 -1       535    4    0    1
 -2      1404      2827      2831      1411      1633      2958      2962      1640      2830      2833
 -2      2834      1415      1635      2959      2963      1642      2961      2964      2965      1644
 -1       536    4    0    1
 -2      1411      2831      2835      1418      1640      2962      2966      1647      2834      2837
 -2      2838      1422      1642      2963      2967      1649      2965      2968      2969      1651
 -1       537    4    0    1
 -2      1418      2835      2839      1425      1647      2966      2970      1654      2838      2841
 -2      2842      1429      1649      2967      2971      1656      2969      2972      2973      1658
 -1       538    4    0    1
 -2      1425      2839      2843      1432      1654      2970      2974      1661      2842      2845
 -2      2846      1436      1656      2971      2975      1663      2973      2976      2977      1665
 -1       539    4    0    1
 -2      1432      2843      2847      1439      1661      2974      2978      1668      2846      2849
 -2      2850      1443      1663      2975      2979      1670      2977      2980      2981      1672
 -1       540    4    0    1
 -2      1439      2847      2851      1446      1668      2978      2982      1675      2850      2853
 -2      2854      1450      1670      2979      2983      1677      2981      2984      2985      1679
 -1       541    4    0    1
 -2      1446      2851      2855      1453      1675      2982      2986      1682      2854      2857
 -2      2858      1457      1677      2983      2987      1684      2985      2988      2989      1686
 -1       542    4    0    1
 -2      1453      2855      2859      1460      1682      2986      2990      1689      2858      2861
 -2      2862      1464      1684      2987      2991      1691      2989      2992      2993      1693
 -1       543    4    0    1
 -2      1460      2859      2863      1467      1689      2990      2994      1696      2862      2865
 -2      2866      1471      1691      2991      2995      1698      2993      2996      2997      1700
 -1       544    4    0    1
 -2      1467      2863      2867      1474      1696      2994      2998      1703      2866      2869
 -2      2870      1478      1698      2995      2999      1705      2997      3000      3001      1707
 -1       545    4    0    1
 -2      1474      2867      2871      1481      1703      2998      3002      1710      2870      2873
 -2      2874      1485      1705      2999      3003      1712      3001      3004      3005      1714
 -1       546    4    0    1
 -2      1481      2871      2875      1488      1710      3002      3006      1717      2874      2877
 -2      2878      1492      1712      3003      3007      1719      3005      3008      3009      1721
 -1       547    4    0    1
 -2      1488      2875      2879      1495      1717      3006      3010      1724      2878      2881
 -2      2882      1499      1719      3007      3011      1726      3009      3012      3013      1728
 -1       548    4    0    1
 -2      1495      2879      2883      1502      1724      3010      3014      1731      2882      2885
 -2      2886      1506      1726      3011      3015      1733      3013      3016      3017      1735
 -1       549    4    0    1
 -2      1502      2883      2887      1509      1731      3014      3018      1738      2886      2889
 -2      2890      1513      1733      3015      3019      1740      3017      3020      3021      1742
 -1       550    4    0    1
 -2      1509      2887      2891      1516      1738      3018      3022      1745      2890      2893
 -2      2894      1520      1740      3019      3023      1747      3021      3024      3025      1749
 -1       551    4    0    1
 -2      1516      2891      2895      1523      1745      3022      3026      1752      2894      2897
 -2      2898      1527      1747      3023      3027      1754      3025      3028      3029      1756
 -1       552    4    0    1
 -2      1523      2895      2899      1530      1752      3026      3030      1759      2898      2901
 -2      2902      1534      1754      3027      3031      1761      3029      3032      3033      1763
 -1       553    4    0    1
 -2      1530      2899      2903      1537      1759      3030      3034      1766      2902      2905
 -2      2906      1541      1761      3031      3035      1768      3033      3036      3037      1770
 -1       554    4    0    1
 -2      1537      2903      2907      1544      1766      3034      3038      1773      2906      2909
 -2      2910      1548      1768      3035      3039      1775      3037      3040      3041      1777
 -1       555    4    0    1
 -2      1544      2907      2911      1551      1773      3038      3042      1780      2910      2913
 -2      2914      1555      1775      3039      3043      1782      3041      3044      3045      1784
 -1       556    4    0    1
 -2      1551      2911      2915      1558      1780      3042      3046      1787      2914      2917
 -2      2918      1562      1782      3043      3047      1789      3045      3048      3049      1791
 -1       557    4    0    1
 -2      1558      2915      2919      1565      1787      3046      3050      1794      2918      2921
 -2      2922      1569      1789      3047      3051      1796      3049      3052      3053      1798
 -1       558    4    0    1
 -2      1565      2919      2923      1572      1794      3050      3054      1801      2922      2925
 -2      2926      1576      1796      3051      3055      1803      3053      3056      3057      1805
 -1       559    4    0    1
 -2      1572      2923      2927      1579      1801      3054      3058      1808      2926      2929
 -2      2930      1583      1803      3055      3059      1810      3057      3060      3061      1812
 -1       560    4    0    1
 -2      1579      2927      2931      1586      1808      3058      3062      1815      2930      2933
 -2      2934      1590      1810      3059      3063      1817      3061      3064      3065      1819
 -1       561    4    0    1
 -2      1594      2935      2936      1595      1823      3066      3067      1824      2939      2940
 -2      2941      1602      1827      3068      3069      1828      3070      3071      3072      1831
 -1       562    4    0    1
 -2      1595      2936      2942      1605      1824      3067      3073      1834      2941      2944
 -2      2945      1609      1828      3069      3074      1836      3072      3075      3076      1838
 -1       563    4    0    1
 -2      1605      2942      2946      1612      1834      3073      3077      1841      2945      2948
 -2      2949      1616      1836      3074      3078      1843      3076      3079      3080      1845
 -1       564    4    0    1
 -2      1612      2946      2950      1619      1841      3077      3081      1848      2949      2952
 -2      2953      1623      1843      3078      3082      1850      3080      3083      3084      1852
 -1       565    4    0    1
 -2      1619      2950      2954      1626      1848      3081      3085      1855      2953      2956
 -2      2957      1630      1850      3082      3086      1857      3084      3087      3088      1859
 -1       566    4    0    1
 -2      1626      2954      2958      1633      1855      3085      3089      1862      2957      2960
 -2      2961      1637      1857      3086      3090      1864      3088      3091      3092      1866
 -1       567    4    0    1
 -2      1633      2958      2962      1640      1862      3089      3093      1869      2961      2964
 -2      2965      1644      1864      3090      3094      1871      3092      3095      3096      1873
 -1       568    4    0    1
 -2      1640      2962      2966      1647      1869      3093      3097      1876      2965      2968
 -2      2969      1651      1871      3094      3098      1878      3096      3099      3100      1880
 -1       569    4    0    1
 -2      1647      2966      2970      1654      1876      3097      3101      1883      2969      2972
 -2      2973      1658      1878      3098      3102      1885      3100      3103      3104      1887
 -1       570    4    0    1
 -2      1654      2970      2974      1661      1883      3101      3105      1890      2973      2976
 -2      2977      1665      1885      3102      3106      1892      3104      3107      3108      1894
 -1       571    4    0    1
 -2      1661      2974      2978      1668      1890      3105      3109      1897      2977      2980
 -2      2981      1672      1892      3106      3110      1899      3108      3111      3112      1901
 -1       572    4    0    1
 -2      1668      2978      2982      1675      1897      3109      3113      1904      2981      2984
 -2      2985      1679      1899      3110      3114      1906      3112      3115      3116      1908
 -1       573    4    0    1
 -2      1675      2982      2986      1682      1904      3113      3117      1911      2985      2988
 -2      2989      1686      1906      3114      3118      1913      3116      3119      3120      1915
 -1       574    4    0    1
 -2      1682      2986      2990      1689      1911      3117      3121      1918      2989      2992
 -2      2993      1693      1913      3118      3122      1920      3120      3123      3124      1922
 -1       575    4    0    1
 -2      1689      2990      2994      1696      1918      3121      3125      1925      2993      2996
 -2      2997      1700      1920      3122      3126      1927      3124      3127      3128      1929
 -1       576    4    0    1
 -2      1696      2994      2998      1703      1925      3125      3129      1932      2997      3000
 -2      3001      1707      1927      3126      3130      1934      3128      3131      3132      1936
 -1       577    4    0    1
 -2      1703      2998      3002      1710      1932      3129      3133      1939      3001      3004
 -2      3005      1714      1934      3130      3134      1941      3132      3135      3136      1943
 -1       578    4    0    1
 -2      1710      3002      3006      1717      1939      3133      3137      1946      3005      3008
 -2      3009      1721      1941      3134      3138      1948      3136      3139      3140      1950
 -1       579    4    0    1
 -2      1717      3006      3010      1724      1946      3137      3141      1953      3009      3012
 -2      3013      1728      1948      3138      3142      1955      3140      3143      3144      1957
 -1       580    4    0    1
 -2      1724      3010      3014      1731      1953      3141      3145      1960      3013      3016
 -2      3017      1735      1955      3142      3146      1962      3144      3147      3148      1964
 -1       581    4    0    1
 -2      1731      3014      3018      1738      1960      3145      3149      1967      3017      3020
 -2      3021      1742      1962      3146      3150      1969      3148      3151      3152      1971
 -1       582    4    0    1
 -2      1738      3018      3022      1745      1967      3149      3153      1974      3021      3024
 -2      3025      1749      1969      3150      3154      1976      3152      3155      3156      1978
 -1       583    4    0    1
 -2      1745      3022      3026      1752      1974      3153      3157      1981      3025      3028
 -2      3029      1756      1976      3154      3158      1983      3156      3159      3160      1985
 -1       584    4    0    1
 -2      1752      3026      3030      1759      1981      3157      3161      1988      3029      3032
 -2      3033      1763      1983      3158      3162      1990      3160      3163      3164      1992
 -1       585    4    0    1
 -2      1759      3030      3034      1766      1988      3161      3165      1995      3033      3036
 -2      3037      1770      1990      3162      3166      1997      3164      3167      3168      1999
 -1       586    4    0    1
 -2      1766      3034      3038      1773      1995      3165      3169      2002      3037      3040
 -2      3041      1777      1997      3166      3170      2004      3168      3171      3172      2006
 -1       587    4    0    1
 -2      1773      3038      3042      1780      2002      3169      3173      2009      3041      3044
 -2      3045      1784      2004      3170      3174      2011      3172      3175      3176      2013
 -1       588    4    0    1
 -2      1780      3042      3046      1787      2009      3173      3177      2016      3045      3048
 -2      3049      1791      2011      3174      3178      2018      3176      3179      3180      2020
 -1       589    4    0    1
 -2      1787      3046      3050      1794      2016      3177      3181      2023      3049      3052
 -2      3053      1798      2018      3178      3182      2025      3180      3183      3184      2027
 -1       590    4    0    1
 -2      1794      3050      3054      1801      2023      3181      3185      2030      3053      3056
 -2      3057      1805      2025      3182      3186      2032      3184      3187      3188      2034
 -1       591    4    0    1
 -2      1801      3054      3058      1808      2030      3185      3189      2037      3057      3060
 -2      3061      1812      2032      3186      3190      2039      3188      3191      3192      2041
 -1       592    4    0    1
 -2      1808      3058      3062      1815      2037      3189      3193      2044      3061      3064
 -2      3065      1819      2039      3190      3194      2046      3192      3195      3196      2048
 -1       593    4    0    1
 -2      2051      3197      3198      2052      2053      3199      3200      2054      3201      3202
 -2      3203      2056      2058      3204      3205      2059      3206      3207      3208      2061
 -1       594    4    0    1
 -2      2052      3198      3209      2063      2054      3200      3210      2064      3203      3211
 -2      3212      2065      2059      3205      3213      2067      3208      3214      3215      2068
 -1       595    4    0    1
 -2      2063      3209      3216      2070      2064      3210      3217      2071      3212      3218
 -2      3219      2072      2067      3213      3220      2074      3215      3221      3222      2075
 -1       596    4    0    1
 -2      2070      3216      3223      2077      2071      3217      3224      2078      3219      3225
 -2      3226      2079      2074      3220      3227      2081      3222      3228      3229      2082
 -1       597    4    0    1
 -2      2077      3223      3230      2084      2078      3224      3231      2085      3226      3232
 -2      3233      2086      2081      3227      3234      2088      3229      3235      3236      2089
 -1       598    4    0    1
 -2      2084      3230      3237      2091      2085      3231      3238      2092      3233      3239
 -2      3240      2093      2088      3234      3241      2095      3236      3242      3243      2096
 -1       599    4    0    1
 -2      2091      3237      3244      2098      2092      3238      3245      2099      3240      3246
 -2      3247      2100      2095      3241      3248      2102      3243      3249      3250      2103
 -1       600    4    0    1
 -2      2098      3244      3251      2105      2099      3245      3252      2106      3247      3253
 -2      3254      2107      2102      3248      3255      2109      3250      3256      3257      2110
 -1       601    4    0    1
 -2      2105      3251      3258      2112      2106      3252      3259      2113      3254      3260
 -2      3261      2114      2109      3255      3262      2116      3257      3263      3264      2117
 -1       602    4    0    1
 -2      2112      3258      3265      2119      2113      3259      3266      2120      3261      3267
 -2      3268      2121      2116      3262      3269      2123      3264      3270      3271      2124
 -1       603    4    0    1
 -2      2119      3265      3272      2126      2120      3266      3273      2127      3268      3274
 -2      3275      2128      2123      3269      3276      2130      3271      3277      3278      2131
 -1       604    4    0    1
 -2      2126      3272      3279      2133      2127      3273      3280      2134      3275      3281
 -2      3282      2135      2130      3276      3283      2137      3278      3284      3285      2138
 -1       605    4    0    1
 -2      2133      3279      3286      2140      2134      3280      3287      2141      3282      3288
 -2      3289      2142      2137      3283      3290      2144      3285      3291      3292      2145
 -1       606    4    0    1
 -2      2140      3286      3293      2147      2141      3287      3294      2148      3289      3295
 -2      3296      2149      2144      3290      3297      2151      3292      3298      3299      2152
 -1       607    4    0    1
 -2      2147      3293      3300      2154      2148      3294      3301      2155      3296      3302
 -2      3303      2156      2151      3297      3304      2158      3299      3305      3306      2159
 -1       608    4    0    1
 -2      2154      3300      3307      2161      2155      3301      3308      2162      3303      3309
 -2      3310      2163      2158      3304      3311      2165      3306      3312      3313      2166
 -1       609    4    0    1
 -2      2161      3307      3314      2168      2162      3308      3315      2169      3310      3316
 -2      3317      2170      2165      3311      3318      2172      3313      3319      3320      2173
 -1       610    4    0    1
 -2      2168      3314      3321      2175      2169      3315      3322      2176      3317      3323
 -2      3324      2177      2172      3318      3325      2179      3320      3326      3327      2180
 -1       611    4    0    1
 -2      2175      3321      3328      2182      2176      3322      3329      2183      3324      3330
 -2      3331      2184      2179      3325      3332      2186      3327      3333      3334      2187
 -1       612    4    0    1
 -2      2182      3328      3335      2189      2183      3329      3336      2190      3331      3337
 -2      3338      2191      2186      3332      3339      2193      3334      3340      3341      2194
 -1       613    4    0    1
 -2      2189      3335      3342      2196      2190      3336      3343      2197      3338      3344
 -2      3345      2198      2193      3339      3346      2200      3341      3347      3348      2201
 -1       614    4    0    1
 -2      2196      3342      3349      2203      2197      3343      3350      2204      3345      3351
 -2      3352      2205      2200      3346      3353      2207      3348      3354      3355      2208
 -1       615    4    0    1
 -2      2203      3349      3356      2210      2204      3350      3357      2211      3352      3358
 -2      3359      2212      2207      3353      3360      2214      3355      3361      3362      2215
 -1       616    4    0    1
 -2      2210      3356      3363      2217      2211      3357      3364      2218      3359      3365
 -2      3366      2219      2214      3360      3367      2221      3362      3368      3369      2222
 -1       617    4    0    1
 -2      2217      3363      3370      2224      2218      3364      3371      2225      3366      3372
 -2      3373      2226      2221      3367      3374      2228      3369      3375      3376      2229
 -1       618    4    0    1
 -2      2224      3370      3377      2231      2225      3371      3378      2232      3373      3379
 -2      3380      2233      2228      3374      3381      2235      3376      3382      3383      2236
 -1       619    4    0    1
 -2      2231      3377      3384      2238      2232      3378      3385      2239      3380      3386
 -2      3387      2240      2235      3381      3388      2242      3383      3389      3390      2243
 -1       620    4    0    1
 -2      2238      3384      3391      2245      2239      3385      3392      2246      3387      3393
 -2      3394      2247      2242      3388      3395      2249      3390      3396      3397      2250
 -1       621    4    0    1
 -2      2245      3391      3398      2252      2246      3392      3399      2253      3394      3400
 -2      3401      2254      2249      3395      3402      2256      3397      3403      3404      2257
 -1       622    4    0    1
 -2      2252      3398      3405      2259      2253      3399      3406      2260      3401      3407
 -2      3408      2261      2256      3402      3409      2263      3404      3410      3411      2264
 -1       623    4    0    1
 -2      2259      3405      3412      2266      2260      3406      3413      2267      3408      3414
 -2      3415      2268      2263      3409      3416      2270      3411      3417      3418      2271
 -1       624    4    0    1
 -2      2266      3412      3419      2273      2267      3413      3420      2274      3415      3421
 -2      3422      2275      2270      3416      3423      2277      3418      3424      3425      2278
 -1       625    4    0    1
 -2      2053      3199      3200      2054      2280      3426      3427      2281      3206      3207
 -2      3208      2061      2282      3428      3429      2283      3430      3431      3432      2285
 -1       626    4    0    1
 -2      2054      3200      3210      2064      2281      3427      3433      2287      3208      3214
 -2      3215      2068      2283      3429      3434      2288      3432      3435      3436      2289
 -1       627    4    0    1
 -2      2064      3210      3217      2071      2287      3433      3437      2291      3215      3221
 -2      3222      2075      2288      3434      3438      2292      3436      3439      3440      2293
 -1       628    4    0    1
 -2      2071      3217      3224      2078      2291      3437      3441      2295      3222      3228
 -2      3229      2082      2292      3438      3442      2296      3440      3443      3444      2297
 -1       629    4    0    1
 -2      2078      3224      3231      2085      2295      3441      3445      2299      3229      3235
 -2      3236      2089      2296      3442      3446      2300      3444      3447      3448      2301
 -1       630    4    0    1
 -2      2085      3231      3238      2092      2299      3445      3449      2303      3236      3242
 -2      3243      2096      2300      3446      3450      2304      3448      3451      3452      2305
 -1       631    4    0    1
 -2      2092      3238      3245      2099      2303      3449      3453      2307      3243      3249
 -2      3250      2103      2304      3450      3454      2308      3452      3455      3456      2309
 -1       632    4    0    1
 -2      2099      3245      3252      2106      2307      3453      3457      2311      3250      3256
 -2      3257      2110      2308      3454      3458      2312      3456      3459      3460      2313
 -1       633    4    0    1
 -2      2106      3252      3259      2113      2311      3457      3461      2315      3257      3263
 -2      3264      2117      2312      3458      3462      2316      3460      3463      3464      2317
 -1       634    4    0    1
 -2      2113      3259      3266      2120      2315      3461      3465      2319      3264      3270
 -2      3271      2124      2316      3462      3466      2320      3464      3467      3468      2321
 -1       635    4    0    1
 -2      2120      3266      3273      2127      2319      3465      3469      2323      3271      3277
 -2      3278      2131      2320      3466      3470      2324      3468      3471      3472      2325
 -1       636    4    0    1
 -2      2127      3273      3280      2134      2323      3469      3473      2327      3278      3284
 -2      3285      2138      2324      3470      3474      2328      3472      3475      3476      2329
 -1       637    4    0    1
 -2      2134      3280      3287      2141      2327      3473      3477      2331      3285      3291
 -2      3292      2145      2328      3474      3478      2332      3476      3479      3480      2333
 -1       638    4    0    1
 -2      2141      3287      3294      2148      2331      3477      3481      2335      3292      3298
 -2      3299      2152      2332      3478      3482      2336      3480      3483      3484      2337
 -1       639    4    0    1
 -2      2148      3294      3301      2155      2335      3481      3485      2339      3299      3305
 -2      3306      2159      2336      3482      3486      2340      3484      3487      3488      2341
 -1       640    4    0    1
 -2      2155      3301      3308      2162      2339      3485      3489      2343      3306      3312
 -2      3313      2166      2340      3486      3490      2344      3488      3491      3492      2345
 -1       641    4    0    1
 -2      2162      3308      3315      2169      2343      3489      3493      2347      3313      3319
 -2      3320      2173      2344      3490      3494      2348      3492      3495      3496      2349
 -1       642    4    0    1
 -2      2169      3315      3322      2176      2347      3493      3497      2351      3320      3326
 -2      3327      2180      2348      3494      3498      2352      3496      3499      3500      2353
 -1       643    4    0    1
 -2      2176      3322      3329      2183      2351      3497      3501      2355      3327      3333
 -2      3334      2187      2352      3498      3502      2356      3500      3503      3504      2357
 -1       644    4    0    1
 -2      2183      3329      3336      2190      2355      3501      3505      2359      3334      3340
 -2      3341      2194      2356      3502      3506      2360      3504      3507      3508      2361
 -1       645    4    0    1
 -2      2190      3336      3343      2197      2359      3505      3509      2363      3341      3347
 -2      3348      2201      2360      3506      3510      2364      3508      3511      3512      2365
 -1       646    4    0    1
 -2      2197      3343      3350      2204      2363      3509      3513      2367      3348      3354
 -2      3355      2208      2364      3510      3514      2368      3512      3515      3516      2369
 -1       647    4    0    1
 -2      2204      3350      3357      2211      2367      3513      3517      2371      3355      3361
 -2      3362      2215      2368      3514      3518      2372      3516      3519      3520      2373
 -1       648    4    0    1
 -2      2211      3357      3364      2218      2371      3517      3521      2375      3362      3368
 -2      3369      2222      2372      3518      3522      2376      3520      3523      3524      2377
 -1       649    4    0    1
 -2      2218      3364      3371      2225      2375      3521      3525      2379      3369      3375
 -2      3376      2229      2376      3522      3526      2380      3524      3527      3528      2381
 -1       650    4    0    1
 -2      2225      3371      3378      2232      2379      3525      3529      2383      3376      3382
 -2      3383      2236      2380      3526      3530      2384      3528      3531      3532      2385
 -1       651    4    0    1
 -2      2232      3378      3385      2239      2383      3529      3533      2387      3383      3389
 -2      3390      2243      2384      3530      3534      2388      3532      3535      3536      2389
 -1       652    4    0    1
 -2      2239      3385      3392      2246      2387      3533      3537      2391      3390      3396
 -2      3397      2250      2388      3534      3538      2392      3536      3539      3540      2393
 -1       653    4    0    1
 -2      2246      3392      3399      2253      2391      3537      3541      2395      3397      3403
 -2      3404      2257      2392      3538      3542      2396      3540      3543      3544      2397
 -1       654    4    0    1
 -2      2253      3399      3406      2260      2395      3541      3545      2399      3404      3410
 -2      3411      2264      2396      3542      3546      2400      3544      3547      3548      2401
 -1       655    4    0    1
 -2      2260      3406      3413      2267      2399      3545      3549      2403      3411      3417
 -2      3418      2271      2400      3546      3550      2404      3548      3551      3552      2405
 -1       656    4    0    1
 -2      2267      3413      3420      2274      2403      3549      3553      2407      3418      3424
 -2      3425      2278      2404      3550      3554      2408      3552      3555      3556      2409
 -1       657    4    0    1
 -2      2280      3426      3427      2281      2411      3557      3558      2412      3430      3431
 -2      3432      2285      2413      3559      3560      2414      3561      3562      3563      2416
 -1       658    4    0    1
 -2      2281      3427      3433      2287      2412      3558      3564      2418      3432      3435
 -2      3436      2289      2414      3560      3565      2419      3563      3566      3567      2420
 -1       659    4    0    1
 -2      2287      3433      3437      2291      2418      3564      3568      2422      3436      3439
 -2      3440      2293      2419      3565      3569      2423      3567      3570      3571      2424
 -1       660    4    0    1
 -2      2291      3437      3441      2295      2422      3568      3572      2426      3440      3443
 -2      3444      2297      2423      3569      3573      2427      3571      3574      3575      2428
 -1       661    4    0    1
 -2      2295      3441      3445      2299      2426      3572      3576      2430      3444      3447
 -2      3448      2301      2427      3573      3577      2431      3575      3578      3579      2432
 -1       662    4    0    1
 -2      2299      3445      3449      2303      2430      3576      3580      2434      3448      3451
 -2      3452      2305      2431      3577      3581      2435      3579      3582      3583      2436
 -1       663    4    0    1
 -2      2303      3449      3453      2307      2434      3580      3584      2438      3452      3455
 -2      3456      2309      2435      3581      3585      2439      3583      3586      3587      2440
 -1       664    4    0    1
 -2      2307      3453      3457      2311      2438      3584      3588      2442      3456      3459
 -2      3460      2313      2439      3585      3589      2443      3587      3590      3591      2444
 -1       665    4    0    1
 -2      2311      3457      3461      2315      2442      3588      3592      2446      3460      3463
 -2      3464      2317      2443      3589      3593      2447      3591      3594      3595      2448
 -1       666    4    0    1
 -2      2315      3461      3465      2319      2446      3592      3596      2450      3464      3467
 -2      3468      2321      2447      3593      3597      2451      3595      3598      3599      2452
 -1       667    4    0    1
 -2      2319      3465      3469      2323      2450      3596      3600      2454      3468      3471
 -2      3472      2325      2451      3597      3601      2455      3599      3602      3603      2456
 -1       668    4    0    1
 -2      2323      3469      3473      2327      2454      3600      3604      2458      3472      3475
 -2      3476      2329      2455      3601      3605      2459      3603      3606      3607      2460
 -1       669    4    0    1
 -2      2327      3473      3477      2331      2458      3604      3608      2462      3476      3479
 -2      3480      2333      2459      3605      3609      2463      3607      3610      3611      2464
 -1       670    4    0    1
 -2      2331      3477      3481      2335      2462      3608      3612      2466      3480      3483
 -2      3484      2337      2463      3609      3613      2467      3611      3614      3615      2468
 -1       671    4    0    1
 -2      2335      3481      3485      2339      2466      3612      3616      2470      3484      3487
 -2      3488      2341      2467      3613      3617      2471      3615      3618      3619      2472
 -1       672    4    0    1
 -2      2339      3485      3489      2343      2470      3616      3620      2474      3488      3491
 -2      3492      2345      2471      3617      3621      2475      3619      3622      3623      2476
 -1       673    4    0    1
 -2      2343      3489      3493      2347      2474      3620      3624      2478      3492      3495
 -2      3496      2349      2475      3621      3625      2479      3623      3626      3627      2480
 -1       674    4    0    1
 -2      2347      3493      3497      2351      2478      3624      3628      2482      3496      3499
 -2      3500      2353      2479      3625      3629      2483      3627      3630      3631      2484
 -1       675    4    0    1
 -2      2351      3497      3501      2355      2482      3628      3632      2486      3500      3503
 -2      3504      2357      2483      3629      3633      2487      3631      3634      3635      2488
 -1       676    4    0    1
 -2      2355      3501      3505      2359      2486      3632      3636      2490      3504      3507
 -2      3508      2361      2487      3633      3637      2491      3635      3638      3639      2492
 -1       677    4    0    1
 -2      2359      3505      3509      2363      2490      3636      3640      2494      3508      3511
 -2      3512      2365      2491      3637      3641      2495      3639      3642      3643      2496
 -1       678    4    0    1
 -2      2363      3509      3513      2367      2494      3640      3644      2498      3512      3515
 -2      3516      2369      2495      3641      3645      2499      3643      3646      3647      2500
 -1       679    4    0    1
 -2      2367      3513      3517      2371      2498      3644      3648      2502      3516      3519
 -2      3520      2373      2499      3645      3649      2503      3647      3650      3651      2504
 -1       680    4    0    1
 -2      2371      3517      3521      2375      2502      3648      3652      2506      3520      3523
 -2      3524      2377      2503      3649      3653      2507      3651      3654      3655      2508
 -1       681    4    0    1
 -2      2375      3521      3525      2379      2506      3652      3656      2510      3524      3527
 -2      3528      2381      2507      3653      3657      2511      3655      3658      3659      2512
 -1       682    4    0    1
 -2      2379      3525      3529      2383      2510      3656      3660      2514      3528      3531
 -2      3532      2385      2511      3657      3661      2515      3659      3662      3663      2516
 -1       683    4    0    1
 -2      2383      3529      3533      2387      2514      3660      3664      2518      3532      3535
 -2      3536      2389      2515      3661      3665      2519      3663      3666      3667      2520
 -1       684    4    0    1
 -2      2387      3533      3537      2391      2518      3664      3668      2522      3536      3539
 -2      3540      2393      2519      3665      3669      2523      3667      3670      3671      2524
 -1       685    4    0    1
 -2      2391      3537      3541      2395      2522      3668      3672      2526      3540      3543
 -2      3544      2397      2523      3669      3673      2527      3671      3674      3675      2528
 -1       686    4    0    1
 -2      2395      3541      3545      2399      2526      3672      3676      2530      3544      3547
 -2      3548      2401      2527      3673      3677      2531      3675      3678      3679      2532
 -1       687    4    0    1
 -2      2399      3545      3549      2403      2530      3676      3680      2534      3548      3551
 -2      3552      2405      2531      3677      3681      2535      3679      3682      3683      2536
 -1       688    4    0    1
 -2      2403      3549      3553      2407      2534      3680      3684      2538      3552      3555
 -2      3556      2409      2535      3681      3685      2539      3683      3686      3687      2540
 -1       689    4    0    1
 -2      2411      3557      3558      2412      2542      3688      3689      2543      3561      3562
 -2      3563      2416      2544      3690      3691      2545      3692      3693      3694      2547
 -1       690    4    0    1
 -2      2412      3558      3564      2418      2543      3689      3695      2549      3563      3566
 -2      3567      2420      2545      3691      3696      2550      3694      3697      3698      2551
 -1       691    4    0    1
 -2      2418      3564      3568      2422      2549      3695      3699      2553      3567      3570
 -2      3571      2424      2550      3696      3700      2554      3698      3701      3702      2555
 -1       692    4    0    1
 -2      2422      3568      3572      2426      2553      3699      3703      2557      3571      3574
 -2      3575      2428      2554      3700      3704      2558      3702      3705      3706      2559
 -1       693    4    0    1
 -2      2426      3572      3576      2430      2557      3703      3707      2561      3575      3578
 -2      3579      2432      2558      3704      3708      2562      3706      3709      3710      2563
 -1       694    4    0    1
 -2      2430      3576      3580      2434      2561      3707      3711      2565      3579      3582
 -2      3583      2436      2562      3708      3712      2566      3710      3713      3714      2567
 -1       695    4    0    1
 -2      2434      3580      3584      2438      2565      3711      3715      2569      3583      3586
 -2      3587      2440      2566      3712      3716      2570      3714      3717      3718      2571
 -1       696    4    0    1
 -2      2438      3584      3588      2442      2569      3715      3719      2573      3587      3590
 -2      3591      2444      2570      3716      3720      2574      3718      3721      3722      2575
 -1       697    4    0    1
 -2      2442      3588      3592      2446      2573      3719      3723      2577      3591      3594
 -2      3595      2448      2574      3720      3724      2578      3722      3725      3726      2579
 -1       698    4    0    1
 -2      2446      3592      3596      2450      2577      3723      3727      2581      3595      3598
 -2      3599      2452      2578      3724      3728      2582      3726      3729      3730      2583
 -1       699    4    0    1
 -2      2450      3596      3600      2454      2581      3727      3731      2585      3599      3602
 -2      3603      2456      2582      3728      3732      2586      3730      3733      3734      2587
 -1       700    4    0    1
 -2      2454      3600      3604      2458      2585      3731      3735      2589      3603      3606
 -2      3607      2460      2586      3732      3736      2590      3734      3737      3738      2591
 -1       701    4    0    1
 -2      2458      3604      3608      2462      2589      3735      3739      2593      3607      3610
 -2      3611      2464      2590      3736      3740      2594      3738      3741      3742      2595
 -1       702    4    0    1
 -2      2462      3608      3612      2466      2593      3739      3743      2597      3611      3614
 -2      3615      2468      2594      3740      3744      2598      3742      3745      3746      2599
 -1       703    4    0    1
 -2      2466      3612      3616      2470      2597      3743      3747      2601      3615      3618
 -2      3619      2472      2598      3744      3748      2602      3746      3749      3750      2603
 -1       704    4    0    1
 -2      2470      3616      3620      2474      2601      3747      3751      2605      3619      3622
 -2      3623      2476      2602      3748      3752      2606      3750      3753      3754      2607
 -1       705    4    0    1
 -2      2474      3620      3624      2478      2605      3751      3755      2609      3623      3626
 -2      3627      2480      2606      3752      3756      2610      3754      3757      3758      2611
 -1       706    4    0    1
 -2      2478      3624      3628      2482      2609      3755      3759      2613      3627      3630
 -2      3631      2484      2610      3756      3760      2614      3758      3761      3762      2615
 -1       707    4    0    1
 -2      2482      3628      3632      2486      2613      3759      3763      2617      3631      3634
 -2      3635      2488      2614      3760      3764      2618      3762      3765      3766      2619
 -1       708    4    0    1
 -2      2486      3632      3636      2490      2617      3763      3767      2621      3635      3638
 -2      3639      2492      2618      3764      3768      2622      3766      3769      3770      2623
 -1       709    4    0    1
 -2      2490      3636      3640      2494      2621      3767      3771      2625      3639      3642
 -2      3643      2496      2622      3768      3772      2626      3770      3773      3774      2627
 -1       710    4    0    1
 -2      2494      3640      3644      2498      2625      3771      3775      2629      3643      3646
 -2      3647      2500      2626      3772      3776      2630      3774      3777      3778      2631
 -1       711    4    0    1
 -2      2498      3644      3648      2502      2629      3775      3779      2633      3647      3650
 -2      3651      2504      2630      3776      3780      2634      3778      3781      3782      2635
 -1       712    4    0    1
 -2      2502      3648      3652      2506      2633      3779      3783      2637      3651      3654
 -2      3655      2508      2634      3780      3784      2638      3782      3785      3786      2639
 -1       713    4    0    1
 -2      2506      3652      3656      2510      2637      3783      3787      2641      3655      3658
 -2      3659      2512      2638      3784      3788      2642      3786      3789      3790      2643
 -1       714    4    0    1
 -2      2510      3656      3660      2514      2641      3787      3791      2645      3659      3662
 -2      3663      2516      2642      3788      3792      2646      3790      3793      3794      2647
 -1       715    4    0    1
 -2      2514      3660      3664      2518      2645      3791      3795      2649      3663      3666
 -2      3667      2520      2646      3792      3796      2650      3794      3797      3798      2651
 -1       716    4    0    1
 -2      2518      3664      3668      2522      2649      3795      3799      2653      3667      3670
 -2      3671      2524      2650      3796      3800      2654      3798      3801      3802      2655
 -1       717    4    0    1
 -2      2522      3668      3672      2526      2653      3799      3803      2657      3671      3674
 -2      3675      2528      2654      3800      3804      2658      3802      3805      3806      2659
 -1       718    4    0    1
 -2      2526      3672      3676      2530      2657      3803      3807      2661      3675      3678
 -2      3679      2532      2658      3804      3808      2662      3806      3809      3810      2663
 -1       719    4    0    1
 -2      2530      3676      3680      2534      2661      3807      3811      2665      3679      3682
 -2      3683      2536      2662      3808      3812      2666      3810      3813      3814      2667
 -1       720    4    0    1
 -2      2534      3680      3684      2538      2665      3811      3815      2669      3683      3686
 -2      3687      2540      2666      3812      3816      2670      3814      3817      3818      2671
 -1       721    4    0    1
 -2      2542      3688      3689      2543      2673      3819      3820      2674      3692      3693
 -2      3694      2547      2675      3821      3822      2676      3823      3824      3825      2678
 -1       722    4    0    1
 -2      2543      3689      3695      2549      2674      3820      3826      2680      3694      3697
 -2      3698      2551      2676      3822      3827      2681      3825      3828      3829      2682
 -1       723    4    0    1
 -2      2549      3695      3699      2553      2680      3826      3830      2684      3698      3701
 -2      3702      2555      2681      3827      3831      2685      3829      3832      3833      2686
 -1       724    4    0    1
 -2      2553      3699      3703      2557      2684      3830      3834      2688      3702      3705
 -2      3706      2559      2685      3831      3835      2689      3833      3836      3837      2690
 -1       725    4    0    1
 -2      2557      3703      3707      2561      2688      3834      3838      2692      3706      3709
 -2      3710      2563      2689      3835      3839      2693      3837      3840      3841      2694
 -1       726    4    0    1
 -2      2561      3707      3711      2565      2692      3838      3842      2696      3710      3713
 -2      3714      2567      2693      3839      3843      2697      3841      3844      3845      2698
 -1       727    4    0    1
 -2      2565      3711      3715      2569      2696      3842      3846      2700      3714      3717
 -2      3718      2571      2697      3843      3847      2701      3845      3848      3849      2702
 -1       728    4    0    1
 -2      2569      3715      3719      2573      2700      3846      3850      2704      3718      3721
 -2      3722      2575      2701      3847      3851      2705      3849      3852      3853      2706
 -1       729    4    0    1
 -2      2573      3719      3723      2577      2704      3850      3854      2708      3722      3725
 -2      3726      2579      2705      3851      3855      2709      3853      3856      3857      2710
 -1       730    4    0    1
 -2      2577      3723      3727      2581      2708      3854      3858      2712      3726      3729
 -2      3730      2583      2709      3855      3859      2713      3857      3860      3861      2714
 -1       731    4    0    1
 -2      2581      3727      3731      2585      2712      3858      3862      2716      3730      3733
 -2      3734      2587      2713      3859      3863      2717      3861      3864      3865      2718
 -1       732    4    0    1
 -2      2585      3731      3735      2589      2716      3862      3866      2720      3734      3737
 -2      3738      2591      2717      3863      3867      2721      3865      3868      3869      2722
 -1       733    4    0    1
 -2      2589      3735      3739      2593      2720      3866      3870      2724      3738      3741
 -2      3742      2595      2721      3867      3871      2725      3869      3872      3873      2726
 -1       734    4    0    1
 -2      2593      3739      3743      2597      2724      3870      3874      2728      3742      3745
 -2      3746      2599      2725      3871      3875      2729      3873      3876      3877      2730
 -1       735    4    0    1
 -2      2597      3743      3747      2601      2728      3874      3878      2732      3746      3749
 -2      3750      2603      2729      3875      3879      2733      3877      3880      3881      2734
 -1       736    4    0    1
 -2      2601      3747      3751      2605      2732      3878      3882      2736      3750      3753
 -2      3754      2607      2733      3879      3883      2737      3881      3884      3885      2738
 -1       737    4    0    1
 -2      2605      3751      3755      2609      2736      3882      3886      2740      3754      3757
 -2      3758      2611      2737      3883      3887      2741      3885      3888      3889      2742
 -1       738    4    0    1
 -2      2609      3755      3759      2613      2740      3886      3890      2744      3758      3761
 -2      3762      2615      2741      3887      3891      2745      3889      3892      3893      2746
 -1       739    4    0    1
 -2      2613      3759      3763      2617      2744      3890      3894      2748      3762      3765
 -2      3766      2619      2745      3891      3895      2749      3893      3896      3897      2750
 -1       740    4    0    1
 -2      2617      3763      3767      2621      2748      3894      3898      2752      3766      3769
 -2      3770      2623      2749      3895      3899      2753      3897      3900      3901      2754
 -1       741    4    0    1
 -2      2621      3767      3771      2625      2752      3898      3902      2756      3770      3773
 -2      3774      2627      2753      3899      3903      2757      3901      3904      3905      2758
 -1       742    4    0    1
 -2      2625      3771      3775      2629      2756      3902      3906      2760      3774      3777
 -2      3778      2631      2757      3903      3907      2761      3905      3908      3909      2762
 -1       743    4    0    1
 -2      2629      3775      3779      2633      2760      3906      3910      2764      3778      3781
 -2      3782      2635      2761      3907      3911      2765      3909      3912      3913      2766
 -1       744    4    0    1
 -2      2633      3779      3783      2637      2764      3910      3914      2768      3782      3785
 -2      3786      2639      2765      3911      3915      2769      3913      3916      3917      2770
 -1       745    4    0    1
 -2      2637      3783      3787      2641      2768      3914      3918      2772      3786      3789
 -2      3790      2643      2769      3915      3919      2773      3917      3920      3921      2774
 -1       746    4    0    1
 -2      2641      3787      3791      2645      2772      3918      3922      2776      3790      3793
 -2      3794      2647      2773      3919      3923      2777      3921      3924      3925      2778
 -1       747    4    0    1
 -2      2645      3791      3795      2649      2776      3922      3926      2780      3794      3797
 -2      3798      2651      2777      3923      3927      2781      3925      3928      3929      2782
 -1       748    4    0    1
 -2      2649      3795      3799      2653      2780      3926      3930      2784      3798      3801
 -2      3802      2655      2781      3927      3931      2785      3929      3932      3933      2786
 -1       749    4    0    1
 -2      2653      3799      3803      2657      2784      3930      3934      2788      3802      3805
 -2      3806      2659      2785      3931      3935      2789      3933      3936      3937      2790
 -1       750    4    0    1
 -2      2657      3803      3807      2661      2788      3934      3938      2792      3806      3809
 -2      3810      2663      2789      3935      3939      2793      3937      3940      3941      2794
 -1       751    4    0    1
 -2      2661      3807      3811      2665      2792      3938      3942      2796      3810      3813
 -2      3814      2667      2793      3939      3943      2797      3941      3944      3945      2798
 -1       752    4    0    1
 -2      2665      3811      3815      2669      2796      3942      3946      2800      3814      3817
 -2      3818      2671      2797      3943      3947      2801      3945      3948      3949      2802
 -1       753    4    0    1
 -2      2673      3819      3820      2674      2804      3950      3951      2805      3823      3824
 -2      3825      2678      2806      3952      3953      2807      3954      3955      3956      2809
 -1       754    4    0    1
 -2      2674      3820      3826      2680      2805      3951      3957      2811      3825      3828
 -2      3829      2682      2807      3953      3958      2812      3956      3959      3960      2813
 -1       755    4    0    1
 -2      2680      3826      3830      2684      2811      3957      3961      2815      3829      3832
 -2      3833      2686      2812      3958      3962      2816      3960      3963      3964      2817
 -1       756    4    0    1
 -2      2684      3830      3834      2688      2815      3961      3965      2819      3833      3836
 -2      3837      2690      2816      3962      3966      2820      3964      3967      3968      2821
 -1       757    4    0    1
 -2      2688      3834      3838      2692      2819      3965      3969      2823      3837      3840
 -2      3841      2694      2820      3966      3970      2824      3968      3971      3972      2825
 -1       758    4    0    1
 -2      2692      3838      3842      2696      2823      3969      3973      2827      3841      3844
 -2      3845      2698      2824      3970      3974      2828      3972      3975      3976      2829
 -1       759    4    0    1
 -2      2696      3842      3846      2700      2827      3973      3977      2831      3845      3848
 -2      3849      2702      2828      3974      3978      2832      3976      3979      3980      2833
 -1       760    4    0    1
 -2      2700      3846      3850      2704      2831      3977      3981      2835      3849      3852
 -2      3853      2706      2832      3978      3982      2836      3980      3983      3984      2837
 -1       761    4    0    1
 -2      2704      3850      3854      2708      2835      3981      3985      2839      3853      3856
 -2      3857      2710      2836      3982      3986      2840      3984      3987      3988      2841
 -1       762    4    0    1
 -2      2708      3854      3858      2712      2839      3985      3989      2843      3857      3860
 -2      3861      2714      2840      3986      3990      2844      3988      3991      3992      2845
 -1       763    4    0    1
 -2      2712      3858      3862      2716      2843      3989      3993      2847      3861      3864
 -2      3865      2718      2844      3990      3994      2848      3992      3995      3996      2849
 -1       764    4    0    1
 -2      2716      3862      3866      2720      2847      3993      3997      2851      3865      3868
 -2      3869      2722      2848      3994      3998      2852      3996      3999      4000      2853
 -1       765    4    0    1
 -2      2720      3866      3870      2724      2851      3997      4001      2855      3869      3872
 -2      3873      2726      2852      3998      4002      2856      4000      4003      4004      2857
 -1       766    4    0    1
 -2      2724      3870      3874      2728      2855      4001      4005      2859      3873      3876
 -2      3877      2730      2856      4002      4006      2860      4004      4007      4008      2861
 -1       767    4    0    1
 -2      2728      3874      3878      2732      2859      4005      4009      2863      3877      3880
 -2      3881      2734      2860      4006      4010      2864      4008      4011      4012      2865
 -1       768    4    0    1
 -2      2732      3878      3882      2736      2863      4009      4013      2867      3881      3884
 -2      3885      2738      2864      4010      4014      2868      4012      4015      4016      2869
 -1       769    4    0    1
 -2      2736      3882      3886      2740      2867      4013      4017      2871      3885      3888
 -2      3889      2742      2868      4014      4018      2872      4016      4019      4020      2873
 -1       770    4    0    1
 -2      2740      3886      3890      2744      2871      4017      4021      2875      3889      3892
 -2      3893      2746      2872      4018      4022      2876      4020      4023      4024      2877
 -1       771    4    0    1
 -2      2744      3890      3894      2748      2875      4021      4025      2879      3893      3896
 -2      3897      2750      2876      4022      4026      2880      4024      4027      4028      2881
 -1       772    4    0    1
 -2      2748      3894      3898      2752      2879      4025      4029      2883      3897      3900
 -2      3901      2754      2880      4026      4030      2884      4028      4031      4032      2885
 -1       773    4    0    1
 -2      2752      3898      3902      2756      2883      4029      4033      2887      3901      3904
 -2      3905      2758      2884      4030      4034      2888      4032      4035      4036      2889
 -1       774    4    0    1
 -2      2756      3902      3906      2760      2887      4033      4037      2891      3905      3908
 -2      3909      2762      2888      4034      4038      2892      4036      4039      4040      2893
 -1       775    4    0    1
 -2      2760      3906      3910      2764      2891      4037      4041      2895      3909      3912
 -2      3913      2766      2892      4038      4042      2896      4040      4043      4044      2897
 -1       776    4    0    1
 -2      2764      3910      3914      2768      2895      4041      4045      2899      3913      3916
 -2      3917      2770      2896      4042      4046      2900      4044      4047      4048      2901
 -1       777    4    0    1
 -2      2768      3914      3918      2772      2899      4045      4049      2903      3917      3920
 -2      3921      2774      2900      4046      4050      2904      4048      4051      4052      2905
 -1       778    4    0    1
 -2      2772      3918      3922      2776      2903      4049      4053      2907      3921      3924
 -2      3925      2778      2904      4050      4054      2908      4052      4055      4056      2909
 -1       779    4    0    1
 -2      2776      3922      3926      2780      2907      4053      4057      2911      3925      3928
 -2      3929      2782      2908      4054      4058      2912      4056      4059      4060      2913
 -1       780    4    0    1
 -2      2780      3926      3930      2784      2911      4057      4061      2915      3929      3932
 -2      3933      2786      2912      4058      4062      2916      4060      4063      4064      2917
 -1       781    4    0    1
 -2      2784      3930      3934      2788      2915      4061      4065      2919      3933      3936
 -2      3937      2790      2916      4062      4066      2920      4064      4067      4068      2921
 -1       782    4    0    1
 -2      2788      3934      3938      2792      2919      4065      4069      2923      3937      3940
 -2      3941      2794      2920      4066      4070      2924      4068      4071      4072      2925
 -1       783    4    0    1
 -2      2792      3938      3942      2796      2923      4069      4073      2927      3941      3944
 -2      3945      2798      2924      4070      4074      2928      4072      4075      4076      2929
 -1       784    4    0    1
 -2      2796      3942      3946      2800      2927      4073      4077      2931      3945      3948
 -2      3949      2802      2928      4074      4078      2932      4076      4079      4080      2933
 -1       785    4    0    1
 -2      2804      3950      3951      2805      2935      4081      4082      2936      3954      3955
 -2      3956      2809      2937      4083      4084      2938      4085      4086      4087      2940
 -1       786    4    0    1
 -2      2805      3951      3957      2811      2936      4082      4088      2942      3956      3959
 -2      3960      2813      2938      4084      4089      2943      4087      4090      4091      2944
 -1       787    4    0    1
 -2      2811      3957      3961      2815      2942      4088      4092      2946      3960      3963
 -2      3964      2817      2943      4089      4093      2947      4091      4094      4095      2948
 -1       788    4    0    1
 -2      2815      3961      3965      2819      2946      4092      4096      2950      3964      3967
 -2      3968      2821      2947      4093      4097      2951      4095      4098      4099      2952
 -1       789    4    0    1
 -2      2819      3965      3969      2823      2950      4096      4100      2954      3968      3971
 -2      3972      2825      2951      4097      4101      2955      4099      4102      4103      2956
 -1       790    4    0    1
 -2      2823      3969      3973      2827      2954      4100      4104      2958      3972      3975
 -2      3976      2829      2955      4101      4105      2959      4103      4106      4107      2960
 -1       791    4    0    1
 -2      2827      3973      3977      2831      2958      4104      4108      2962      3976      3979
 -2      3980      2833      2959      4105      4109      2963      4107      4110      4111      2964
 -1       792    4    0    1
 -2      2831      3977      3981      2835      2962      4108      4112      2966      3980      3983
 -2      3984      2837      2963      4109      4113      2967      4111      4114      4115      2968
 -1       793    4    0    1
 -2      2835      3981      3985      2839      2966      4112      4116      2970      3984      3987
 -2      3988      2841      2967      4113      4117      2971      4115      4118      4119      2972
 -1       794    4    0    1
 -2      2839      3985      3989      2843      2970      4116      4120      2974      3988      3991
 -2      3992      2845      2971      4117      4121      2975      4119      4122      4123      2976
 -1       795    4    0    1
 -2      2843      3989      3993      2847      2974      4120      4124      2978      3992      3995
 -2      3996      2849      2975      4121      4125      2979      4123      4126      4127      2980
 -1       796    4    0    1
 -2      2847      3993      3997      2851      2978      4124      4128      2982      3996      3999
 -2      4000      2853      2979      4125      4129      2983      4127      4130      4131      2984
 -1       797    4    0    1
 -2      2851      3997      4001      2855      2982      4128      4132      2986      4000      4003
 -2      4004      2857      2983      4129      4133      2987      4131      4134      4135      2988
 -1       798    4    0    1
 -2      2855      4001      4005      2859      2986      4132      4136      2990      4004      4007
 -2      4008      2861      2987      4133      4137      2991      4135      4138      4139      2992
 -1       799    4    0    1
 -2      2859      4005      4009      2863      2990      4136      4140      2994      4008      4011
 -2      4012      2865      2991      4137      4141      2995      4139      4142      4143      2996
 -1       800    4    0    1
 -2      2863      4009      4013      2867      2994      4140      4144      2998      4012      4015
 -2      4016      2869      2995      4141      4145      2999      4143      4146      4147      3000
 -1       801    4    0    1
 -2      2867      4013      4017      2871      2998      4144      4148      3002      4016      4019
 -2      4020      2873      2999      4145      4149      3003      4147      4150      4151      3004
 -1       802    4    0    1
 -2      2871      4017      4021      2875      3002      4148      4152      3006      4020      4023
 -2      4024      2877      3003      4149      4153      3007      4151      4154      4155      3008
 -1       803    4    0    1
 -2      2875      4021      4025      2879      3006      4152      4156      3010      4024      4027
 -2      4028      2881      3007      4153      4157      3011      4155      4158      4159      3012
 -1       804    4    0    1
 -2      2879      4025      4029      2883      3010      4156      4160      3014      4028      4031
 -2      4032      2885      3011      4157      4161      3015      4159      4162      4163      3016
 -1       805    4    0    1
 -2      2883      4029      4033      2887      3014      4160      4164      3018      4032      4035
 -2      4036      2889      3015      4161      4165      3019      4163      4166      4167      3020
 -1       806    4    0    1
 -2      2887      4033      4037      2891      3018      4164      4168      3022      4036      4039
 -2      4040      2893      3019      4165      4169      3023      4167      4170      4171      3024
 -1       807    4    0    1
 -2      2891      4037      4041      2895      3022      4168      4172      3026      4040      4043
 -2      4044      2897      3023      4169      4173      3027      4171      4174      4175      3028
 -1       808    4    0    1
 -2      2895      4041      4045      2899      3026      4172      4176      3030      4044      4047
 -2      4048      2901      3027      4173      4177      3031      4175      4178      4179      3032
 -1       809    4    0    1
 -2      2899      4045      4049      2903      3030      4176      4180      3034      4048      4051
 -2      4052      2905      3031      4177      4181      3035      4179      4182      4183      3036
 -1       810    4    0    1
 -2      2903      4049      4053      2907      3034      4180      4184      3038      4052      4055
 -2      4056      2909      3035      4181      4185      3039      4183      4186      4187      3040
 -1       811    4    0    1
 -2      2907      4053      4057      2911      3038      4184      4188      3042      4056      4059
 -2      4060      2913      3039      4185      4189      3043      4187      4190      4191      3044
 -1       812    4    0    1
 -2      2911      4057      4061      2915      3042      4188      4192      3046      4060      4063
 -2      4064      2917      3043      4189      4193      3047      4191      4194      4195      3048
 -1       813    4    0    1
 -2      2915      4061      4065      2919      3046      4192      4196      3050      4064      4067
 -2      4068      2921      3047      4193      4197      3051      4195      4198      4199      3052
 -1       814    4    0    1
 -2      2919      4065      4069      2923      3050      4196      4200      3054      4068      4071
 -2      4072      2925      3051      4197      4201      3055      4199      4202      4203      3056
 -1       815    4    0    1
 -2      2923      4069      4073      2927      3054      4200      4204      3058      4072      4075
 -2      4076      2929      3055      4201      4205      3059      4203      4206      4207      3060
 -1       816    4    0    1
 -2      2927      4073      4077      2931      3058      4204      4208      3062      4076      4079
 -2      4080      2933      3059      4205      4209      3063      4207      4210      4211      3064
 -1       817    4    0    1
 -2      2935      4081      4082      2936      3066      4212      4213      3067      4085      4086
 -2      4087      2940      3068      4214      4215      3069      4216      4217      4218      3071
 -1       818    4    0    1
 -2      2936      4082      4088      2942      3067      4213      4219      3073      4087      4090
 -2      4091      2944      3069      4215      4220      3074      4218      4221      4222      3075
 -1       819    4    0    1
 -2      2942      4088      4092      2946      3073      4219      4223      3077      4091      4094
 -2      4095      2948      3074      4220      4224      3078      4222      4225      4226      3079
 -1       820    4    0    1
 -2      2946      4092      4096      2950      3077      4223      4227      3081      4095      4098
 -2      4099      2952      3078      4224      4228      3082      4226      4229      4230      3083
 -1       821    4    0    1
 -2      2950      4096      4100      2954      3081      4227      4231      3085      4099      4102
 -2      4103      2956      3082      4228      4232      3086      4230      4233      4234      3087
 -1       822    4    0    1
 -2      2954      4100      4104      2958      3085      4231      4235      3089      4103      4106
 -2      4107      2960      3086      4232      4236      3090      4234      4237      4238      3091
 -1       823    4    0    1
 -2      2958      4104      4108      2962      3089      4235      4239      3093      4107      4110
 -2      4111      2964      3090      4236      4240      3094      4238      4241      4242      3095
 -1       824    4    0    1
 -2      2962      4108      4112      2966      3093      4239      4243      3097      4111      4114
 -2      4115      2968      3094      4240      4244      3098      4242      4245      4246      3099
 -1       825    4    0    1
 -2      2966      4112      4116      2970      3097      4243      4247      3101      4115      4118
 -2      4119      2972      3098      4244      4248      3102      4246      4249      4250      3103
 -1       826    4    0    1
 -2      2970      4116      4120      2974      3101      4247      4251      3105      4119      4122
 -2      4123      2976      3102      4248      4252      3106      4250      4253      4254      3107
 -1       827    4    0    1
 -2      2974      4120      4124      2978      3105      4251      4255      3109      4123      4126
 -2      4127      2980      3106      4252      4256      3110      4254      4257      4258      3111
 -1       828    4    0    1
 -2      2978      4124      4128      2982      3109      4255      4259      3113      4127      4130
 -2      4131      2984      3110      4256      4260      3114      4258      4261      4262      3115
 -1       829    4    0    1
 -2      2982      4128      4132      2986      3113      4259      4263      3117      4131      4134
 -2      4135      2988      3114      4260      4264      3118      4262      4265      4266      3119
 -1       830    4    0    1
 -2      2986      4132      4136      2990      3117      4263      4267      3121      4135      4138
 -2      4139      2992      3118      4264      4268      3122      4266      4269      4270      3123
 -1       831    4    0    1
 -2      2990      4136      4140      2994      3121      4267      4271      3125      4139      4142
 -2      4143      2996      3122      4268      4272      3126      4270      4273      4274      3127
 -1       832    4    0    1
 -2      2994      4140      4144      2998      3125      4271      4275      3129      4143      4146
 -2      4147      3000      3126      4272      4276      3130      4274      4277      4278      3131
 -1       833    4    0    1
 -2      2998      4144      4148      3002      3129      4275      4279      3133      4147      4150
 -2      4151      3004      3130      4276      4280      3134      4278      4281      4282      3135
 -1       834    4    0    1
 -2      3002      4148      4152      3006      3133      4279      4283      3137      4151      4154
 -2      4155      3008      3134      4280      4284      3138      4282      4285      4286      3139
 -1       835    4    0    1
 -2      3006      4152      4156      3010      3137      4283      4287      3141      4155      4158
 -2      4159      3012      3138      4284      4288      3142      4286      4289      4290      3143
 -1       836    4    0    1
 -2      3010      4156      4160      3014      3141      4287      4291      3145      4159      4162
 -2      4163      3016      3142      4288      4292      3146      4290      4293      4294      3147
 -1       837    4    0    1
 -2      3014      4160      4164      3018      3145      4291      4295      3149      4163      4166
 -2      4167      3020      3146      4292      4296      3150      4294      4297      4298      3151
 -1       838    4    0    1
 -2      3018      4164      4168      3022      3149      4295      4299      3153      4167      4170
 -2      4171      3024      3150      4296      4300      3154      4298      4301      4302      3155
 -1       839    4    0    1
 -2      3022      4168      4172      3026      3153      4299      4303      3157      4171      4174
 -2      4175      3028      3154      4300      4304      3158      4302      4305      4306      3159
 -1       840    4    0    1
 -2      3026      4172      4176      3030      3157      4303      4307      3161      4175      4178
 -2      4179      3032      3158      4304      4308      3162      4306      4309      4310      3163
 -1       841    4    0    1
 -2      3030      4176      4180      3034      3161      4307      4311      3165      4179      4182
 -2      4183      3036      3162      4308      4312      3166      4310      4313      4314      3167
 -1       842    4    0    1
 -2      3034      4180      4184      3038      3165      4311      4315      3169      4183      4186
 -2      4187      3040      3166      4312      4316      3170      4314      4317      4318      3171
 -1       843    4    0    1
 -2      3038      4184      4188      3042      3169      4315      4319      3173      4187      4190
 -2      4191      3044      3170      4316      4320      3174      4318      4321      4322      3175
 -1       844    4    0    1
 -2      3042      4188      4192      3046      3173      4319      4323      3177      4191      4194
 -2      4195      3048      3174      4320      4324      3178      4322      4325      4326      3179
 -1       845    4    0    1
 -2      3046      4192      4196      3050      3177      4323      4327      3181      4195      4198
 -2      4199      3052      3178      4324      4328      3182      4326      4329      4330      3183
 -1       846    4    0    1
 -2      3050      4196      4200      3054      3181      4327      4331      3185      4199      4202
 -2      4203      3056      3182      4328      4332      3186      4330      4333      4334      3187
 -1       847    4    0    1
 -2      3054      4200      4204      3058      3185      4331      4335      3189      4203      4206
 -2      4207      3060      3186      4332      4336      3190      4334      4337      4338      3191
 -1       848    4    0    1
 -2      3058      4204      4208      3062      3189      4335      4339      3193      4207      4210
 -2      4211      3064      3190      4336      4340      3194      4338      4341      4342      3195
 -1       849    4    0    1
 -2      3197      4343      4344      3198      3199      4345      4346      3200      4347      4348
 -2      4349      3202      3204      4350      4351      3205      4352      4353      4354      3207
 -1       850    4    0    1
 -2      3198      4344      4355      3209      3200      4346      4356      3210      4349      4357
 -2      4358      3211      3205      4351      4359      3213      4354      4360      4361      3214
 -1       851    4    0    1
 -2      3209      4355      4362      3216      3210      4356      4363      3217      4358      4364
 -2      4365      3218      3213      4359      4366      3220      4361      4367      4368      3221
 -1       852    4    0    1
 -2      3216      4362      4369      3223      3217      4363      4370      3224      4365      4371
 -2      4372      3225      3220      4366      4373      3227      4368      4374      4375      3228
 -1       853    4    0    1
 -2      3223      4369      4376      3230      3224      4370      4377      3231      4372      4378
 -2      4379      3232      3227      4373      4380      3234      4375      4381      4382      3235
 -1       854    4    0    1
 -2      3230      4376      4383      3237      3231      4377      4384      3238      4379      4385
 -2      4386      3239      3234      4380      4387      3241      4382      4388      4389      3242
 -1       855    4    0    1
 -2      3237      4383      4390      3244      3238      4384      4391      3245      4386      4392
 -2      4393      3246      3241      4387      4394      3248      4389      4395      4396      3249
 -1       856    4    0    1
 -2      3244      4390      4397      3251      3245      4391      4398      3252      4393      4399
 -2      4400      3253      3248      4394      4401      3255      4396      4402      4403      3256
 -1       857    4    0    1
 -2      3251      4397      4404      3258      3252      4398      4405      3259      4400      4406
 -2      4407      3260      3255      4401      4408      3262      4403      4409      4410      3263
 -1       858    4    0    1
 -2      3258      4404      4411      3265      3259      4405      4412      3266      4407      4413
 -2      4414      3267      3262      4408      4415      3269      4410      4416      4417      3270
 -1       859    4    0    1
 -2      3265      4411      4418      3272      3266      4412      4419      3273      4414      4420
 -2      4421      3274      3269      4415      4422      3276      4417      4423      4424      3277
 -1       860    4    0    1
 -2      3272      4418      4425      3279      3273      4419      4426      3280      4421      4427
 -2      4428      3281      3276      4422      4429      3283      4424      4430      4431      3284
 -1       861    4    0    1
 -2      3279      4425      4432      3286      3280      4426      4433      3287      4428      4434
 -2      4435      3288      3283      4429      4436      3290      4431      4437      4438      3291
 -1       862    4    0    1
 -2      3286      4432      4439      3293      3287      4433      4440      3294      4435      4441
 -2      4442      3295      3290      4436      4443      3297      4438      4444      4445      3298
 -1       863    4    0    1
 -2      3293      4439      4446      3300      3294      4440      4447      3301      4442      4448
 -2      4449      3302      3297      4443      4450      3304      4445      4451      4452      3305
 -1       864    4    0    1
 -2      3300      4446      4453      3307      3301      4447      4454      3308      4449      4455
 -2      4456      3309      3304      4450      4457      3311      4452      4458      4459      3312
 -1       865    4    0    1
 -2      3307      4453      4460      3314      3308      4454      4461      3315      4456      4462
 -2      4463      3316      3311      4457      4464      3318      4459      4465      4466      3319
 -1       866    4    0    1
 -2      3314      4460      4467      3321      3315      4461      4468      3322      4463      4469
 -2      4470      3323      3318      4464      4471      3325      4466      4472      4473      3326
 -1       867    4    0    1
 -2      3321      4467      4474      3328      3322      4468      4475      3329      4470      4476
 -2      4477      3330      3325      4471      4478      3332      4473      4479      4480      3333
 -1       868    4    0    1
 -2      3328      4474      4481      3335      3329      4475      4482      3336      4477      4483
 -2      4484      3337      3332      4478      4485      3339      4480      4486      4487      3340
 -1       869    4    0    1
 -2      3335      4481      4488      3342      3336      4482      4489      3343      4484      4490
 -2      4491      3344      3339      4485      4492      3346      4487      4493      4494      3347
 -1       870    4    0    1
 -2      3342      4488      4495      3349      3343      4489      4496      3350      4491      4497
 -2      4498      3351      3346      4492      4499      3353      4494      4500      4501      3354
 -1       871    4    0    1
 -2      3349      4495      4502      3356      3350      4496      4503      3357      4498      4504
 -2      4505      3358      3353      4499      4506      3360      4501      4507      4508      3361
 -1       872    4    0    1
 -2      3356      4502      4509      3363      3357      4503      4510      3364      4505      4511
 -2      4512      3365      3360      4506      4513      3367      4508      4514      4515      3368
 -1       873    4    0    1
 -2      3363      4509      4516      3370      3364      4510      4517      3371      4512      4518
 -2      4519      3372      3367      4513      4520      3374      4515      4521      4522      3375
 -1       874    4    0    1
 -2      3370      4516      4523      3377      3371      4517      4524      3378      4519      4525
 -2      4526      3379      3374      4520      4527      3381      4522      4528      4529      3382
 -1       875    4    0    1
 -2      3377      4523      4530      3384      3378      4524      4531      3385      4526      4532
 -2      4533      3386      3381      4527      4534      3388      4529      4535      4536      3389
 -1       876    4    0    1
 -2      3384      4530      4537      3391      3385      4531      4538      3392      4533      4539
 -2      4540      3393      3388      4534      4541      3395      4536      4542      4543      3396
 -1       877    4    0    1
 -2      3391      4537      4544      3398      3392      4538      4545      3399      4540      4546
 -2      4547      3400      3395      4541      4548      3402      4543      4549      4550      3403
 -1       878    4    0    1
 -2      3398      4544      4551      3405      3399      4545      4552      3406      4547      4553
 -2      4554      3407      3402      4548      4555      3409      4550      4556      4557      3410
 -1       879    4    0    1
 -2      3405      4551      4558      3412      3406      4552      4559      3413      4554      4560
 -2      4561      3414      3409      4555      4562      3416      4557      4563      4564      3417
 -1       880    4    0    1
 -2      3412      4558      4565      3419      3413      4559      4566      3420      4561      4567
 -2      4568      3421      3416      4562      4569      3423      4564      4570      4571      3424
 -1       881    4    0    1
 -2      3199      4345      4346      3200      3426      4572      4573      3427      4352      4353
 -2      4354      3207      3428      4574      4575      3429      4576      4577      4578      3431
 -1       882    4    0    1
 -2      3200      4346      4356      3210      3427      4573      4579      3433      4354      4360
 -2      4361      3214      3429      4575      4580      3434      4578      4581      4582      3435
 -1       883    4    0    1
 -2      3210      4356      4363      3217      3433      4579      4583      3437      4361      4367
 -2      4368      3221      3434      4580      4584      3438      4582      4585      4586      3439
 -1       884    4    0    1
 -2      3217      4363      4370      3224      3437      4583      4587      3441      4368      4374
 -2      4375      3228      3438      4584      4588      3442      4586      4589      4590      3443
 -1       885    4    0    1
 -2      3224      4370      4377      3231      3441      4587      4591      3445      4375      4381
 -2      4382      3235      3442      4588      4592      3446      4590      4593      4594      3447
 -1       886    4    0    1
 -2      3231      4377      4384      3238      3445      4591      4595      3449      4382      4388
 -2      4389      3242      3446      4592      4596      3450      4594      4597      4598      3451
 -1       887    4    0    1
 -2      3238      4384      4391      3245      3449      4595      4599      3453      4389      4395
 -2      4396      3249      3450      4596      4600      3454      4598      4601      4602      3455
 -1       888    4    0    1
 -2      3245      4391      4398      3252      3453      4599      4603      3457      4396      4402
 -2      4403      3256      3454      4600      4604      3458      4602      4605      4606      3459
 -1       889    4    0    1
 -2      3252      4398      4405      3259      3457      4603      4607      3461      4403      4409
 -2      4410      3263      3458      4604      4608      3462      4606      4609      4610      3463
 -1       890    4    0    1
 -2      3259      4405      4412      3266      3461      4607      4611      3465      4410      4416
 -2      4417      3270      3462      4608      4612      3466      4610      4613      4614      3467
 -1       891    4    0    1
 -2      3266      4412      4419      3273      3465      4611      4615      3469      4417      4423
 -2      4424      3277      3466      4612      4616      3470      4614      4617      4618      3471
 -1       892    4    0    1
 -2      3273      4419      4426      3280      3469      4615      4619      3473      4424      4430
 -2      4431      3284      3470      4616      4620      3474      4618      4621      4622      3475
 -1       893    4    0    1
 -2      3280      4426      4433      3287      3473      4619      4623      3477      4431      4437
 -2      4438      3291      3474      4620      4624      3478      4622      4625      4626      3479
 -1       894    4    0    1
 -2      3287      4433      4440      3294      3477      4623      4627      3481      4438      4444
 -2      4445      3298      3478      4624      4628      3482      4626      4629      4630      3483
 -1       895    4    0    1
 -2      3294      4440      4447      3301      3481      4627      4631      3485      4445      4451
 -2      4452      3305      3482      4628      4632      3486      4630      4633      4634      3487
 -1       896    4    0    1
 -2      3301      4447      4454      3308      3485      4631      4635      3489      4452      4458
 -2      4459      3312      3486      4632      4636      3490      4634      4637      4638      3491
 -1       897    4    0    1
 -2      3308      4454      4461      3315      3489      4635      4639      3493      4459      4465
 -2      4466      3319      3490      4636      4640      3494      4638      4641      4642      3495
 -1       898    4    0    1
 -2      3315      4461      4468      3322      3493      4639      4643      3497      4466      4472
 -2      4473      3326      3494      4640      4644      3498      4642      4645      4646      3499
 -1       899    4    0    1
 -2      3322      4468      4475      3329      3497      4643      4647      3501      4473      4479
 -2      4480      3333      3498      4644      4648      3502      4646      4649      4650      3503
 -1       900    4    0    1
 -2      3329      4475      4482      3336      3501      4647      4651      3505      4480      4486
 -2      4487      3340      3502      4648      4652      3506      4650      4653      4654      3507
 -1       901    4    0    1
 -2      3336      4482      4489      3343      3505      4651      4655      3509      4487      4493
 -2      4494      3347      3506      4652      4656      3510      4654      4657      4658      3511
 -1       902    4    0    1
 -2      3343      4489      4496      3350      3509      4655      4659      3513      4494      4500
 -2      4501      3354      3510      4656      4660      3514      4658      4661      4662      3515
 -1       903    4    0    1
 -2      3350      4496      4503      3357      3513      4659      4663      3517      4501      4507
 -2      4508      3361      3514      4660      4664      3518      4662      4665      4666      3519
 -1       904    4    0    1
 -2      3357      4503      4510      3364      3517      4663      4667      3521      4508      4514
 -2      4515      3368      3518      4664      4668      3522      4666      4669      4670      3523
 -1       905    4    0    1
 -2      3364      4510      4517      3371      3521      4667      4671      3525      4515      4521
 -2      4522      3375      3522      4668      4672      3526      4670      4673      4674      3527
 -1       906    4    0    1
 -2      3371      4517      4524      3378      3525      4671      4675      3529      4522      4528
 -2      4529      3382      3526      4672      4676      3530      4674      4677      4678      3531
 -1       907    4    0    1
 -2      3378      4524      4531      3385      3529      4675      4679      3533      4529      4535
 -2      4536      3389      3530      4676      4680      3534      4678      4681      4682      3535
 -1       908    4    0    1
 -2      3385      4531      4538      3392      3533      4679      4683      3537      4536      4542
 -2      4543      3396      3534      4680      4684      3538      4682      4685      4686      3539
 -1       909    4    0    1
 -2      3392      4538      4545      3399      3537      4683      4687      3541      4543      4549
 -2      4550      3403      3538      4684      4688      3542      4686      4689      4690      3543
 -1       910    4    0    1
 -2      3399      4545      4552      3406      3541      4687      4691      3545      4550      4556
 -2      4557      3410      3542      4688      4692      3546      4690      4693      4694      3547
 -1       911    4    0    1
 -2      3406      4552      4559      3413      3545      4691      4695      3549      4557      4563
 -2      4564      3417      3546      4692      4696      3550      4694      4697      4698      3551
 -1       912    4    0    1
 -2      3413      4559      4566      3420      3549      4695      4699      3553      4564      4570
 -2      4571      3424      3550      4696      4700      3554      4698      4701      4702      3555
 -1       913    4    0    1
 -2      3426      4572      4573      3427      3557      4703      4704      3558      4576      4577
 -2      4578      3431      3559      4705      4706      3560      4707      4708      4709      3562
 -1       914    4    0    1
 -2      3427      4573      4579      3433      3558      4704      4710      3564      4578      4581
 -2      4582      3435      3560      4706      4711      3565      4709      4712      4713      3566
 -1       915    4    0    1
 -2      3433      4579      4583      3437      3564      4710      4714      3568      4582      4585
 -2      4586      3439      3565      4711      4715      3569      4713      4716      4717      3570
 -1       916    4    0    1
 -2      3437      4583      4587      3441      3568      4714      4718      3572      4586      4589
 -2      4590      3443      3569      4715      4719      3573      4717      4720      4721      3574
 -1       917    4    0    1
 -2      3441      4587      4591      3445      3572      4718      4722      3576      4590      4593
 -2      4594      3447      3573      4719      4723      3577      4721      4724      4725      3578
 -1       918    4    0    1
 -2      3445      4591      4595      3449      3576      4722      4726      3580      4594      4597
 -2      4598      3451      3577      4723      4727      3581      4725      4728      4729      3582
 -1       919    4    0    1
 -2      3449      4595      4599      3453      3580      4726      4730      3584      4598      4601
 -2      4602      3455      3581      4727      4731      3585      4729      4732      4733      3586
 -1       920    4    0    1
 -2      3453      4599      4603      3457      3584      4730      4734      3588      4602      4605
 -2      4606      3459      3585      4731      4735      3589      4733      4736      4737      3590
 -1       921    4    0    1
 -2      3457      4603      4607      3461      3588      4734      4738      3592      4606      4609
 -2      4610      3463      3589      4735      4739      3593      4737      4740      4741      3594
 -1       922    4    0    1
 -2      3461      4607      4611      3465      3592      4738      4742      3596      4610      4613
 -2      4614      3467      3593      4739      4743      3597      4741      4744      4745      3598
 -1       923    4    0    1
 -2      3465      4611      4615      3469      3596      4742      4746      3600      4614      4617
 -2      4618      3471      3597      4743      4747      3601      4745      4748      4749      3602
 -1       924    4    0    1
 -2      3469      4615      4619      3473      3600      4746      4750      3604      4618      4621
 -2      4622      3475      3601      4747      4751      3605      4749      4752      4753      3606
 -1       925    4    0    1
 -2      3473      4619      4623      3477      3604      4750      4754      3608      4622      4625
 -2      4626      3479      3605      4751      4755      3609      4753      4756      4757      3610
 -1       926    4    0    1
 -2      3477      4623      4627      3481      3608      4754      4758      3612      4626      4629
 -2      4630      3483      3609      4755      4759      3613      4757      4760      4761      3614
 -1       927    4    0    1
 -2      3481      4627      4631      3485      3612      4758      4762      3616      4630      4633
 -2      4634      3487      3613      4759      4763      3617      4761      4764      4765      3618
 -1       928    4    0    1
 -2      3485      4631      4635      3489      3616      4762      4766      3620      4634      4637
 -2      4638      3491      3617      4763      4767      3621      4765      4768      4769      3622
 -1       929    4    0    1
 -2      3489      4635      4639      3493      3620      4766      4770      3624      4638      4641
 -2      4642      3495      3621      4767      4771      3625      4769      4772      4773      3626
 -1       930    4    0    1
 -2      3493      4639      4643      3497      3624      4770      4774      3628      4642      4645
 -2      4646      3499      3625      4771      4775      3629      4773      4776      4777      3630
 -1       931    4    0    1
 -2      3497      4643      4647      3501      3628      4774      4778      3632      4646      4649
 -2      4650      3503      3629      4775      4779      3633      4777      4780      4781      3634
 -1       932    4    0    1
 -2      3501      4647      4651      3505      3632      4778      4782      3636      4650      4653
 -2      4654      3507      3633      4779      4783      3637      4781      4784      4785      3638
 -1       933    4    0    1
 -2      3505      4651      4655      3509      3636      4782      4786      3640      4654      4657
 -2      4658      3511      3637      4783      4787      3641      4785      4788      4789      3642
 -1       934    4    0    1
 -2      3509      4655      4659      3513      3640      4786      4790      3644      4658      4661
 -2      4662      3515      3641      4787      4791      3645      4789      4792      4793      3646
 -1       935    4    0    1
 -2      3513      4659      4663      3517      3644      4790      4794      3648      4662      4665
 -2      4666      3519      3645      4791      4795      3649      4793      4796      4797      3650
 -1       936    4    0    1
 -2      3517      4663      4667      3521      3648      4794      4798      3652      4666      4669
 -2      4670      3523      3649      4795      4799      3653      4797      4800      4801      3654
 -1       937    4    0    1
 -2      3521      4667      4671      3525      3652      4798      4802      3656      4670      4673
 -2      4674      3527      3653      4799      4803      3657      4801      4804      4805      3658
 -1       938    4    0    1
 -2      3525      4671      4675      3529      3656      4802      4806      3660      4674      4677
 -2      4678      3531      3657      4803      4807      3661      4805      4808      4809      3662
 -1       939    4    0    1
 -2      3529      4675      4679      3533      3660      4806      4810      3664      4678      4681
 -2      4682      3535      3661      4807      4811      3665      4809      4812      4813      3666
 -1       940    4    0    1
 -2      3533      4679      4683      3537      3664      4810      4814      3668      4682      4685
 -2      4686      3539      3665      4811      4815      3669      4813      4816      4817      3670
 -1       941    4    0    1
 -2      3537      4683      4687      3541      3668      4814      4818      3672      4686      4689
 -2      4690      3543      3669      4815      4819      3673      4817      4820      4821      3674
 -1       942    4    0    1
 -2      3541      4687      4691      3545      3672      4818      4822      3676      4690      4693
 -2      4694      3547      3673      4819      4823      3677      4821      4824      4825      3678
 -1       943    4    0    1
 -2      3545      4691      4695      3549      3676      4822      4826      3680      4694      4697
 -2      4698      3551      3677      4823      4827      3681      4825      4828      4829      3682
 -1       944    4    0    1
 -2      3549      4695      4699      3553      3680      4826      4830      3684      4698      4701
 -2      4702      3555      3681      4827      4831      3685      4829      4832      4833      3686
 -1       945    4    0    1
 -2      3557      4703      4704      3558      3688      4834      4835      3689      4707      4708
 -2      4709      3562      3690      4836      4837      3691      4838      4839      4840      3693
 -1       946    4    0    1
 -2      3558      4704      4710      3564      3689      4835      4841      3695      4709      4712
 -2      4713      3566      3691      4837      4842      3696      4840      4843      4844      3697
 -1       947    4    0    1
 -2      3564      4710      4714      3568      3695      4841      4845      3699      4713      4716
 -2      4717      3570      3696      4842      4846      3700      4844      4847      4848      3701
 -1       948    4    0    1
 -2      3568      4714      4718      3572      3699      4845      4849      3703      4717      4720
 -2      4721      3574      3700      4846      4850      3704      4848      4851      4852      3705
 -1       949    4    0    1
 -2      3572      4718      4722      3576      3703      4849      4853      3707      4721      4724
 -2      4725      3578      3704      4850      4854      3708      4852      4855      4856      3709
 -1       950    4    0    1
 -2      3576      4722      4726      3580      3707      4853      4857      3711      4725      4728
 -2      4729      3582      3708      4854      4858      3712      4856      4859      4860      3713
 -1       951    4    0    1
 -2      3580      4726      4730      3584      3711      4857      4861      3715      4729      4732
 -2      4733      3586      3712      4858      4862      3716      4860      4863      4864      3717
 -1       952    4    0    1
 -2      3584      4730      4734      3588      3715      4861      4865      3719      4733      4736
 -2      4737      3590      3716      4862      4866      3720      4864      4867      4868      3721
 -1       953    4    0    1
 -2      3588      4734      4738      3592      3719      4865      4869      3723      4737      4740
 -2      4741      3594      3720      4866      4870      3724      4868      4871      4872      3725
 -1       954    4    0    1
 -2      3592      4738      4742      3596      3723      4869      4873      3727      4741      4744
 -2      4745      3598      3724      4870      4874      3728      4872      4875      4876      3729
 -1       955    4    0    1
 -2      3596      4742      4746      3600      3727      4873      4877      3731      4745      4748
 -2      4749      3602      3728      4874      4878      3732      4876      4879      4880      3733
 -1       956    4    0    1
 -2      3600      4746      4750      3604      3731      4877      4881      3735      4749      4752
 -2      4753      3606      3732      4878      4882      3736      4880      4883      4884      3737
 -1       957    4    0    1
 -2      3604      4750      4754      3608      3735      4881      4885      3739      4753      4756
 -2      4757      3610      3736      4882      4886      3740      4884      4887      4888      3741
 -1       958    4    0    1
 -2      3608      4754      4758      3612      3739      4885      4889      3743      4757      4760
 -2      4761      3614      3740      4886      4890      3744      4888      4891      4892      3745
 -1       959    4    0    1
 -2      3612      4758      4762      3616      3743      4889      4893      3747      4761      4764
 -2      4765      3618      3744      4890      4894      3748      4892      4895      4896      3749
 -1       960    4    0    1
 -2      3616      4762      4766      3620      3747      4893      4897      3751      4765      4768
 -2      4769      3622      3748      4894      4898      3752      4896      4899      4900      3753
 -1       961    4    0    1
 -2      3620      4766      4770      3624      3751      4897      4901      3755      4769      4772
 -2      4773      3626      3752      4898      4902      3756      4900      4903      4904      3757
 -1       962    4    0    1
 -2      3624      4770      4774      3628      3755      4901      4905      3759      4773      4776
 -2      4777      3630      3756      4902      4906      3760      4904      4907      4908      3761
 -1       963    4    0    1
 -2      3628      4774      4778      3632      3759      4905      4909      3763      4777      4780
 -2      4781      3634      3760      4906      4910      3764      4908      4911      4912      3765
 -1       964    4    0    1
 -2      3632      4778      4782      3636      3763      4909      4913      3767      4781      4784
 -2      4785      3638      3764      4910      4914      3768      4912      4915      4916      3769
 -1       965    4    0    1
 -2      3636      4782      4786      3640      3767      4913      4917      3771      4785      4788
 -2      4789      3642      3768      4914      4918      3772      4916      4919      4920      3773
 -1       966    4    0    1
 -2      3640      4786      4790      3644      3771      4917      4921      3775      4789      4792
 -2      4793      3646      3772      4918      4922      3776      4920      4923      4924      3777
 -1       967    4    0    1
 -2      3644      4790      4794      3648      3775      4921      4925      3779      4793      4796
 -2      4797      3650      3776      4922      4926      3780      4924      4927      4928      3781
 -1       968    4    0    1
 -2      3648      4794      4798      3652      3779      4925      4929      3783      4797      4800
 -2      4801      3654      3780      4926      4930      3784      4928      4931      4932      3785
 -1       969    4    0    1
 -2      3652      4798      4802      3656      3783      4929      4933      3787      4801      4804
 -2      4805      3658      3784      4930      4934      3788      4932      4935      4936      3789
 -1       970    4    0    1
 -2      3656      4802      4806      3660      3787      4933      4937      3791      4805      4808
 -2      4809      3662      3788      4934      4938      3792      4936      4939      4940      3793
 -1       971    4    0    1
 -2      3660      4806      4810      3664      3791      4937      4941      3795      4809      4812
 -2      4813      3666      3792      4938      4942      3796      4940      4943      4944      3797
 -1       972    4    0    1
 -2      3664      4810      4814      3668      3795      4941      4945      3799      4813      4816
 -2      4817      3670      3796      4942      4946      3800      4944      4947      4948      3801
 -1       973    4    0    1
 -2      3668      4814      4818      3672      3799      4945      4949      3803      4817      4820
 -2      4821      3674      3800      4946      4950      3804      4948      4951      4952      3805
 -1       974    4    0    1
 -2      3672      4818      4822      3676      3803      4949      4953      3807      4821      4824
 -2      4825      3678      3804      4950      4954      3808      4952      4955      4956      3809
 -1       975    4    0    1
 -2      3676      4822      4826      3680      3807      4953      4957      3811      4825      4828
 -2      4829      3682      3808      4954      4958      3812      4956      4959      4960      3813
 -1       976    4    0    1
 -2      3680      4826      4830      3684      3811      4957      4961      3815      4829      4832
 -2      4833      3686      3812      4958      4962      3816      4960      4963      4964      3817
 -1       977    4    0    1
 -2      3688      4834      4835      3689      3819      4965      4966      3820      4838      4839
 -2      4840      3693      3821      4967      4968      3822      4969      4970      4971      3824
 -1       978    4    0    1
 -2      3689      4835      4841      3695      3820      4966      4972      3826      4840      4843
 -2      4844      3697      3822      4968      4973      3827      4971      4974      4975      3828
 -1       979    4    0    1
 -2      3695      4841      4845      3699      3826      4972      4976      3830      4844      4847
 -2      4848      3701      3827      4973      4977      3831      4975      4978      4979      3832
 -1       980    4    0    1
 -2      3699      4845      4849      3703      3830      4976      4980      3834      4848      4851
 -2      4852      3705      3831      4977      4981      3835      4979      4982      4983      3836
 -1       981    4    0    1
 -2      3703      4849      4853      3707      3834      4980      4984      3838      4852      4855
 -2      4856      3709      3835      4981      4985      3839      4983      4986      4987      3840
 -1       982    4    0    1
 -2      3707      4853      4857      3711      3838      4984      4988      3842      4856      4859
 -2      4860      3713      3839      4985      4989      3843      4987      4990      4991      3844
 -1       983    4    0    1
 -2      3711      4857      4861      3715      3842      4988      4992      3846      4860      4863
 -2      4864      3717      3843      4989      4993      3847      4991      4994      4995      3848
 -1       984    4    0    1
 -2      3715      4861      4865      3719      3846      4992      4996      3850      4864      4867
 -2      4868      3721      3847      4993      4997      3851      4995      4998      4999      3852
 -1       985    4    0    1
 -2      3719      4865      4869      3723      3850      4996      5000      3854      4868      4871
 -2      4872      3725      3851      4997      5001      3855      4999      5002      5003      3856
 -1       986    4    0    1
 -2      3723      4869      4873      3727      3854      5000      5004      3858      4872      4875
 -2      4876      3729      3855      5001      5005      3859      5003      5006      5007      3860
 -1       987    4    0    1
 -2      3727      4873      4877      3731      3858      5004      5008      3862      4876      4879
 -2      4880      3733      3859      5005      5009      3863      5007      5010      5011      3864
 -1       988    4    0    1
 -2      3731      4877      4881      3735      3862      5008      5012      3866      4880      4883
 -2      4884      3737      3863      5009      5013      3867      5011      5014      5015      3868
 -1       989    4    0    1
 -2      3735      4881      4885      3739      3866      5012      5016      3870      4884      4887
 -2      4888      3741      3867      5013      5017      3871      5015      5018      5019      3872
 -1       990    4    0    1
 -2      3739      4885      4889      3743      3870      5016      5020      3874      4888      4891
 -2      4892      3745      3871      5017      5021      3875      5019      5022      5023      3876
 -1       991    4    0    1
 -2      3743      4889      4893      3747      3874      5020      5024      3878      4892      4895
 -2      4896      3749      3875      5021      5025      3879      5023      5026      5027      3880
 -1       992    4    0    1
 -2      3747      4893      4897      3751      3878      5024      5028      3882      4896      4899
 -2      4900      3753      3879      5025      5029      3883      5027      5030      5031      3884
 -1       993    4    0    1
 -2      3751      4897      4901      3755      3882      5028      5032      3886      4900      4903
 -2      4904      3757      3883      5029      5033      3887      5031      5034      5035      3888
 -1       994    4    0    1
 -2      3755      4901      4905      3759      3886      5032      5036      3890      4904      4907
 -2      4908      3761      3887      5033      5037      3891      5035      5038      5039      3892
 -1       995    4    0    1
 -2      3759      4905      4909      3763      3890      5036      5040      3894      4908      4911
 -2      4912      3765      3891      5037      5041      3895      5039      5042      5043      3896
 -1       996    4    0    1
 -2      3763      4909      4913      3767      3894      5040      5044      3898      4912      4915
 -2      4916      3769      3895      5041      5045      3899      5043      5046      5047      3900
 -1       997    4    0    1
 -2      3767      4913      4917      3771      3898      5044      5048      3902      4916      4919
 -2      4920      3773      3899      5045      5049      3903      5047      5050      5051      3904
 -1       998    4    0    1
 -2      3771      4917      4921      3775      3902      5048      5052      3906      4920      4923
 -2      4924      3777      3903      5049      5053      3907      5051      5054      5055      3908
 -1       999    4    0    1
 -2      3775      4921      4925      3779      3906      5052      5056      3910      4924      4927
 -2      4928      3781      3907      5053      5057      3911      5055      5058      5059      3912
 -1      1000    4    0    1
 -2      3779      4925      4929      3783      3910      5056      5060      3914      4928      4931
 -2      4932      3785      3911      5057      5061      3915      5059      5062      5063      3916
 -1      1001    4    0    1
 -2      3783      4929      4933      3787      3914      5060      5064      3918      4932      4935
 -2      4936      3789      3915      5061      5065      3919      5063      5066      5067      3920
 -1      1002    4    0    1
 -2      3787      4933      4937      3791      3918      5064      5068      3922      4936      4939
 -2      4940      3793      3919      5065      5069      3923      5067      5070      5071      3924
 -1      1003    4    0    1
 -2      3791      4937      4941      3795      3922      5068      5072      3926      4940      4943
 -2      4944      3797      3923      5069      5073      3927      5071      5074      5075      3928
 -1      1004    4    0    1
 -2      3795      4941      4945      3799      3926      5072      5076      3930      4944      4947
 -2      4948      3801      3927      5073      5077      3931      5075      5078      5079      3932
 -1      1005    4    0    1
 -2      3799      4945      4949      3803      3930      5076      5080      3934      4948      4951
 -2      4952      3805      3931      5077      5081      3935      5079      5082      5083      3936
 -1      1006    4    0    1
 -2      3803      4949      4953      3807      3934      5080      5084      3938      4952      4955
 -2      4956      3809      3935      5081      5085      3939      5083      5086      5087      3940
 -1      1007    4    0    1
 -2      3807      4953      4957      3811      3938      5084      5088      3942      4956      4959
 -2      4960      3813      3939      5085      5089      3943      5087      5090      5091      3944
 -1      1008    4    0    1
 -2      3811      4957      4961      3815      3942      5088      5092      3946      4960      4963
 -2      4964      3817      3943      5089      5093      3947      5091      5094      5095      3948
 -1      1009    4    0    1
 -2      3819      4965      4966      3820      3950      5096      5097      3951      4969      4970
 -2      4971      3824      3952      5098      5099      3953      5100      5101      5102      3955
 -1      1010    4    0    1
 -2      3820      4966      4972      3826      3951      5097      5103      3957      4971      4974
 -2      4975      3828      3953      5099      5104      3958      5102      5105      5106      3959
 -1      1011    4    0    1
 -2      3826      4972      4976      3830      3957      5103      5107      3961      4975      4978
 -2      4979      3832      3958      5104      5108      3962      5106      5109      5110      3963
 -1      1012    4    0    1
 -2      3830      4976      4980      3834      3961      5107      5111      3965      4979      4982
 -2      4983      3836      3962      5108      5112      3966      5110      5113      5114      3967
 -1      1013    4    0    1
 -2      3834      4980      4984      3838      3965      5111      5115      3969      4983      4986
 -2      4987      3840      3966      5112      5116      3970      5114      5117      5118      3971
 -1      1014    4    0    1
 -2      3838      4984      4988      3842      3969      5115      5119      3973      4987      4990
 -2      4991      3844      3970      5116      5120      3974      5118      5121      5122      3975
 -1      1015    4    0    1
 -2      3842      4988      4992      3846      3973      5119      5123      3977      4991      4994
 -2      4995      3848      3974      5120      5124      3978      5122      5125      5126      3979
 -1      1016    4    0    1
 -2      3846      4992      4996      3850      3977      5123      5127      3981      4995      4998
 -2      4999      3852      3978      5124      5128      3982      5126      5129      5130      3983
 -1      1017    4    0    1
 -2      3850      4996      5000      3854      3981      5127      5131      3985      4999      5002
 -2      5003      3856      3982      5128      5132      3986      5130      5133      5134      3987
 -1      1018    4    0    1
 -2      3854      5000      5004      3858      3985      5131      5135      3989      5003      5006
 -2      5007      3860      3986      5132      5136      3990      5134      5137      5138      3991
 -1      1019    4    0    1
 -2      3858      5004      5008      3862      3989      5135      5139      3993      5007      5010
 -2      5011      3864      3990      5136      5140      3994      5138      5141      5142      3995
 -1      1020    4    0    1
 -2      3862      5008      5012      3866      3993      5139      5143      3997      5011      5014
 -2      5015      3868      3994      5140      5144      3998      5142      5145      5146      3999
 -1      1021    4    0    1
 -2      3866      5012      5016      3870      3997      5143      5147      4001      5015      5018
 -2      5019      3872      3998      5144      5148      4002      5146      5149      5150      4003
 -1      1022    4    0    1
 -2      3870      5016      5020      3874      4001      5147      5151      4005      5019      5022
 -2      5023      3876      4002      5148      5152      4006      5150      5153      5154      4007
 -1      1023    4    0    1
 -2      3874      5020      5024      3878      4005      5151      5155      4009      5023      5026
 -2      5027      3880      4006      5152      5156      4010      5154      5157      5158      4011
 -1      1024    4    0    1
 -2      3878      5024      5028      3882      4009      5155      5159      4013      5027      5030
 -2      5031      3884      4010      5156      5160      4014      5158      5161      5162      4015
 -1      1025    4    0    1
 -2      3882      5028      5032      3886      4013      5159      5163      4017      5031      5034
 -2      5035      3888      4014      5160      5164      4018      5162      5165      5166      4019
 -1      1026    4    0    1
 -2      3886      5032      5036      3890      4017      5163      5167      4021      5035      5038
 -2      5039      3892      4018      5164      5168      4022      5166      5169      5170      4023
 -1      1027    4    0    1
 -2      3890      5036      5040      3894      4021      5167      5171      4025      5039      5042
 -2      5043      3896      4022      5168      5172      4026      5170      5173      5174      4027
 -1      1028    4    0    1
 -2      3894      5040      5044      3898      4025      5171      5175      4029      5043      5046
 -2      5047      3900      4026      5172      5176      4030      5174      5177      5178      4031
 -1      1029    4    0    1
 -2      3898      5044      5048      3902      4029      5175      5179      4033      5047      5050
 -2      5051      3904      4030      5176      5180      4034      5178      5181      5182      4035
 -1      1030    4    0    1
 -2      3902      5048      5052      3906      4033      5179      5183      4037      5051      5054
 -2      5055      3908      4034      5180      5184      4038      5182      5185      5186      4039
 -1      1031    4    0    1
 -2      3906      5052      5056      3910      4037      5183      5187      4041      5055      5058
 -2      5059      3912      4038      5184      5188      4042      5186      5189      5190      4043
 -1      1032    4    0    1
 -2      3910      5056      5060      3914      4041      5187      5191      4045      5059      5062
 -2      5063      3916      4042      5188      5192      4046      5190      5193      5194      4047
 -1      1033    4    0    1
 -2      3914      5060      5064      3918      4045      5191      5195      4049      5063      5066
 -2      5067      3920      4046      5192      5196      4050      5194      5197      5198      4051
 -1      1034    4    0    1
 -2      3918      5064      5068      3922      4049      5195      5199      4053      5067      5070
 -2      5071      3924      4050      5196      5200      4054      5198      5201      5202      4055
 -1      1035    4    0    1
 -2      3922      5068      5072      3926      4053      5199      5203      4057      5071      5074
 -2      5075      3928      4054      5200      5204      4058      5202      5205      5206      4059
 -1      1036    4    0    1
 -2      3926      5072      5076      3930      4057      5203      5207      4061      5075      5078
 -2      5079      3932      4058      5204      5208      4062      5206      5209      5210      4063
 -1      1037    4    0    1
 -2      3930      5076      5080      3934      4061      5207      5211      4065      5079      5082
 -2      5083      3936      4062      5208      5212      4066      5210      5213      5214      4067
 -1      1038    4    0    1
 -2      3934      5080      5084      3938      4065      5211      5215      4069      5083      5086
 -2      5087      3940      4066      5212      5216      4070      5214      5217      5218      4071
 -1      1039    4    0    1
 -2      3938      5084      5088      3942      4069      5215      5219      4073      5087      5090
 -2      5091      3944      4070      5216      5220      4074      5218      5221      5222      4075
 -1      1040    4    0    1
 -2      3942      5088      5092      3946      4073      5219      5223      4077      5091      5094
 -2      5095      3948      4074      5220      5224      4078      5222      5225      5226      4079
 -1      1041    4    0    1
 -2      3950      5096      5097      3951      4081      5227      5228      4082      5100      5101
 -2      5102      3955      4083      5229      5230      4084      5231      5232      5233      4086
 -1      1042    4    0    1
 -2      3951      5097      5103      3957      4082      5228      5234      4088      5102      5105
 -2      5106      3959      4084      5230      5235      4089      5233      5236      5237      4090
 -1      1043    4    0    1
 -2      3957      5103      5107      3961      4088      5234      5238      4092      5106      5109
 -2      5110      3963      4089      5235      5239      4093      5237      5240      5241      4094
 -1      1044    4    0    1
 -2      3961      5107      5111      3965      4092      5238      5242      4096      5110      5113
 -2      5114      3967      4093      5239      5243      4097      5241      5244      5245      4098
 -1      1045    4    0    1
 -2      3965      5111      5115      3969      4096      5242      5246      4100      5114      5117
 -2      5118      3971      4097      5243      5247      4101      5245      5248      5249      4102
 -1      1046    4    0    1
 -2      3969      5115      5119      3973      4100      5246      5250      4104      5118      5121
 -2      5122      3975      4101      5247      5251      4105      5249      5252      5253      4106
 -1      1047    4    0    1
 -2      3973      5119      5123      3977      4104      5250      5254      4108      5122      5125
 -2      5126      3979      4105      5251      5255      4109      5253      5256      5257      4110
 -1      1048    4    0    1
 -2      3977      5123      5127      3981      4108      5254      5258      4112      5126      5129
 -2      5130      3983      4109      5255      5259      4113      5257      5260      5261      4114
 -1      1049    4    0    1
 -2      3981      5127      5131      3985      4112      5258      5262      4116      5130      5133
 -2      5134      3987      4113      5259      5263      4117      5261      5264      5265      4118
 -1      1050    4    0    1
 -2      3985      5131      5135      3989      4116      5262      5266      4120      5134      5137
 -2      5138      3991      4117      5263      5267      4121      5265      5268      5269      4122
 -1      1051    4    0    1
 -2      3989      5135      5139      3993      4120      5266      5270      4124      5138      5141
 -2      5142      3995      4121      5267      5271      4125      5269      5272      5273      4126
 -1      1052    4    0    1
 -2      3993      5139      5143      3997      4124      5270      5274      4128      5142      5145
 -2      5146      3999      4125      5271      5275      4129      5273      5276      5277      4130
 -1      1053    4    0    1
 -2      3997      5143      5147      4001      4128      5274      5278      4132      5146      5149
 -2      5150      4003      4129      5275      5279      4133      5277      5280      5281      4134
 -1      1054    4    0    1
 -2      4001      5147      5151      4005      4132      5278      5282      4136      5150      5153
 -2      5154      4007      4133      5279      5283      4137      5281      5284      5285      4138
 -1      1055    4    0    1
 -2      4005      5151      5155      4009      4136      5282      5286      4140      5154      5157
 -2      5158      4011      4137      5283      5287      4141      5285      5288      5289      4142
 -1      1056    4    0    1
 -2      4009      5155      5159      4013      4140      5286      5290      4144      5158      5161
 -2      5162      4015      4141      5287      5291      4145      5289      5292      5293      4146
 -1      1057    4    0    1
 -2      4013      5159      5163      4017      4144      5290      5294      4148      5162      5165
 -2      5166      4019      4145      5291      5295      4149      5293      5296      5297      4150
 -1      1058    4    0    1
 -2      4017      5163      5167      4021      4148      5294      5298      4152      5166      5169
 -2      5170      4023      4149      5295      5299      4153      5297      5300      5301      4154
 -1      1059    4    0    1
 -2      4021      5167      5171      4025      4152      5298      5302      4156      5170      5173
 -2      5174      4027      4153      5299      5303      4157      5301      5304      5305      4158
 -1      1060    4    0    1
 -2      4025      5171      5175      4029      4156      5302      5306      4160      5174      5177
 -2      5178      4031      4157      5303      5307      4161      5305      5308      5309      4162
 -1      1061    4    0    1
 -2      4029      5175      5179      4033      4160      5306      5310      4164      5178      5181
 -2      5182      4035      4161      5307      5311      4165      5309      5312      5313      4166
 -1      1062    4    0    1
 -2      4033      5179      5183      4037      4164      5310      5314      4168      5182      5185
 -2      5186      4039      4165      5311      5315      4169      5313      5316      5317      4170
 -1      1063    4    0    1
 -2      4037      5183      5187      4041      4168      5314      5318      4172      5186      5189
 -2      5190      4043      4169      5315      5319      4173      5317      5320      5321      4174
 -1      1064    4    0    1
 -2      4041      5187      5191      4045      4172      5318      5322      4176      5190      5193
 -2      5194      4047      4173      5319      5323      4177      5321      5324      5325      4178
 -1      1065    4    0    1
 -2      4045      5191      5195      4049      4176      5322      5326      4180      5194      5197
 -2      5198      4051      4177      5323      5327      4181      5325      5328      5329      4182
 -1      1066    4    0    1
 -2      4049      5195      5199      4053      4180      5326      5330      4184      5198      5201
 -2      5202      4055      4181      5327      5331      4185      5329      5332      5333      4186
 -1      1067    4    0    1
 -2      4053      5199      5203      4057      4184      5330      5334      4188      5202      5205
 -2      5206      4059      4185      5331      5335      4189      5333      5336      5337      4190
 -1      1068    4    0    1
 -2      4057      5203      5207      4061      4188      5334      5338      4192      5206      5209
 -2      5210      4063      4189      5335      5339      4193      5337      5340      5341      4194
 -1      1069    4    0    1
 -2      4061      5207      5211      4065      4192      5338      5342      4196      5210      5213
 -2      5214      4067      4193      5339      5343      4197      5341      5344      5345      4198
 -1      1070    4    0    1
 -2      4065      5211      5215      4069      4196      5342      5346      4200      5214      5217
 -2      5218      4071      4197      5343      5347      4201      5345      5348      5349      4202
 -1      1071    4    0    1
 -2      4069      5215      5219      4073      4200      5346      5350      4204      5218      5221
 -2      5222      4075      4201      5347      5351      4205      5349      5352      5353      4206
 -1      1072    4    0    1
 -2      4073      5219      5223      4077      4204      5350      5354      4208      5222      5225
 -2      5226      4079      4205      5351      5355      4209      5353      5356      5357      4210
 -1      1073    4    0    1
 -2      4081      5227      5228      4082      4212      5358      5359      4213      5231      5232
 -2      5233      4086      4214      5360      5361      4215      5362      5363      5364      4217
 -1      1074    4    0    1
 -2      4082      5228      5234      4088      4213      5359      5365      4219      5233      5236
 -2      5237      4090      4215      5361      5366      4220      5364      5367      5368      4221
 -1      1075    4    0    1
 -2      4088      5234      5238      4092      4219      5365      5369      4223      5237      5240
 -2      5241      4094      4220      5366      5370      4224      5368      5371      5372      4225
 -1      1076    4    0    1
 -2      4092      5238      5242      4096      4223      5369      5373      4227      5241      5244
 -2      5245      4098      4224      5370      5374      4228      5372      5375      5376      4229
 -1      1077    4    0    1
 -2      4096      5242      5246      4100      4227      5373      5377      4231      5245      5248
 -2      5249      4102      4228      5374      5378      4232      5376      5379      5380      4233
 -1      1078    4    0    1
 -2      4100      5246      5250      4104      4231      5377      5381      4235      5249      5252
 -2      5253      4106      4232      5378      5382      4236      5380      5383      5384      4237
 -1      1079    4    0    1
 -2      4104      5250      5254      4108      4235      5381      5385      4239      5253      5256
 -2      5257      4110      4236      5382      5386      4240      5384      5387      5388      4241
 -1      1080    4    0    1
 -2      4108      5254      5258      4112      4239      5385      5389      4243      5257      5260
 -2      5261      4114      4240      5386      5390      4244      5388      5391      5392      4245
 -1      1081    4    0    1
 -2      4112      5258      5262      4116      4243      5389      5393      4247      5261      5264
 -2      5265      4118      4244      5390      5394      4248      5392      5395      5396      4249
 -1      1082    4    0    1
 -2      4116      5262      5266      4120      4247      5393      5397      4251      5265      5268
 -2      5269      4122      4248      5394      5398      4252      5396      5399      5400      4253
 -1      1083    4    0    1
 -2      4120      5266      5270      4124      4251      5397      5401      4255      5269      5272
 -2      5273      4126      4252      5398      5402      4256      5400      5403      5404      4257
 -1      1084    4    0    1
 -2      4124      5270      5274      4128      4255      5401      5405      4259      5273      5276
 -2      5277      4130      4256      5402      5406      4260      5404      5407      5408      4261
 -1      1085    4    0    1
 -2      4128      5274      5278      4132      4259      5405      5409      4263      5277      5280
 -2      5281      4134      4260      5406      5410      4264      5408      5411      5412      4265
 -1      1086    4    0    1
 -2      4132      5278      5282      4136      4263      5409      5413      4267      5281      5284
 -2      5285      4138      4264      5410      5414      4268      5412      5415      5416      4269
 -1      1087    4    0    1
 -2      4136      5282      5286      4140      4267      5413      5417      4271      5285      5288
 -2      5289      4142      4268      5414      5418      4272      5416      5419      5420      4273
 -1      1088    4    0    1
 -2      4140      5286      5290      4144      4271      5417      5421      4275      5289      5292
 -2      5293      4146      4272      5418      5422      4276      5420      5423      5424      4277
 -1      1089    4    0    1
 -2      4144      5290      5294      4148      4275      5421      5425      4279      5293      5296
 -2      5297      4150      4276      5422      5426      4280      5424      5427      5428      4281
 -1      1090    4    0    1
 -2      4148      5294      5298      4152      4279      5425      5429      4283      5297      5300
 -2      5301      4154      4280      5426      5430      4284      5428      5431      5432      4285
 -1      1091    4    0    1
 -2      4152      5298      5302      4156      4283      5429      5433      4287      5301      5304
 -2      5305      4158      4284      5430      5434      4288      5432      5435      5436      4289
 -1      1092    4    0    1
 -2      4156      5302      5306      4160      4287      5433      5437      4291      5305      5308
 -2      5309      4162      4288      5434      5438      4292      5436      5439      5440      4293
 -1      1093    4    0    1
 -2      4160      5306      5310      4164      4291      5437      5441      4295      5309      5312
 -2      5313      4166      4292      5438      5442      4296      5440      5443      5444      4297
 -1      1094    4    0    1
 -2      4164      5310      5314      4168      4295      5441      5445      4299      5313      5316
 -2      5317      4170      4296      5442      5446      4300      5444      5447      5448      4301
 -1      1095    4    0    1
 -2      4168      5314      5318      4172      4299      5445      5449      4303      5317      5320
 -2      5321      4174      4300      5446      5450      4304      5448      5451      5452      4305
 -1      1096    4    0    1
 -2      4172      5318      5322      4176      4303      5449      5453      4307      5321      5324
 -2      5325      4178      4304      5450      5454      4308      5452      5455      5456      4309
 -1      1097    4    0    1
 -2      4176      5322      5326      4180      4307      5453      5457      4311      5325      5328
 -2      5329      4182      4308      5454      5458      4312      5456      5459      5460      4313
 -1      1098    4    0    1
 -2      4180      5326      5330      4184      4311      5457      5461      4315      5329      5332
 -2      5333      4186      4312      5458      5462      4316      5460      5463      5464      4317
 -1      1099    4    0    1
 -2      4184      5330      5334      4188      4315      5461      5465      4319      5333      5336
 -2      5337      4190      4316      5462      5466      4320      5464      5467      5468      4321
 -1      1100    4    0    1
 -2      4188      5334      5338      4192      4319      5465      5469      4323      5337      5340
 -2      5341      4194      4320      5466      5470      4324      5468      5471      5472      4325
 -1      1101    4    0    1
 -2      4192      5338      5342      4196      4323      5469      5473      4327      5341      5344
 -2      5345      4198      4324      5470      5474      4328      5472      5475      5476      4329
 -1      1102    4    0    1
 -2      4196      5342      5346      4200      4327      5473      5477      4331      5345      5348
 -2      5349      4202      4328      5474      5478      4332      5476      5479      5480      4333
 -1      1103    4    0    1
 -2      4200      5346      5350      4204      4331      5477      5481      4335      5349      5352
 -2      5353      4206      4332      5478      5482      4336      5480      5483      5484      4337
 -1      1104    4    0    1
 -2      4204      5350      5354      4208      4335      5481      5485      4339      5353      5356
 -2      5357      4210      4336      5482      5486      4340      5484      5487      5488      4341
 -1      1105    4    0    1
 -2      4343      5489      5490      4344      4345      5491      5492      4346      5493      5494
 -2      5495      4348      4350      5496      5497      4351      5498      5499      5500      4353
 -1      1106    4    0    1
 -2      4344      5490      5501      4355      4346      5492      5502      4356      5495      5503
 -2      5504      4357      4351      5497      5505      4359      5500      5506      5507      4360
 -1      1107    4    0    1
 -2      4355      5501      5508      4362      4356      5502      5509      4363      5504      5510
 -2      5511      4364      4359      5505      5512      4366      5507      5513      5514      4367
 -1      1108    4    0    1
 -2      4362      5508      5515      4369      4363      5509      5516      4370      5511      5517
 -2      5518      4371      4366      5512      5519      4373      5514      5520      5521      4374
 -1      1109    4    0    1
 -2      4369      5515      5522      4376      4370      5516      5523      4377      5518      5524
 -2      5525      4378      4373      5519      5526      4380      5521      5527      5528      4381
 -1      1110    4    0    1
 -2      4376      5522      5529      4383      4377      5523      5530      4384      5525      5531
 -2      5532      4385      4380      5526      5533      4387      5528      5534      5535      4388
 -1      1111    4    0    1
 -2      4383      5529      5536      4390      4384      5530      5537      4391      5532      5538
 -2      5539      4392      4387      5533      5540      4394      5535      5541      5542      4395
 -1      1112    4    0    1
 -2      4390      5536      5543      4397      4391      5537      5544      4398      5539      5545
 -2      5546      4399      4394      5540      5547      4401      5542      5548      5549      4402
 -1      1113    4    0    1
 -2      4397      5543      5550      4404      4398      5544      5551      4405      5546      5552
 -2      5553      4406      4401      5547      5554      4408      5549      5555      5556      4409
 -1      1114    4    0    1
 -2      4404      5550      5557      4411      4405      5551      5558      4412      5553      5559
 -2      5560      4413      4408      5554      5561      4415      5556      5562      5563      4416
 -1      1115    4    0    1
 -2      4411      5557      5564      4418      4412      5558      5565      4419      5560      5566
 -2      5567      4420      4415      5561      5568      4422      5563      5569      5570      4423
 -1      1116    4    0    1
 -2      4418      5564      5571      4425      4419      5565      5572      4426      5567      5573
 -2      5574      4427      4422      5568      5575      4429      5570      5576      5577      4430
 -1      1117    4    0    1
 -2      4425      5571      5578      4432      4426      5572      5579      4433      5574      5580
 -2      5581      4434      4429      5575      5582      4436      5577      5583      5584      4437
 -1      1118    4    0    1
 -2      4432      5578      5585      4439      4433      5579      5586      4440      5581      5587
 -2      5588      4441      4436      5582      5589      4443      5584      5590      5591      4444
 -1      1119    4    0    1
 -2      4439      5585      5592      4446      4440      5586      5593      4447      5588      5594
 -2      5595      4448      4443      5589      5596      4450      5591      5597      5598      4451
 -1      1120    4    0    1
 -2      4446      5592      5599      4453      4447      5593      5600      4454      5595      5601
 -2      5602      4455      4450      5596      5603      4457      5598      5604      5605      4458
 -1      1121    4    0    1
 -2      4453      5599      5606      4460      4454      5600      5607      4461      5602      5608
 -2      5609      4462      4457      5603      5610      4464      5605      5611      5612      4465
 -1      1122    4    0    1
 -2      4460      5606      5613      4467      4461      5607      5614      4468      5609      5615
 -2      5616      4469      4464      5610      5617      4471      5612      5618      5619      4472
 -1      1123    4    0    1
 -2      4467      5613      5620      4474      4468      5614      5621      4475      5616      5622
 -2      5623      4476      4471      5617      5624      4478      5619      5625      5626      4479
 -1      1124    4    0    1
 -2      4474      5620      5627      4481      4475      5621      5628      4482      5623      5629
 -2      5630      4483      4478      5624      5631      4485      5626      5632      5633      4486
 -1      1125    4    0    1
 -2      4481      5627      5634      4488      4482      5628      5635      4489      5630      5636
 -2      5637      4490      4485      5631      5638      4492      5633      5639      5640      4493
 -1      1126    4    0    1
 -2      4488      5634      5641      4495      4489      5635      5642      4496      5637      5643
 -2      5644      4497      4492      5638      5645      4499      5640      5646      5647      4500
 -1      1127    4    0    1
 -2      4495      5641      5648      4502      4496      5642      5649      4503      5644      5650
 -2      5651      4504      4499      5645      5652      4506      5647      5653      5654      4507
 -1      1128    4    0    1
 -2      4502      5648      5655      4509      4503      5649      5656      4510      5651      5657
 -2      5658      4511      4506      5652      5659      4513      5654      5660      5661      4514
 -1      1129    4    0    1
 -2      4509      5655      5662      4516      4510      5656      5663      4517      5658      5664
 -2      5665      4518      4513      5659      5666      4520      5661      5667      5668      4521
 -1      1130    4    0    1
 -2      4516      5662      5669      4523      4517      5663      5670      4524      5665      5671
 -2      5672      4525      4520      5666      5673      4527      5668      5674      5675      4528
 -1      1131    4    0    1
 -2      4523      5669      5676      4530      4524      5670      5677      4531      5672      5678
 -2      5679      4532      4527      5673      5680      4534      5675      5681      5682      4535
 -1      1132    4    0    1
 -2      4530      5676      5683      4537      4531      5677      5684      4538      5679      5685
 -2      5686      4539      4534      5680      5687      4541      5682      5688      5689      4542
 -1      1133    4    0    1
 -2      4537      5683      5690      4544      4538      5684      5691      4545      5686      5692
 -2      5693      4546      4541      5687      5694      4548      5689      5695      5696      4549
 -1      1134    4    0    1
 -2      4544      5690      5697      4551      4545      5691      5698      4552      5693      5699
 -2      5700      4553      4548      5694      5701      4555      5696      5702      5703      4556
 -1      1135    4    0    1
 -2      4551      5697      5704      4558      4552      5698      5705      4559      5700      5706
 -2      5707      4560      4555      5701      5708      4562      5703      5709      5710      4563
 -1      1136    4    0    1
 -2      4558      5704      5711      4565      4559      5705      5712      4566      5707      5713
 -2      5714      4567      4562      5708      5715      4569      5710      5716      5717      4570
 -1      1137    4    0    1
 -2      4345      5491      5492      4346      4572      5718      5719      4573      5498      5499
 -2      5500      4353      4574      5720      5721      4575      5722      5723      5724      4577
 -1      1138    4    0    1
 -2      4346      5492      5502      4356      4573      5719      5725      4579      5500      5506
 -2      5507      4360      4575      5721      5726      4580      5724      5727      5728      4581
 -1      1139    4    0    1
 -2      4356      5502      5509      4363      4579      5725      5729      4583      5507      5513
 -2      5514      4367      4580      5726      5730      4584      5728      5731      5732      4585
 -1      1140    4    0    1
 -2      4363      5509      5516      4370      4583      5729      5733      4587      5514      5520
 -2      5521      4374      4584      5730      5734      4588      5732      5735      5736      4589
 -1      1141    4    0    1
 -2      4370      5516      5523      4377      4587      5733      5737      4591      5521      5527
 -2      5528      4381      4588      5734      5738      4592      5736      5739      5740      4593
 -1      1142    4    0    1
 -2      4377      5523      5530      4384      4591      5737      5741      4595      5528      5534
 -2      5535      4388      4592      5738      5742      4596      5740      5743      5744      4597
 -1      1143    4    0    1
 -2      4384      5530      5537      4391      4595      5741      5745      4599      5535      5541
 -2      5542      4395      4596      5742      5746      4600      5744      5747      5748      4601
 -1      1144    4    0    1
 -2      4391      5537      5544      4398      4599      5745      5749      4603      5542      5548
 -2      5549      4402      4600      5746      5750      4604      5748      5751      5752      4605
 -1      1145    4    0    1
 -2      4398      5544      5551      4405      4603      5749      5753      4607      5549      5555
 -2      5556      4409      4604      5750      5754      4608      5752      5755      5756      4609
 -1      1146    4    0    1
 -2      4405      5551      5558      4412      4607      5753      5757      4611      5556      5562
 -2      5563      4416      4608      5754      5758      4612      5756      5759      5760      4613
 -1      1147    4    0    1
 -2      4412      5558      5565      4419      4611      5757      5761      4615      5563      5569
 -2      5570      4423      4612      5758      5762      4616      5760      5763      5764      4617
 -1      1148    4    0    1
 -2      4419      5565      5572      4426      4615      5761      5765      4619      5570      5576
 -2      5577      4430      4616      5762      5766      4620      5764      5767      5768      4621
 -1      1149    4    0    1
 -2      4426      5572      5579      4433      4619      5765      5769      4623      5577      5583
 -2      5584      4437      4620      5766      5770      4624      5768      5771      5772      4625
 -1      1150    4    0    1
 -2      4433      5579      5586      4440      4623      5769      5773      4627      5584      5590
 -2      5591      4444      4624      5770      5774      4628      5772      5775      5776      4629
 -1      1151    4    0    1
 -2      4440      5586      5593      4447      4627      5773      5777      4631      5591      5597
 -2      5598      4451      4628      5774      5778      4632      5776      5779      5780      4633
 -1      1152    4    0    1
 -2      4447      5593      5600      4454      4631      5777      5781      4635      5598      5604
 -2      5605      4458      4632      5778      5782      4636      5780      5783      5784      4637
 -1      1153    4    0    1
 -2      4454      5600      5607      4461      4635      5781      5785      4639      5605      5611
 -2      5612      4465      4636      5782      5786      4640      5784      5787      5788      4641
 -1      1154    4    0    1
 -2      4461      5607      5614      4468      4639      5785      5789      4643      5612      5618
 -2      5619      4472      4640      5786      5790      4644      5788      5791      5792      4645
 -1      1155    4    0    1
 -2      4468      5614      5621      4475      4643      5789      5793      4647      5619      5625
 -2      5626      4479      4644      5790      5794      4648      5792      5795      5796      4649
 -1      1156    4    0    1
 -2      4475      5621      5628      4482      4647      5793      5797      4651      5626      5632
 -2      5633      4486      4648      5794      5798      4652      5796      5799      5800      4653
 -1      1157    4    0    1
 -2      4482      5628      5635      4489      4651      5797      5801      4655      5633      5639
 -2      5640      4493      4652      5798      5802      4656      5800      5803      5804      4657
 -1      1158    4    0    1
 -2      4489      5635      5642      4496      4655      5801      5805      4659      5640      5646
 -2      5647      4500      4656      5802      5806      4660      5804      5807      5808      4661
 -1      1159    4    0    1
 -2      4496      5642      5649      4503      4659      5805      5809      4663      5647      5653
 -2      5654      4507      4660      5806      5810      4664      5808      5811      5812      4665
 -1      1160    4    0    1
 -2      4503      5649      5656      4510      4663      5809      5813      4667      5654      5660
 -2      5661      4514      4664      5810      5814      4668      5812      5815      5816      4669
 -1      1161    4    0    1
 -2      4510      5656      5663      4517      4667      5813      5817      4671      5661      5667
 -2      5668      4521      4668      5814      5818      4672      5816      5819      5820      4673
 -1      1162    4    0    1
 -2      4517      5663      5670      4524      4671      5817      5821      4675      5668      5674
 -2      5675      4528      4672      5818      5822      4676      5820      5823      5824      4677
 -1      1163    4    0    1
 -2      4524      5670      5677      4531      4675      5821      5825      4679      5675      5681
 -2      5682      4535      4676      5822      5826      4680      5824      5827      5828      4681
 -1      1164    4    0    1
 -2      4531      5677      5684      4538      4679      5825      5829      4683      5682      5688
 -2      5689      4542      4680      5826      5830      4684      5828      5831      5832      4685
 -1      1165    4    0    1
 -2      4538      5684      5691      4545      4683      5829      5833      4687      5689      5695
 -2      5696      4549      4684      5830      5834      4688      5832      5835      5836      4689
 -1      1166    4    0    1
 -2      4545      5691      5698      4552      4687      5833      5837      4691      5696      5702
 -2      5703      4556      4688      5834      5838      4692      5836      5839      5840      4693
 -1      1167    4    0    1
 -2      4552      5698      5705      4559      4691      5837      5841      4695      5703      5709
 -2      5710      4563      4692      5838      5842      4696      5840      5843      5844      4697
 -1      1168    4    0    1
 -2      4559      5705      5712      4566      4695      5841      5845      4699      5710      5716
 -2      5717      4570      4696      5842      5846      4700      5844      5847      5848      4701
 -1      1169    4    0    1
 -2      4572      5718      5719      4573      4703      5849      5850      4704      5722      5723
 -2      5724      4577      4705      5851      5852      4706      5853      5854      5855      4708
 -1      1170    4    0    1
 -2      4573      5719      5725      4579      4704      5850      5856      4710      5724      5727
 -2      5728      4581      4706      5852      5857      4711      5855      5858      5859      4712
 -1      1171    4    0    1
 -2      4579      5725      5729      4583      4710      5856      5860      4714      5728      5731
 -2      5732      4585      4711      5857      5861      4715      5859      5862      5863      4716
 -1      1172    4    0    1
 -2      4583      5729      5733      4587      4714      5860      5864      4718      5732      5735
 -2      5736      4589      4715      5861      5865      4719      5863      5866      5867      4720
 -1      1173    4    0    1
 -2      4587      5733      5737      4591      4718      5864      5868      4722      5736      5739
 -2      5740      4593      4719      5865      5869      4723      5867      5870      5871      4724
 -1      1174    4    0    1
 -2      4591      5737      5741      4595      4722      5868      5872      4726      5740      5743
 -2      5744      4597      4723      5869      5873      4727      5871      5874      5875      4728
 -1      1175    4    0    1
 -2      4595      5741      5745      4599      4726      5872      5876      4730      5744      5747
 -2      5748      4601      4727      5873      5877      4731      5875      5878      5879      4732
 -1      1176    4    0    1
 -2      4599      5745      5749      4603      4730      5876      5880      4734      5748      5751
 -2      5752      4605      4731      5877      5881      4735      5879      5882      5883      4736
 -1      1177    4    0    1
 -2      4603      5749      5753      4607      4734      5880      5884      4738      5752      5755
 -2      5756      4609      4735      5881      5885      4739      5883      5886      5887      4740
 -1      1178    4    0    1
 -2      4607      5753      5757      4611      4738      5884      5888      4742      5756      5759
 -2      5760      4613      4739      5885      5889      4743      5887      5890      5891      4744
 -1      1179    4    0    1
 -2      4611      5757      5761      4615      4742      5888      5892      4746      5760      5763
 -2      5764      4617      4743      5889      5893      4747      5891      5894      5895      4748
 -1      1180    4    0    1
 -2      4615      5761      5765      4619      4746      5892      5896      4750      5764      5767
 -2      5768      4621      4747      5893      5897      4751      5895      5898      5899      4752
 -1      1181    4    0    1
 -2      4619      5765      5769      4623      4750      5896      5900      4754      5768      5771
 -2      5772      4625      4751      5897      5901      4755      5899      5902      5903      4756
 -1      1182    4    0    1
 -2      4623      5769      5773      4627      4754      5900      5904      4758      5772      5775
 -2      5776      4629      4755      5901      5905      4759      5903      5906      5907      4760
 -1      1183    4    0    1
 -2      4627      5773      5777      4631      4758      5904      5908      4762      5776      5779
 -2      5780      4633      4759      5905      5909      4763      5907      5910      5911      4764
 -1      1184    4    0    1
 -2      4631      5777      5781      4635      4762      5908      5912      4766      5780      5783
 -2      5784      4637      4763      5909      5913      4767      5911      5914      5915      4768
 -1      1185    4    0    1
 -2      4635      5781      5785      4639      4766      5912      5916      4770      5784      5787
 -2      5788      4641      4767      5913      5917      4771      5915      5918      5919      4772
 -1      1186    4    0    1
 -2      4639      5785      5789      4643      4770      5916      5920      4774      5788      5791
 -2      5792      4645      4771      5917      5921      4775      5919      5922      5923      4776
 -1      1187    4    0    1
 -2      4643      5789      5793      4647      4774      5920      5924      4778      5792      5795
 -2      5796      4649      4775      5921      5925      4779      5923      5926      5927      4780
 -1      1188    4    0    1
 -2      4647      5793      5797      4651      4778      5924      5928      4782      5796      5799
 -2      5800      4653      4779      5925      5929      4783      5927      5930      5931      4784
 -1      1189    4    0    1
 -2      4651      5797      5801      4655      4782      5928      5932      4786      5800      5803
 -2      5804      4657      4783      5929      5933      4787      5931      5934      5935      4788
 -1      1190    4    0    1
 -2      4655      5801      5805      4659      4786      5932      5936      4790      5804      5807
 -2      5808      4661      4787      5933      5937      4791      5935      5938      5939      4792
 -1      1191    4    0    1
 -2      4659      5805      5809      4663      4790      5936      5940      4794      5808      5811
 -2      5812      4665      4791      5937      5941      4795      5939      5942      5943      4796
 -1      1192    4    0    1
 -2      4663      5809      5813      4667      4794      5940      5944      4798      5812      5815
 -2      5816      4669      4795      5941      5945      4799      5943      5946      5947      4800
 -1      1193    4    0    1
 -2      4667      5813      5817      4671      4798      5944      5948      4802      5816      5819
 -2      5820      4673      4799      5945      5949      4803      5947      5950      5951      4804
 -1      1194    4    0    1
 -2      4671      5817      5821      4675      4802      5948      5952      4806      5820      5823
 -2      5824      4677      4803      5949      5953      4807      5951      5954      5955      4808
 -1      1195    4    0    1
 -2      4675      5821      5825      4679      4806      5952      5956      4810      5824      5827
 -2      5828      4681      4807      5953      5957      4811      5955      5958      5959      4812
 -1      1196    4    0    1
 -2      4679      5825      5829      4683      4810      5956      5960      4814      5828      5831
 -2      5832      4685      4811      5957      5961      4815      5959      5962      5963      4816
 -1      1197    4    0    1
 -2      4683      5829      5833      4687      4814      5960      5964      4818      5832      5835
 -2      5836      4689      4815      5961      5965      4819      5963      5966      5967      4820
 -1      1198    4    0    1
 -2      4687      5833      5837      4691      4818      5964      5968      4822      5836      5839
 -2      5840      4693      4819      5965      5969      4823      5967      5970      5971      4824
 -1      1199    4    0    1
 -2      4691      5837      5841      4695      4822      5968      5972      4826      5840      5843
 -2      5844      4697      4823      5969      5973      4827      5971      5974      5975      4828
 -1      1200    4    0    1
 -2      4695      5841      5845      4699      4826      5972      5976      4830      5844      5847
 -2      5848      4701      4827      5973      5977      4831      5975      5978      5979      4832
 -1      1201    4    0    1
 -2      4703      5849      5850      4704      4834      5980      5981      4835      5853      5854
 -2      5855      4708      4836      5982      5983      4837      5984      5985      5986      4839
 -1      1202    4    0    1
 -2      4704      5850      5856      4710      4835      5981      5987      4841      5855      5858
 -2      5859      4712      4837      5983      5988      4842      5986      5989      5990      4843
 -1      1203    4    0    1
 -2      4710      5856      5860      4714      4841      5987      5991      4845      5859      5862
 -2      5863      4716      4842      5988      5992      4846      5990      5993      5994      4847
 -1      1204    4    0    1
 -2      4714      5860      5864      4718      4845      5991      5995      4849      5863      5866
 -2      5867      4720      4846      5992      5996      4850      5994      5997      5998      4851
 -1      1205    4    0    1
 -2      4718      5864      5868      4722      4849      5995      5999      4853      5867      5870
 -2      5871      4724      4850      5996      6000      4854      5998      6001      6002      4855
 -1      1206    4    0    1
 -2      4722      5868      5872      4726      4853      5999      6003      4857      5871      5874
 -2      5875      4728      4854      6000      6004      4858      6002      6005      6006      4859
 -1      1207    4    0    1
 -2      4726      5872      5876      4730      4857      6003      6007      4861      5875      5878
 -2      5879      4732      4858      6004      6008      4862      6006      6009      6010      4863
 -1      1208    4    0    1
 -2      4730      5876      5880      4734      4861      6007      6011      4865      5879      5882
 -2      5883      4736      4862      6008      6012      4866      6010      6013      6014      4867
 -1      1209    4    0    1
 -2      4734      5880      5884      4738      4865      6011      6015      4869      5883      5886
 -2      5887      4740      4866      6012      6016      4870      6014      6017      6018      4871
 -1      1210    4    0    1
 -2      4738      5884      5888      4742      4869      6015      6019      4873      5887      5890
 -2      5891      4744      4870      6016      6020      4874      6018      6021      6022      4875
 -1      1211    4    0    1
 -2      4742      5888      5892      4746      4873      6019      6023      4877      5891      5894
 -2      5895      4748      4874      6020      6024      4878      6022      6025      6026      4879
 -1      1212    4    0    1
 -2      4746      5892      5896      4750      4877      6023      6027      4881      5895      5898
 -2      5899      4752      4878      6024      6028      4882      6026      6029      6030      4883
 -1      1213    4    0    1
 -2      4750      5896      5900      4754      4881      6027      6031      4885      5899      5902
 -2      5903      4756      4882      6028      6032      4886      6030      6033      6034      4887
 -1      1214    4    0    1
 -2      4754      5900      5904      4758      4885      6031      6035      4889      5903      5906
 -2      5907      4760      4886      6032      6036      4890      6034      6037      6038      4891
 -1      1215    4    0    1
 -2      4758      5904      5908      4762      4889      6035      6039      4893      5907      5910
 -2      5911      4764      4890      6036      6040      4894      6038      6041      6042      4895
 -1      1216    4    0    1
 -2      4762      5908      5912      4766      4893      6039      6043      4897      5911      5914
 -2      5915      4768      4894      6040      6044      4898      6042      6045      6046      4899
 -1      1217    4    0    1
 -2      4766      5912      5916      4770      4897      6043      6047      4901      5915      5918
 -2      5919      4772      4898      6044      6048      4902      6046      6049      6050      4903
 -1      1218    4    0    1
 -2      4770      5916      5920      4774      4901      6047      6051      4905      5919      5922
 -2      5923      4776      4902      6048      6052      4906      6050      6053      6054      4907
 -1      1219    4    0    1
 -2      4774      5920      5924      4778      4905      6051      6055      4909      5923      5926
 -2      5927      4780      4906      6052      6056      4910      6054      6057      6058      4911
 -1      1220    4    0    1
 -2      4778      5924      5928      4782      4909      6055      6059      4913      5927      5930
 -2      5931      4784      4910      6056      6060      4914      6058      6061      6062      4915
 -1      1221    4    0    1
 -2      4782      5928      5932      4786      4913      6059      6063      4917      5931      5934
 -2      5935      4788      4914      6060      6064      4918      6062      6065      6066      4919
 -1      1222    4    0    1
 -2      4786      5932      5936      4790      4917      6063      6067      4921      5935      5938
 -2      5939      4792      4918      6064      6068      4922      6066      6069      6070      4923
 -1      1223    4    0    1
 -2      4790      5936      5940      4794      4921      6067      6071      4925      5939      5942
 -2      5943      4796      4922      6068      6072      4926      6070      6073      6074      4927
 -1      1224    4    0    1
 -2      4794      5940      5944      4798      4925      6071      6075      4929      5943      5946
 -2      5947      4800      4926      6072      6076      4930      6074      6077      6078      4931
 -1      1225    4    0    1
 -2      4798      5944      5948      4802      4929      6075      6079      4933      5947      5950
 -2      5951      4804      4930      6076      6080      4934      6078      6081      6082      4935
 -1      1226    4    0    1
 -2      4802      5948      5952      4806      4933      6079      6083      4937      5951      5954
 -2      5955      4808      4934      6080      6084      4938      6082      6085      6086      4939
 -1      1227    4    0    1
 -2      4806      5952      5956      4810      4937      6083      6087      4941      5955      5958
 -2      5959      4812      4938      6084      6088      4942      6086      6089      6090      4943
 -1      1228    4    0    1
 -2      4810      5956      5960      4814      4941      6087      6091      4945      5959      5962
 -2      5963      4816      4942      6088      6092      4946      6090      6093      6094      4947
 -1      1229    4    0    1
 -2      4814      5960      5964      4818      4945      6091      6095      4949      5963      5966
 -2      5967      4820      4946      6092      6096      4950      6094      6097      6098      4951
 -1      1230    4    0    1
 -2      4818      5964      5968      4822      4949      6095      6099      4953      5967      5970
 -2      5971      4824      4950      6096      6100      4954      6098      6101      6102      4955
 -1      1231    4    0    1
 -2      4822      5968      5972      4826      4953      6099      6103      4957      5971      5974
 -2      5975      4828      4954      6100      6104      4958      6102      6105      6106      4959
 -1      1232    4    0    1
 -2      4826      5972      5976      4830      4957      6103      6107      4961      5975      5978
 -2      5979      4832      4958      6104      6108      4962      6106      6109      6110      4963
 -1      1233    4    0    1
 -2      4834      5980      5981      4835      4965      6111      6112      4966      5984      5985
 -2      5986      4839      4967      6113      6114      4968      6115      6116      6117      4970
 -1      1234    4    0    1
 -2      4835      5981      5987      4841      4966      6112      6118      4972      5986      5989
 -2      5990      4843      4968      6114      6119      4973      6117      6120      6121      4974
 -1      1235    4    0    1
 -2      4841      5987      5991      4845      4972      6118      6122      4976      5990      5993
 -2      5994      4847      4973      6119      6123      4977      6121      6124      6125      4978
 -1      1236    4    0    1
 -2      4845      5991      5995      4849      4976      6122      6126      4980      5994      5997
 -2      5998      4851      4977      6123      6127      4981      6125      6128      6129      4982
 -1      1237    4    0    1
 -2      4849      5995      5999      4853      4980      6126      6130      4984      5998      6001
 -2      6002      4855      4981      6127      6131      4985      6129      6132      6133      4986
 -1      1238    4    0    1
 -2      4853      5999      6003      4857      4984      6130      6134      4988      6002      6005
 -2      6006      4859      4985      6131      6135      4989      6133      6136      6137      4990
 -1      1239    4    0    1
 -2      4857      6003      6007      4861      4988      6134      6138      4992      6006      6009
 -2      6010      4863      4989      6135      6139      4993      6137      6140      6141      4994
 -1      1240    4    0    1
 -2      4861      6007      6011      4865      4992      6138      6142      4996      6010      6013
 -2      6014      4867      4993      6139      6143      4997      6141      6144      6145      4998
 -1      1241    4    0    1
 -2      4865      6011      6015      4869      4996      6142      6146      5000      6014      6017
 -2      6018      4871      4997      6143      6147      5001      6145      6148      6149      5002
 -1      1242    4    0    1
 -2      4869      6015      6019      4873      5000      6146      6150      5004      6018      6021
 -2      6022      4875      5001      6147      6151      5005      6149      6152      6153      5006
 -1      1243    4    0    1
 -2      4873      6019      6023      4877      5004      6150      6154      5008      6022      6025
 -2      6026      4879      5005      6151      6155      5009      6153      6156      6157      5010
 -1      1244    4    0    1
 -2      4877      6023      6027      4881      5008      6154      6158      5012      6026      6029
 -2      6030      4883      5009      6155      6159      5013      6157      6160      6161      5014
 -1      1245    4    0    1
 -2      4881      6027      6031      4885      5012      6158      6162      5016      6030      6033
 -2      6034      4887      5013      6159      6163      5017      6161      6164      6165      5018
 -1      1246    4    0    1
 -2      4885      6031      6035      4889      5016      6162      6166      5020      6034      6037
 -2      6038      4891      5017      6163      6167      5021      6165      6168      6169      5022
 -1      1247    4    0    1
 -2      4889      6035      6039      4893      5020      6166      6170      5024      6038      6041
 -2      6042      4895      5021      6167      6171      5025      6169      6172      6173      5026
 -1      1248    4    0    1
 -2      4893      6039      6043      4897      5024      6170      6174      5028      6042      6045
 -2      6046      4899      5025      6171      6175      5029      6173      6176      6177      5030
 -1      1249    4    0    1
 -2      4897      6043      6047      4901      5028      6174      6178      5032      6046      6049
 -2      6050      4903      5029      6175      6179      5033      6177      6180      6181      5034
 -1      1250    4    0    1
 -2      4901      6047      6051      4905      5032      6178      6182      5036      6050      6053
 -2      6054      4907      5033      6179      6183      5037      6181      6184      6185      5038
 -1      1251    4    0    1
 -2      4905      6051      6055      4909      5036      6182      6186      5040      6054      6057
 -2      6058      4911      5037      6183      6187      5041      6185      6188      6189      5042
 -1      1252    4    0    1
 -2      4909      6055      6059      4913      5040      6186      6190      5044      6058      6061
 -2      6062      4915      5041      6187      6191      5045      6189      6192      6193      5046
 -1      1253    4    0    1
 -2      4913      6059      6063      4917      5044      6190      6194      5048      6062      6065
 -2      6066      4919      5045      6191      6195      5049      6193      6196      6197      5050
 -1      1254    4    0    1
 -2      4917      6063      6067      4921      5048      6194      6198      5052      6066      6069
 -2      6070      4923      5049      6195      6199      5053      6197      6200      6201      5054
 -1      1255    4    0    1
 -2      4921      6067      6071      4925      5052      6198      6202      5056      6070      6073
 -2      6074      4927      5053      6199      6203      5057      6201      6204      6205      5058
 -1      1256    4    0    1
 -2      4925      6071      6075      4929      5056      6202      6206      5060      6074      6077
 -2      6078      4931      5057      6203      6207      5061      6205      6208      6209      5062
 -1      1257    4    0    1
 -2      4929      6075      6079      4933      5060      6206      6210      5064      6078      6081
 -2      6082      4935      5061      6207      6211      5065      6209      6212      6213      5066
 -1      1258    4    0    1
 -2      4933      6079      6083      4937      5064      6210      6214      5068      6082      6085
 -2      6086      4939      5065      6211      6215      5069      6213      6216      6217      5070
 -1      1259    4    0    1
 -2      4937      6083      6087      4941      5068      6214      6218      5072      6086      6089
 -2      6090      4943      5069      6215      6219      5073      6217      6220      6221      5074
 -1      1260    4    0    1
 -2      4941      6087      6091      4945      5072      6218      6222      5076      6090      6093
 -2      6094      4947      5073      6219      6223      5077      6221      6224      6225      5078
 -1      1261    4    0    1
 -2      4945      6091      6095      4949      5076      6222      6226      5080      6094      6097
 -2      6098      4951      5077      6223      6227      5081      6225      6228      6229      5082
 -1      1262    4    0    1
 -2      4949      6095      6099      4953      5080      6226      6230      5084      6098      6101
 -2      6102      4955      5081      6227      6231      5085      6229      6232      6233      5086
 -1      1263    4    0    1
 -2      4953      6099      6103      4957      5084      6230      6234      5088      6102      6105
 -2      6106      4959      5085      6231      6235      5089      6233      6236      6237      5090
 -1      1264    4    0    1
 -2      4957      6103      6107      4961      5088      6234      6238      5092      6106      6109
 -2      6110      4963      5089      6235      6239      5093      6237      6240      6241      5094
 -1      1265    4    0    1
 -2      4965      6111      6112      4966      5096      6242      6243      5097      6115      6116
 -2      6117      4970      5098      6244      6245      5099      6246      6247      6248      5101
 -1      1266    4    0    1
 -2      4966      6112      6118      4972      5097      6243      6249      5103      6117      6120
 -2      6121      4974      5099      6245      6250      5104      6248      6251      6252      5105
 -1      1267    4    0    1
 -2      4972      6118      6122      4976      5103      6249      6253      5107      6121      6124
 -2      6125      4978      5104      6250      6254      5108      6252      6255      6256      5109
 -1      1268    4    0    1
 -2      4976      6122      6126      4980      5107      6253      6257      5111      6125      6128
 -2      6129      4982      5108      6254      6258      5112      6256      6259      6260      5113
 -1      1269    4    0    1
 -2      4980      6126      6130      4984      5111      6257      6261      5115      6129      6132
 -2      6133      4986      5112      6258      6262      5116      6260      6263      6264      5117
 -1      1270    4    0    1
 -2      4984      6130      6134      4988      5115      6261      6265      5119      6133      6136
 -2      6137      4990      5116      6262      6266      5120      6264      6267      6268      5121
 -1      1271    4    0    1
 -2      4988      6134      6138      4992      5119      6265      6269      5123      6137      6140
 -2      6141      4994      5120      6266      6270      5124      6268      6271      6272      5125
 -1      1272    4    0    1
 -2      4992      6138      6142      4996      5123      6269      6273      5127      6141      6144
 -2      6145      4998      5124      6270      6274      5128      6272      6275      6276      5129
 -1      1273    4    0    1
 -2      4996      6142      6146      5000      5127      6273      6277      5131      6145      6148
 -2      6149      5002      5128      6274      6278      5132      6276      6279      6280      5133
 -1      1274    4    0    1
 -2      5000      6146      6150      5004      5131      6277      6281      5135      6149      6152
 -2      6153      5006      5132      6278      6282      5136      6280      6283      6284      5137
 -1      1275    4    0    1
 -2      5004      6150      6154      5008      5135      6281      6285      5139      6153      6156
 -2      6157      5010      5136      6282      6286      5140      6284      6287      6288      5141
 -1      1276    4    0    1
 -2      5008      6154      6158      5012      5139      6285      6289      5143      6157      6160
 -2      6161      5014      5140      6286      6290      5144      6288      6291      6292      5145
 -1      1277    4    0    1
 -2      5012      6158      6162      5016      5143      6289      6293      5147      6161      6164
 -2      6165      5018      5144      6290      6294      5148      6292      6295      6296      5149
 -1      1278    4    0    1
 -2      5016      6162      6166      5020      5147      6293      6297      5151      6165      6168
 -2      6169      5022      5148      6294      6298      5152      6296      6299      6300      5153
 -1      1279    4    0    1
 -2      5020      6166      6170      5024      5151      6297      6301      5155      6169      6172
 -2      6173      5026      5152      6298      6302      5156      6300      6303      6304      5157
 -1      1280    4    0    1
 -2      5024      6170      6174      5028      5155      6301      6305      5159      6173      6176
 -2      6177      5030      5156      6302      6306      5160      6304      6307      6308      5161
 -1      1281    4    0    1
 -2      5028      6174      6178      5032      5159      6305      6309      5163      6177      6180
 -2      6181      5034      5160      6306      6310      5164      6308      6311      6312      5165
 -1      1282    4    0    1
 -2      5032      6178      6182      5036      5163      6309      6313      5167      6181      6184
 -2      6185      5038      5164      6310      6314      5168      6312      6315      6316      5169
 -1      1283    4    0    1
 -2      5036      6182      6186      5040      5167      6313      6317      5171      6185      6188
 -2      6189      5042      5168      6314      6318      5172      6316      6319      6320      5173
 -1      1284    4    0    1
 -2      5040      6186      6190      5044      5171      6317      6321      5175      6189      6192
 -2      6193      5046      5172      6318      6322      5176      6320      6323      6324      5177
 -1      1285    4    0    1
 -2      5044      6190      6194      5048      5175      6321      6325      5179      6193      6196
 -2      6197      5050      5176      6322      6326      5180      6324      6327      6328      5181
 -1      1286    4    0    1
 -2      5048      6194      6198      5052      5179      6325      6329      5183      6197      6200
 -2      6201      5054      5180      6326      6330      5184      6328      6331      6332      5185
 -1      1287    4    0    1
 -2      5052      6198      6202      5056      5183      6329      6333      5187      6201      6204
 -2      6205      5058      5184      6330      6334      5188      6332      6335      6336      5189
 -1      1288    4    0    1
 -2      5056      6202      6206      5060      5187      6333      6337      5191      6205      6208
 -2      6209      5062      5188      6334      6338      5192      6336      6339      6340      5193
 -1      1289    4    0    1
 -2      5060      6206      6210      5064      5191      6337      6341      5195      6209      6212
 -2      6213      5066      5192      6338      6342      5196      6340      6343      6344      5197
 -1      1290    4    0    1
 -2      5064      6210      6214      5068      5195      6341      6345      5199      6213      6216
 -2      6217      5070      5196      6342      6346      5200      6344      6347      6348      5201
 -1      1291    4    0    1
 -2      5068      6214      6218      5072      5199      6345      6349      5203      6217      6220
 -2      6221      5074      5200      6346      6350      5204      6348      6351      6352      5205
 -1      1292    4    0    1
 -2      5072      6218      6222      5076      5203      6349      6353      5207      6221      6224
 -2      6225      5078      5204      6350      6354      5208      6352      6355      6356      5209
 -1      1293    4    0    1
 -2      5076      6222      6226      5080      5207      6353      6357      5211      6225      6228
 -2      6229      5082      5208      6354      6358      5212      6356      6359      6360      5213
 -1      1294    4    0    1
 -2      5080      6226      6230      5084      5211      6357      6361      5215      6229      6232
 -2      6233      5086      5212      6358      6362      5216      6360      6363      6364      5217
 -1      1295    4    0    1
 -2      5084      6230      6234      5088      5215      6361      6365      5219      6233      6236
 -2      6237      5090      5216      6362      6366      5220      6364      6367      6368      5221
 -1      1296    4    0    1
 -2      5088      6234      6238      5092      5219      6365      6369      5223      6237      6240
 -2      6241      5094      5220      6366      6370      5224      6368      6371      6372      5225
 -1      1297    4    0    1
 -2      5096      6242      6243      5097      5227      6373      6374      5228      6246      6247
 -2      6248      5101      5229      6375      6376      5230      6377      6378      6379      5232
 -1      1298    4    0    1
 -2      5097      6243      6249      5103      5228      6374      6380      5234      6248      6251
 -2      6252      5105      5230      6376      6381      5235      6379      6382      6383      5236
 -1      1299    4    0    1
 -2      5103      6249      6253      5107      5234      6380      6384      5238      6252      6255
 -2      6256      5109      5235      6381      6385      5239      6383      6386      6387      5240
 -1      1300    4    0    1
 -2      5107      6253      6257      5111      5238      6384      6388      5242      6256      6259
 -2      6260      5113      5239      6385      6389      5243      6387      6390      6391      5244
 -1      1301    4    0    1
 -2      5111      6257      6261      5115      5242      6388      6392      5246      6260      6263
 -2      6264      5117      5243      6389      6393      5247      6391      6394      6395      5248
 -1      1302    4    0    1
 -2      5115      6261      6265      5119      5246      6392      6396      5250      6264      6267
 -2      6268      5121      5247      6393      6397      5251      6395      6398      6399      5252
 -1      1303    4    0    1
 -2      5119      6265      6269      5123      5250      6396      6400      5254      6268      6271
 -2      6272      5125      5251      6397      6401      5255      6399      6402      6403      5256
 -1      1304    4    0    1
 -2      5123      6269      6273      5127      5254      6400      6404      5258      6272      6275
 -2      6276      5129      5255      6401      6405      5259      6403      6406      6407      5260
 -1      1305    4    0    1
 -2      5127      6273      6277      5131      5258      6404      6408      5262      6276      6279
 -2      6280      5133      5259      6405      6409      5263      6407      6410      6411      5264
 -1      1306    4    0    1
 -2      5131      6277      6281      5135      5262      6408      6412      5266      6280      6283
 -2      6284      5137      5263      6409      6413      5267      6411      6414      6415      5268
 -1      1307    4    0    1
 -2      5135      6281      6285      5139      5266      6412      6416      5270      6284      6287
 -2      6288      5141      5267      6413      6417      5271      6415      6418      6419      5272
 -1      1308    4    0    1
 -2      5139      6285      6289      5143      5270      6416      6420      5274      6288      6291
 -2      6292      5145      5271      6417      6421      5275      6419      6422      6423      5276
 -1      1309    4    0    1
 -2      5143      6289      6293      5147      5274      6420      6424      5278      6292      6295
 -2      6296      5149      5275      6421      6425      5279      6423      6426      6427      5280
 -1      1310    4    0    1
 -2      5147      6293      6297      5151      5278      6424      6428      5282      6296      6299
 -2      6300      5153      5279      6425      6429      5283      6427      6430      6431      5284
 -1      1311    4    0    1
 -2      5151      6297      6301      5155      5282      6428      6432      5286      6300      6303
 -2      6304      5157      5283      6429      6433      5287      6431      6434      6435      5288
 -1      1312    4    0    1
 -2      5155      6301      6305      5159      5286      6432      6436      5290      6304      6307
 -2      6308      5161      5287      6433      6437      5291      6435      6438      6439      5292
 -1      1313    4    0    1
 -2      5159      6305      6309      5163      5290      6436      6440      5294      6308      6311
 -2      6312      5165      5291      6437      6441      5295      6439      6442      6443      5296
 -1      1314    4    0    1
 -2      5163      6309      6313      5167      5294      6440      6444      5298      6312      6315
 -2      6316      5169      5295      6441      6445      5299      6443      6446      6447      5300
 -1      1315    4    0    1
 -2      5167      6313      6317      5171      5298      6444      6448      5302      6316      6319
 -2      6320      5173      5299      6445      6449      5303      6447      6450      6451      5304
 -1      1316    4    0    1
 -2      5171      6317      6321      5175      5302      6448      6452      5306      6320      6323
 -2      6324      5177      5303      6449      6453      5307      6451      6454      6455      5308
 -1      1317    4    0    1
 -2      5175      6321      6325      5179      5306      6452      6456      5310      6324      6327
 -2      6328      5181      5307      6453      6457      5311      6455      6458      6459      5312
 -1      1318    4    0    1
 -2      5179      6325      6329      5183      5310      6456      6460      5314      6328      6331
 -2      6332      5185      5311      6457      6461      5315      6459      6462      6463      5316
 -1      1319    4    0    1
 -2      5183      6329      6333      5187      5314      6460      6464      5318      6332      6335
 -2      6336      5189      5315      6461      6465      5319      6463      6466      6467      5320
 -1      1320    4    0    1
 -2      5187      6333      6337      5191      5318      6464      6468      5322      6336      6339
 -2      6340      5193      5319      6465      6469      5323      6467      6470      6471      5324
 -1      1321    4    0    1
 -2      5191      6337      6341      5195      5322      6468      6472      5326      6340      6343
 -2      6344      5197      5323      6469      6473      5327      6471      6474      6475      5328
 -1      1322    4    0    1
 -2      5195      6341      6345      5199      5326      6472      6476      5330      6344      6347
 -2      6348      5201      5327      6473      6477      5331      6475      6478      6479      5332
 -1      1323    4    0    1
 -2      5199      6345      6349      5203      5330      6476      6480      5334      6348      6351
 -2      6352      5205      5331      6477      6481      5335      6479      6482      6483      5336
 -1      1324    4    0    1
 -2      5203      6349      6353      5207      5334      6480      6484      5338      6352      6355
 -2      6356      5209      5335      6481      6485      5339      6483      6486      6487      5340
 -1      1325    4    0    1
 -2      5207      6353      6357      5211      5338      6484      6488      5342      6356      6359
 -2      6360      5213      5339      6485      6489      5343      6487      6490      6491      5344
 -1      1326    4    0    1
 -2      5211      6357      6361      5215      5342      6488      6492      5346      6360      6363
 -2      6364      5217      5343      6489      6493      5347      6491      6494      6495      5348
 -1      1327    4    0    1
 -2      5215      6361      6365      5219      5346      6492      6496      5350      6364      6367
 -2      6368      5221      5347      6493      6497      5351      6495      6498      6499      5352
 -1      1328    4    0    1
 -2      5219      6365      6369      5223      5350      6496      6500      5354      6368      6371
 -2      6372      5225      5351      6497      6501      5355      6499      6502      6503      5356
 -1      1329    4    0    1
 -2      5227      6373      6374      5228      5358      6504      6505      5359      6377      6378
 -2      6379      5232      5360      6506      6507      5361      6508      6509      6510      5363
 -1      1330    4    0    1
 -2      5228      6374      6380      5234      5359      6505      6511      5365      6379      6382
 -2      6383      5236      5361      6507      6512      5366      6510      6513      6514      5367
 -1      1331    4    0    1
 -2      5234      6380      6384      5238      5365      6511      6515      5369      6383      6386
 -2      6387      5240      5366      6512      6516      5370      6514      6517      6518      5371
 -1      1332    4    0    1
 -2      5238      6384      6388      5242      5369      6515      6519      5373      6387      6390
 -2      6391      5244      5370      6516      6520      5374      6518      6521      6522      5375
 -1      1333    4    0    1
 -2      5242      6388      6392      5246      5373      6519      6523      5377      6391      6394
 -2      6395      5248      5374      6520      6524      5378      6522      6525      6526      5379
 -1      1334    4    0    1
 -2      5246      6392      6396      5250      5377      6523      6527      5381      6395      6398
 -2      6399      5252      5378      6524      6528      5382      6526      6529      6530      5383
 -1      1335    4    0    1
 -2      5250      6396      6400      5254      5381      6527      6531      5385      6399      6402
 -2      6403      5256      5382      6528      6532      5386      6530      6533      6534      5387
 -1      1336    4    0    1
 -2      5254      6400      6404      5258      5385      6531      6535      5389      6403      6406
 -2      6407      5260      5386      6532      6536      5390      6534      6537      6538      5391
 -1      1337    4    0    1
 -2      5258      6404      6408      5262      5389      6535      6539      5393      6407      6410
 -2      6411      5264      5390      6536      6540      5394      6538      6541      6542      5395
 -1      1338    4    0    1
 -2      5262      6408      6412      5266      5393      6539      6543      5397      6411      6414
 -2      6415      5268      5394      6540      6544      5398      6542      6545      6546      5399
 -1      1339    4    0    1
 -2      5266      6412      6416      5270      5397      6543      6547      5401      6415      6418
 -2      6419      5272      5398      6544      6548      5402      6546      6549      6550      5403
 -1      1340    4    0    1
 -2      5270      6416      6420      5274      5401      6547      6551      5405      6419      6422
 -2      6423      5276      5402      6548      6552      5406      6550      6553      6554      5407
 -1      1341    4    0    1
 -2      5274      6420      6424      5278      5405      6551      6555      5409      6423      6426
 -2      6427      5280      5406      6552      6556      5410      6554      6557      6558      5411
 -1      1342    4    0    1
 -2      5278      6424      6428      5282      5409      6555      6559      5413      6427      6430
 -2      6431      5284      5410      6556      6560      5414      6558      6561      6562      5415
 -1      1343    4    0    1
 -2      5282      6428      6432      5286      5413      6559      6563      5417      6431      6434
 -2      6435      5288      5414      6560      6564      5418      6562      6565      6566      5419
 -1      1344    4    0    1
 -2      5286      6432      6436      5290      5417      6563      6567      5421      6435      6438
 -2      6439      5292      5418      6564      6568      5422      6566      6569      6570      5423
 -1      1345    4    0    1
 -2      5290      6436      6440      5294      5421      6567      6571      5425      6439      6442
 -2      6443      5296      5422      6568      6572      5426      6570      6573      6574      5427
 -1      1346    4    0    1
 -2      5294      6440      6444      5298      5425      6571      6575      5429      6443      6446
 -2      6447      5300      5426      6572      6576      5430      6574      6577      6578      5431
 -1      1347    4    0    1
 -2      5298      6444      6448      5302      5429      6575      6579      5433      6447      6450
 -2      6451      5304      5430      6576      6580      5434      6578      6581      6582      5435
 -1      1348    4    0    1
 -2      5302      6448      6452      5306      5433      6579      6583      5437      6451      6454
 -2      6455      5308      5434      6580      6584      5438      6582      6585      6586      5439
 -1      1349    4    0    1
 -2      5306      6452      6456      5310      5437      6583      6587      5441      6455      6458
 -2      6459      5312      5438      6584      6588      5442      6586      6589      6590      5443
 -1      1350    4    0    1
 -2      5310      6456      6460      5314      5441      6587      6591      5445      6459      6462
 -2      6463      5316      5442      6588      6592      5446      6590      6593      6594      5447
 -1      1351    4    0    1
 -2      5314      6460      6464      5318      5445      6591      6595      5449      6463      6466
 -2      6467      5320      5446      6592      6596      5450      6594      6597      6598      5451
 -1      1352    4    0    1
 -2      5318      6464      6468      5322      5449      6595      6599      5453      6467      6470
 -2      6471      5324      5450      6596      6600      5454      6598      6601      6602      5455
 -1      1353    4    0    1
 -2      5322      6468      6472      5326      5453      6599      6603      5457      6471      6474
 -2      6475      5328      5454      6600      6604      5458      6602      6605      6606      5459
 -1      1354    4    0    1
 -2      5326      6472      6476      5330      5457      6603      6607      5461      6475      6478
 -2      6479      5332      5458      6604      6608      5462      6606      6609      6610      5463
 -1      1355    4    0    1
 -2      5330      6476      6480      5334      5461      6607      6611      5465      6479      6482
 -2      6483      5336      5462      6608      6612      5466      6610      6613      6614      5467
 -1      1356    4    0    1
 -2      5334      6480      6484      5338      5465      6611      6615      5469      6483      6486
 -2      6487      5340      5466      6612      6616      5470      6614      6617      6618      5471
 -1      1357    4    0    1
 -2      5338      6484      6488      5342      5469      6615      6619      5473      6487      6490
 -2      6491      5344      5470      6616      6620      5474      6618      6621      6622      5475
 -1      1358    4    0    1
 -2      5342      6488      6492      5346      5473      6619      6623      5477      6491      6494
 -2      6495      5348      5474      6620      6624      5478      6622      6625      6626      5479
 -1      1359    4    0    1
 -2      5346      6492      6496      5350      5477      6623      6627      5481      6495      6498
 -2      6499      5352      5478      6624      6628      5482      6626      6629      6630      5483
 -1      1360    4    0    1
 -2      5350      6496      6500      5354      5481      6627      6631      5485      6499      6502
 -2      6503      5356      5482      6628      6632      5486      6630      6633      6634      5487
 -1      1361    4    0    1
 -2      5489      6635      6636      5490      5491      6637      6638      5492      6639      6640
 -2      6641      5494      5496      6642      6643      5497      6644      6645      6646      5499
 -1      1362    4    0    1
 -2      5490      6636      6647      5501      5492      6638      6648      5502      6641      6649
 -2      6650      5503      5497      6643      6651      5505      6646      6652      6653      5506
 -1      1363    4    0    1
 -2      5501      6647      6654      5508      5502      6648      6655      5509      6650      6656
 -2      6657      5510      5505      6651      6658      5512      6653      6659      6660      5513
 -1      1364    4    0    1
 -2      5508      6654      6661      5515      5509      6655      6662      5516      6657      6663
 -2      6664      5517      5512      6658      6665      5519      6660      6666      6667      5520
 -1      1365    4    0    1
 -2      5515      6661      6668      5522      5516      6662      6669      5523      6664      6670
 -2      6671      5524      5519      6665      6672      5526      6667      6673      6674      5527
 -1      1366    4    0    1
 -2      5522      6668      6675      5529      5523      6669      6676      5530      6671      6677
 -2      6678      5531      5526      6672      6679      5533      6674      6680      6681      5534
 -1      1367    4    0    1
 -2      5529      6675      6682      5536      5530      6676      6683      5537      6678      6684
 -2      6685      5538      5533      6679      6686      5540      6681      6687      6688      5541
 -1      1368    4    0    1
 -2      5536      6682      6689      5543      5537      6683      6690      5544      6685      6691
 -2      6692      5545      5540      6686      6693      5547      6688      6694      6695      5548
 -1      1369    4    0    1
 -2      5543      6689      6696      5550      5544      6690      6697      5551      6692      6698
 -2      6699      5552      5547      6693      6700      5554      6695      6701      6702      5555
 -1      1370    4    0    1
 -2      5550      6696      6703      5557      5551      6697      6704      5558      6699      6705
 -2      6706      5559      5554      6700      6707      5561      6702      6708      6709      5562
 -1      1371    4    0    1
 -2      5557      6703      6710      5564      5558      6704      6711      5565      6706      6712
 -2      6713      5566      5561      6707      6714      5568      6709      6715      6716      5569
 -1      1372    4    0    1
 -2      5564      6710      6717      5571      5565      6711      6718      5572      6713      6719
 -2      6720      5573      5568      6714      6721      5575      6716      6722      6723      5576
 -1      1373    4    0    1
 -2      5571      6717      6724      5578      5572      6718      6725      5579      6720      6726
 -2      6727      5580      5575      6721      6728      5582      6723      6729      6730      5583
 -1      1374    4    0    1
 -2      5578      6724      6731      5585      5579      6725      6732      5586      6727      6733
 -2      6734      5587      5582      6728      6735      5589      6730      6736      6737      5590
 -1      1375    4    0    1
 -2      5585      6731      6738      5592      5586      6732      6739      5593      6734      6740
 -2      6741      5594      5589      6735      6742      5596      6737      6743      6744      5597
 -1      1376    4    0    1
 -2      5592      6738      6745      5599      5593      6739      6746      5600      6741      6747
 -2      6748      5601      5596      6742      6749      5603      6744      6750      6751      5604
 -1      1377    4    0    1
 -2      5599      6745      6752      5606      5600      6746      6753      5607      6748      6754
 -2      6755      5608      5603      6749      6756      5610      6751      6757      6758      5611
 -1      1378    4    0    1
 -2      5606      6752      6759      5613      5607      6753      6760      5614      6755      6761
 -2      6762      5615      5610      6756      6763      5617      6758      6764      6765      5618
 -1      1379    4    0    1
 -2      5613      6759      6766      5620      5614      6760      6767      5621      6762      6768
 -2      6769      5622      5617      6763      6770      5624      6765      6771      6772      5625
 -1      1380    4    0    1
 -2      5620      6766      6773      5627      5621      6767      6774      5628      6769      6775
 -2      6776      5629      5624      6770      6777      5631      6772      6778      6779      5632
 -1      1381    4    0    1
 -2      5627      6773      6780      5634      5628      6774      6781      5635      6776      6782
 -2      6783      5636      5631      6777      6784      5638      6779      6785      6786      5639
 -1      1382    4    0    1
 -2      5634      6780      6787      5641      5635      6781      6788      5642      6783      6789
 -2      6790      5643      5638      6784      6791      5645      6786      6792      6793      5646
 -1      1383    4    0    1
 -2      5641      6787      6794      5648      5642      6788      6795      5649      6790      6796
 -2      6797      5650      5645      6791      6798      5652      6793      6799      6800      5653
 -1      1384    4    0    1
 -2      5648      6794      6801      5655      5649      6795      6802      5656      6797      6803
 -2      6804      5657      5652      6798      6805      5659      6800      6806      6807      5660
 -1      1385    4    0    1
 -2      5655      6801      6808      5662      5656      6802      6809      5663      6804      6810
 -2      6811      5664      5659      6805      6812      5666      6807      6813      6814      5667
 -1      1386    4    0    1
 -2      5662      6808      6815      5669      5663      6809      6816      5670      6811      6817
 -2      6818      5671      5666      6812      6819      5673      6814      6820      6821      5674
 -1      1387    4    0    1
 -2      5669      6815      6822      5676      5670      6816      6823      5677      6818      6824
 -2      6825      5678      5673      6819      6826      5680      6821      6827      6828      5681
 -1      1388    4    0    1
 -2      5676      6822      6829      5683      5677      6823      6830      5684      6825      6831
 -2      6832      5685      5680      6826      6833      5687      6828      6834      6835      5688
 -1      1389    4    0    1
 -2      5683      6829      6836      5690      5684      6830      6837      5691      6832      6838
 -2      6839      5692      5687      6833      6840      5694      6835      6841      6842      5695
 -1      1390    4    0    1
 -2      5690      6836      6843      5697      5691      6837      6844      5698      6839      6845
 -2      6846      5699      5694      6840      6847      5701      6842      6848      6849      5702
 -1      1391    4    0    1
 -2      5697      6843      6850      5704      5698      6844      6851      5705      6846      6852
 -2      6853      5706      5701      6847      6854      5708      6849      6855      6856      5709
 -1      1392    4    0    1
 -2      5704      6850      6857      5711      5705      6851      6858      5712      6853      6859
 -2      6860      5713      5708      6854      6861      5715      6856      6862      6863      5716
 -1      1393    4    0    1
 -2      5491      6637      6638      5492      5718      6864      6865      5719      6644      6645
 -2      6646      5499      5720      6866      6867      5721      6868      6869      6870      5723
 -1      1394    4    0    1
 -2      5492      6638      6648      5502      5719      6865      6871      5725      6646      6652
 -2      6653      5506      5721      6867      6872      5726      6870      6873      6874      5727
 -1      1395    4    0    1
 -2      5502      6648      6655      5509      5725      6871      6875      5729      6653      6659
 -2      6660      5513      5726      6872      6876      5730      6874      6877      6878      5731
 -1      1396    4    0    1
 -2      5509      6655      6662      5516      5729      6875      6879      5733      6660      6666
 -2      6667      5520      5730      6876      6880      5734      6878      6881      6882      5735
 -1      1397    4    0    1
 -2      5516      6662      6669      5523      5733      6879      6883      5737      6667      6673
 -2      6674      5527      5734      6880      6884      5738      6882      6885      6886      5739
 -1      1398    4    0    1
 -2      5523      6669      6676      5530      5737      6883      6887      5741      6674      6680
 -2      6681      5534      5738      6884      6888      5742      6886      6889      6890      5743
 -1      1399    4    0    1
 -2      5530      6676      6683      5537      5741      6887      6891      5745      6681      6687
 -2      6688      5541      5742      6888      6892      5746      6890      6893      6894      5747
 -1      1400    4    0    1
 -2      5537      6683      6690      5544      5745      6891      6895      5749      6688      6694
 -2      6695      5548      5746      6892      6896      5750      6894      6897      6898      5751
 -1      1401    4    0    1
 -2      5544      6690      6697      5551      5749      6895      6899      5753      6695      6701
 -2      6702      5555      5750      6896      6900      5754      6898      6901      6902      5755
 -1      1402    4    0    1
 -2      5551      6697      6704      5558      5753      6899      6903      5757      6702      6708
 -2      6709      5562      5754      6900      6904      5758      6902      6905      6906      5759
 -1      1403    4    0    1
 -2      5558      6704      6711      5565      5757      6903      6907      5761      6709      6715
 -2      6716      5569      5758      6904      6908      5762      6906      6909      6910      5763
 -1      1404    4    0    1
 -2      5565      6711      6718      5572      5761      6907      6911      5765      6716      6722
 -2      6723      5576      5762      6908      6912      5766      6910      6913      6914      5767
 -1      1405    4    0    1
 -2      5572      6718      6725      5579      5765      6911      6915      5769      6723      6729
 -2      6730      5583      5766      6912      6916      5770      6914      6917      6918      5771
 -1      1406    4    0    1
 -2      5579      6725      6732      5586      5769      6915      6919      5773      6730      6736
 -2      6737      5590      5770      6916      6920      5774      6918      6921      6922      5775
 -1      1407    4    0    1
 -2      5586      6732      6739      5593      5773      6919      6923      5777      6737      6743
 -2      6744      5597      5774      6920      6924      5778      6922      6925      6926      5779
 -1      1408    4    0    1
 -2      5593      6739      6746      5600      5777      6923      6927      5781      6744      6750
 -2      6751      5604      5778      6924      6928      5782      6926      6929      6930      5783
 -1      1409    4    0    1
 -2      5600      6746      6753      5607      5781      6927      6931      5785      6751      6757
 -2      6758      5611      5782      6928      6932      5786      6930      6933      6934      5787
 -1      1410    4    0    1
 -2      5607      6753      6760      5614      5785      6931      6935      5789      6758      6764
 -2      6765      5618      5786      6932      6936      5790      6934      6937      6938      5791
 -1      1411    4    0    1
 -2      5614      6760      6767      5621      5789      6935      6939      5793      6765      6771
 -2      6772      5625      5790      6936      6940      5794      6938      6941      6942      5795
 -1      1412    4    0    1
 -2      5621      6767      6774      5628      5793      6939      6943      5797      6772      6778
 -2      6779      5632      5794      6940      6944      5798      6942      6945      6946      5799
 -1      1413    4    0    1
 -2      5628      6774      6781      5635      5797      6943      6947      5801      6779      6785
 -2      6786      5639      5798      6944      6948      5802      6946      6949      6950      5803
 -1      1414    4    0    1
 -2      5635      6781      6788      5642      5801      6947      6951      5805      6786      6792
 -2      6793      5646      5802      6948      6952      5806      6950      6953      6954      5807
 -1      1415    4    0    1
 -2      5642      6788      6795      5649      5805      6951      6955      5809      6793      6799
 -2      6800      5653      5806      6952      6956      5810      6954      6957      6958      5811
 -1      1416    4    0    1
 -2      5649      6795      6802      5656      5809      6955      6959      5813      6800      6806
 -2      6807      5660      5810      6956      6960      5814      6958      6961      6962      5815
 -1      1417    4    0    1
 -2      5656      6802      6809      5663      5813      6959      6963      5817      6807      6813
 -2      6814      5667      5814      6960      6964      5818      6962      6965      6966      5819
 -1      1418    4    0    1
 -2      5663      6809      6816      5670      5817      6963      6967      5821      6814      6820
 -2      6821      5674      5818      6964      6968      5822      6966      6969      6970      5823
 -1      1419    4    0    1
 -2      5670      6816      6823      5677      5821      6967      6971      5825      6821      6827
 -2      6828      5681      5822      6968      6972      5826      6970      6973      6974      5827
 -1      1420    4    0    1
 -2      5677      6823      6830      5684      5825      6971      6975      5829      6828      6834
 -2      6835      5688      5826      6972      6976      5830      6974      6977      6978      5831
 -1      1421    4    0    1
 -2      5684      6830      6837      5691      5829      6975      6979      5833      6835      6841
 -2      6842      5695      5830      6976      6980      5834      6978      6981      6982      5835
 -1      1422    4    0    1
 -2      5691      6837      6844      5698      5833      6979      6983      5837      6842      6848
 -2      6849      5702      5834      6980      6984      5838      6982      6985      6986      5839
 -1      1423    4    0    1
 -2      5698      6844      6851      5705      5837      6983      6987      5841      6849      6855
 -2      6856      5709      5838      6984      6988      5842      6986      6989      6990      5843
 -1      1424    4    0    1
 -2      5705      6851      6858      5712      5841      6987      6991      5845      6856      6862
 -2      6863      5716      5842      6988      6992      5846      6990      6993      6994      5847
 -1      1425    4    0    1
 -2      5718      6864      6865      5719      5849      6995      6996      5850      6868      6869
 -2      6870      5723      5851      6997      6998      5852      6999      7000      7001      5854
 -1      1426    4    0    1
 -2      5719      6865      6871      5725      5850      6996      7002      5856      6870      6873
 -2      6874      5727      5852      6998      7003      5857      7001      7004      7005      5858
 -1      1427    4    0    1
 -2      5725      6871      6875      5729      5856      7002      7006      5860      6874      6877
 -2      6878      5731      5857      7003      7007      5861      7005      7008      7009      5862
 -1      1428    4    0    1
 -2      5729      6875      6879      5733      5860      7006      7010      5864      6878      6881
 -2      6882      5735      5861      7007      7011      5865      7009      7012      7013      5866
 -1      1429    4    0    1
 -2      5733      6879      6883      5737      5864      7010      7014      5868      6882      6885
 -2      6886      5739      5865      7011      7015      5869      7013      7016      7017      5870
 -1      1430    4    0    1
 -2      5737      6883      6887      5741      5868      7014      7018      5872      6886      6889
 -2      6890      5743      5869      7015      7019      5873      7017      7020      7021      5874
 -1      1431    4    0    1
 -2      5741      6887      6891      5745      5872      7018      7022      5876      6890      6893
 -2      6894      5747      5873      7019      7023      5877      7021      7024      7025      5878
 -1      1432    4    0    1
 -2      5745      6891      6895      5749      5876      7022      7026      5880      6894      6897
 -2      6898      5751      5877      7023      7027      5881      7025      7028      7029      5882
 -1      1433    4    0    1
 -2      5749      6895      6899      5753      5880      7026      7030      5884      6898      6901
 -2      6902      5755      5881      7027      7031      5885      7029      7032      7033      5886
 -1      1434    4    0    1
 -2      5753      6899      6903      5757      5884      7030      7034      5888      6902      6905
 -2      6906      5759      5885      7031      7035      5889      7033      7036      7037      5890
 -1      1435    4    0    1
 -2      5757      6903      6907      5761      5888      7034      7038      5892      6906      6909
 -2      6910      5763      5889      7035      7039      5893      7037      7040      7041      5894
 -1      1436    4    0    1
 -2      5761      6907      6911      5765      5892      7038      7042      5896      6910      6913
 -2      6914      5767      5893      7039      7043      5897      7041      7044      7045      5898
 -1      1437    4    0    1
 -2      5765      6911      6915      5769      5896      7042      7046      5900      6914      6917
 -2      6918      5771      5897      7043      7047      5901      7045      7048      7049      5902
 -1      1438    4    0    1
 -2      5769      6915      6919      5773      5900      7046      7050      5904      6918      6921
 -2      6922      5775      5901      7047      7051      5905      7049      7052      7053      5906
 -1      1439    4    0    1
 -2      5773      6919      6923      5777      5904      7050      7054      5908      6922      6925
 -2      6926      5779      5905      7051      7055      5909      7053      7056      7057      5910
 -1      1440    4    0    1
 -2      5777      6923      6927      5781      5908      7054      7058      5912      6926      6929
 -2      6930      5783      5909      7055      7059      5913      7057      7060      7061      5914
 -1      1441    4    0    1
 -2      5781      6927      6931      5785      5912      7058      7062      5916      6930      6933
 -2      6934      5787      5913      7059      7063      5917      7061      7064      7065      5918
 -1      1442    4    0    1
 -2      5785      6931      6935      5789      5916      7062      7066      5920      6934      6937
 -2      6938      5791      5917      7063      7067      5921      7065      7068      7069      5922
 -1      1443    4    0    1
 -2      5789      6935      6939      5793      5920      7066      7070      5924      6938      6941
 -2      6942      5795      5921      7067      7071      5925      7069      7072      7073      5926
 -1      1444    4    0    1
 -2      5793      6939      6943      5797      5924      7070      7074      5928      6942      6945
 -2      6946      5799      5925      7071      7075      5929      7073      7076      7077      5930
 -1      1445    4    0    1
 -2      5797      6943      6947      5801      5928      7074      7078      5932      6946      6949
 -2      6950      5803      5929      7075      7079      5933      7077      7080      7081      5934
 -1      1446    4    0    1
 -2      5801      6947      6951      5805      5932      7078      7082      5936      6950      6953
 -2      6954      5807      5933      7079      7083      5937      7081      7084      7085      5938
 -1      1447    4    0    1
 -2      5805      6951      6955      5809      5936      7082      7086      5940      6954      6957
 -2      6958      5811      5937      7083      7087      5941      7085      7088      7089      5942
 -1      1448    4    0    1
 -2      5809      6955      6959      5813      5940      7086      7090      5944      6958      6961
 -2      6962      5815      5941      7087      7091      5945      7089      7092      7093      5946
 -1      1449    4    0    1
 -2      5813      6959      6963      5817      5944      7090      7094      5948      6962      6965
 -2      6966      5819      5945      7091      7095      5949      7093      7096      7097      5950
 -1      1450    4    0    1
 -2      5817      6963      6967      5821      5948      7094      7098      5952      6966      6969
 -2      6970      5823      5949      7095      7099      5953      7097      7100      7101      5954
 -1      1451    4    0    1
 -2      5821      6967      6971      5825      5952      7098      7102      5956      6970      6973
 -2      6974      5827      5953      7099      7103      5957      7101      7104      7105      5958
 -1      1452    4    0    1
 -2      5825      6971      6975      5829      5956      7102      7106      5960      6974      6977
 -2      6978      5831      5957      7103      7107      5961      7105      7108      7109      5962
 -1      1453    4    0    1
 -2      5829      6975      6979      5833      5960      7106      7110      5964      6978      6981
 -2      6982      5835      5961      7107      7111      5965      7109      7112      7113      5966
 -1      1454    4    0    1
 -2      5833      6979      6983      5837      5964      7110      7114      5968      6982      6985
 -2      6986      5839      5965      7111      7115      5969      7113      7116      7117      5970
 -1      1455    4    0    1
 -2      5837      6983      6987      5841      5968      7114      7118      5972      6986      6989
 -2      6990      5843      5969      7115      7119      5973      7117      7120      7121      5974
 -1      1456    4    0    1
 -2      5841      6987      6991      5845      5972      7118      7122      5976      6990      6993
 -2      6994      5847      5973      7119      7123      5977      7121      7124      7125      5978
 -1      1457    4    0    1
 -2      5849      6995      6996      5850      5980      7126      7127      5981      6999      7000
 -2      7001      5854      5982      7128      7129      5983      7130      7131      7132      5985
 -1      1458    4    0    1
 -2      5850      6996      7002      5856      5981      7127      7133      5987      7001      7004
 -2      7005      5858      5983      7129      7134      5988      7132      7135      7136      5989
 -1      1459    4    0    1
 -2      5856      7002      7006      5860      5987      7133      7137      5991      7005      7008
 -2      7009      5862      5988      7134      7138      5992      7136      7139      7140      5993
 -1      1460    4    0    1
 -2      5860      7006      7010      5864      5991      7137      7141      5995      7009      7012
 -2      7013      5866      5992      7138      7142      5996      7140      7143      7144      5997
 -1      1461    4    0    1
 -2      5864      7010      7014      5868      5995      7141      7145      5999      7013      7016
 -2      7017      5870      5996      7142      7146      6000      7144      7147      7148      6001
 -1      1462    4    0    1
 -2      5868      7014      7018      5872      5999      7145      7149      6003      7017      7020
 -2      7021      5874      6000      7146      7150      6004      7148      7151      7152      6005
 -1      1463    4    0    1
 -2      5872      7018      7022      5876      6003      7149      7153      6007      7021      7024
 -2      7025      5878      6004      7150      7154      6008      7152      7155      7156      6009
 -1      1464    4    0    1
 -2      5876      7022      7026      5880      6007      7153      7157      6011      7025      7028
 -2      7029      5882      6008      7154      7158      6012      7156      7159      7160      6013
 -1      1465    4    0    1
 -2      5880      7026      7030      5884      6011      7157      7161      6015      7029      7032
 -2      7033      5886      6012      7158      7162      6016      7160      7163      7164      6017
 -1      1466    4    0    1
 -2      5884      7030      7034      5888      6015      7161      7165      6019      7033      7036
 -2      7037      5890      6016      7162      7166      6020      7164      7167      7168      6021
 -1      1467    4    0    1
 -2      5888      7034      7038      5892      6019      7165      7169      6023      7037      7040
 -2      7041      5894      6020      7166      7170      6024      7168      7171      7172      6025
 -1      1468    4    0    1
 -2      5892      7038      7042      5896      6023      7169      7173      6027      7041      7044
 -2      7045      5898      6024      7170      7174      6028      7172      7175      7176      6029
 -1      1469    4    0    1
 -2      5896      7042      7046      5900      6027      7173      7177      6031      7045      7048
 -2      7049      5902      6028      7174      7178      6032      7176      7179      7180      6033
 -1      1470    4    0    1
 -2      5900      7046      7050      5904      6031      7177      7181      6035      7049      7052
 -2      7053      5906      6032      7178      7182      6036      7180      7183      7184      6037
 -1      1471    4    0    1
 -2      5904      7050      7054      5908      6035      7181      7185      6039      7053      7056
 -2      7057      5910      6036      7182      7186      6040      7184      7187      7188      6041
 -1      1472    4    0    1
 -2      5908      7054      7058      5912      6039      7185      7189      6043      7057      7060
 -2      7061      5914      6040      7186      7190      6044      7188      7191      7192      6045
 -1      1473    4    0    1
 -2      5912      7058      7062      5916      6043      7189      7193      6047      7061      7064
 -2      7065      5918      6044      7190      7194      6048      7192      7195      7196      6049
 -1      1474    4    0    1
 -2      5916      7062      7066      5920      6047      7193      7197      6051      7065      7068
 -2      7069      5922      6048      7194      7198      6052      7196      7199      7200      6053
 -1      1475    4    0    1
 -2      5920      7066      7070      5924      6051      7197      7201      6055      7069      7072
 -2      7073      5926      6052      7198      7202      6056      7200      7203      7204      6057
 -1      1476    4    0    1
 -2      5924      7070      7074      5928      6055      7201      7205      6059      7073      7076
 -2      7077      5930      6056      7202      7206      6060      7204      7207      7208      6061
 -1      1477    4    0    1
 -2      5928      7074      7078      5932      6059      7205      7209      6063      7077      7080
 -2      7081      5934      6060      7206      7210      6064      7208      7211      7212      6065
 -1      1478    4    0    1
 -2      5932      7078      7082      5936      6063      7209      7213      6067      7081      7084
 -2      7085      5938      6064      7210      7214      6068      7212      7215      7216      6069
 -1      1479    4    0    1
 -2      5936      7082      7086      5940      6067      7213      7217      6071      7085      7088
 -2      7089      5942      6068      7214      7218      6072      7216      7219      7220      6073
 -1      1480    4    0    1
 -2      5940      7086      7090      5944      6071      7217      7221      6075      7089      7092
 -2      7093      5946      6072      7218      7222      6076      7220      7223      7224      6077
 -1      1481    4    0    1
 -2      5944      7090      7094      5948      6075      7221      7225      6079      7093      7096
 -2      7097      5950      6076      7222      7226      6080      7224      7227      7228      6081
 -1      1482    4    0    1
 -2      5948      7094      7098      5952      6079      7225      7229      6083      7097      7100
 -2      7101      5954      6080      7226      7230      6084      7228      7231      7232      6085
 -1      1483    4    0    1
 -2      5952      7098      7102      5956      6083      7229      7233      6087      7101      7104
 -2      7105      5958      6084      7230      7234      6088      7232      7235      7236      6089
 -1      1484    4    0    1
 -2      5956      7102      7106      5960      6087      7233      7237      6091      7105      7108
 -2      7109      5962      6088      7234      7238      6092      7236      7239      7240      6093
 -1      1485    4    0    1
 -2      5960      7106      7110      5964      6091      7237      7241      6095      7109      7112
 -2      7113      5966      6092      7238      7242      6096      7240      7243      7244      6097
 -1      1486    4    0    1
 -2      5964      7110      7114      5968      6095      7241      7245      6099      7113      7116
 -2      7117      5970      6096      7242      7246      6100      7244      7247      7248      6101
 -1      1487    4    0    1
 -2      5968      7114      7118      5972      6099      7245      7249      6103      7117      7120
 -2      7121      5974      6100      7246      7250      6104      7248      7251      7252      6105
 -1      1488    4    0    1
 -2      5972      7118      7122      5976      6103      7249      7253      6107      7121      7124
 -2      7125      5978      6104      7250      7254      6108      7252      7255      7256      6109
 -1      1489    4    0    1
 -2      5980      7126      7127      5981      6111      7257      7258      6112      7130      7131
 -2      7132      5985      6113      7259      7260      6114      7261      7262      7263      6116
 -1      1490    4    0    1
 -2      5981      7127      7133      5987      6112      7258      7264      6118      7132      7135
 -2      7136      5989      6114      7260      7265      6119      7263      7266      7267      6120
 -1      1491    4    0    1
 -2      5987      7133      7137      5991      6118      7264      7268      6122      7136      7139
 -2      7140      5993      6119      7265      7269      6123      7267      7270      7271      6124
 -1      1492    4    0    1
 -2      5991      7137      7141      5995      6122      7268      7272      6126      7140      7143
 -2      7144      5997      6123      7269      7273      6127      7271      7274      7275      6128
 -1      1493    4    0    1
 -2      5995      7141      7145      5999      6126      7272      7276      6130      7144      7147
 -2      7148      6001      6127      7273      7277      6131      7275      7278      7279      6132
 -1      1494    4    0    1
 -2      5999      7145      7149      6003      6130      7276      7280      6134      7148      7151
 -2      7152      6005      6131      7277      7281      6135      7279      7282      7283      6136
 -1      1495    4    0    1
 -2      6003      7149      7153      6007      6134      7280      7284      6138      7152      7155
 -2      7156      6009      6135      7281      7285      6139      7283      7286      7287      6140
 -1      1496    4    0    1
 -2      6007      7153      7157      6011      6138      7284      7288      6142      7156      7159
 -2      7160      6013      6139      7285      7289      6143      7287      7290      7291      6144
 -1      1497    4    0    1
 -2      6011      7157      7161      6015      6142      7288      7292      6146      7160      7163
 -2      7164      6017      6143      7289      7293      6147      7291      7294      7295      6148
 -1      1498    4    0    1
 -2      6015      7161      7165      6019      6146      7292      7296      6150      7164      7167
 -2      7168      6021      6147      7293      7297      6151      7295      7298      7299      6152
 -1      1499    4    0    1
 -2      6019      7165      7169      6023      6150      7296      7300      6154      7168      7171
 -2      7172      6025      6151      7297      7301      6155      7299      7302      7303      6156
 -1      1500    4    0    1
 -2      6023      7169      7173      6027      6154      7300      7304      6158      7172      7175
 -2      7176      6029      6155      7301      7305      6159      7303      7306      7307      6160
 -1      1501    4    0    1
 -2      6027      7173      7177      6031      6158      7304      7308      6162      7176      7179
 -2      7180      6033      6159      7305      7309      6163      7307      7310      7311      6164
 -1      1502    4    0    1
 -2      6031      7177      7181      6035      6162      7308      7312      6166      7180      7183
 -2      7184      6037      6163      7309      7313      6167      7311      7314      7315      6168
 -1      1503    4    0    1
 -2      6035      7181      7185      6039      6166      7312      7316      6170      7184      7187
 -2      7188      6041      6167      7313      7317      6171      7315      7318      7319      6172
 -1      1504    4    0    1
 -2      6039      7185      7189      6043      6170      7316      7320      6174      7188      7191
 -2      7192      6045      6171      7317      7321      6175      7319      7322      7323      6176
 -1      1505    4    0    1
 -2      6043      7189      7193      6047      6174      7320      7324      6178      7192      7195
 -2      7196      6049      6175      7321      7325      6179      7323      7326      7327      6180
 -1      1506    4    0    1
 -2      6047      7193      7197      6051      6178      7324      7328      6182      7196      7199
 -2      7200      6053      6179      7325      7329      6183      7327      7330      7331      6184
 -1      1507    4    0    1
 -2      6051      7197      7201      6055      6182      7328      7332      6186      7200      7203
 -2      7204      6057      6183      7329      7333      6187      7331      7334      7335      6188
 -1      1508    4    0    1
 -2      6055      7201      7205      6059      6186      7332      7336      6190      7204      7207
 -2      7208      6061      6187      7333      7337      6191      7335      7338      7339      6192
 -1      1509    4    0    1
 -2      6059      7205      7209      6063      6190      7336      7340      6194      7208      7211
 -2      7212      6065      6191      7337      7341      6195      7339      7342      7343      6196
 -1      1510    4    0    1
 -2      6063      7209      7213      6067      6194      7340      7344      6198      7212      7215
 -2      7216      6069      6195      7341      7345      6199      7343      7346      7347      6200
 -1      1511    4    0    1
 -2      6067      7213      7217      6071      6198      7344      7348      6202      7216      7219
 -2      7220      6073      6199      7345      7349      6203      7347      7350      7351      6204
 -1      1512    4    0    1
 -2      6071      7217      7221      6075      6202      7348      7352      6206      7220      7223
 -2      7224      6077      6203      7349      7353      6207      7351      7354      7355      6208
 -1      1513    4    0    1
 -2      6075      7221      7225      6079      6206      7352      7356      6210      7224      7227
 -2      7228      6081      6207      7353      7357      6211      7355      7358      7359      6212
 -1      1514    4    0    1
 -2      6079      7225      7229      6083      6210      7356      7360      6214      7228      7231
 -2      7232      6085      6211      7357      7361      6215      7359      7362      7363      6216
 -1      1515    4    0    1
 -2      6083      7229      7233      6087      6214      7360      7364      6218      7232      7235
 -2      7236      6089      6215      7361      7365      6219      7363      7366      7367      6220
 -1      1516    4    0    1
 -2      6087      7233      7237      6091      6218      7364      7368      6222      7236      7239
 -2      7240      6093      6219      7365      7369      6223      7367      7370      7371      6224
 -1      1517    4    0    1
 -2      6091      7237      7241      6095      6222      7368      7372      6226      7240      7243
 -2      7244      6097      6223      7369      7373      6227      7371      7374      7375      6228
 -1      1518    4    0    1
 -2      6095      7241      7245      6099      6226      7372      7376      6230      7244      7247
 -2      7248      6101      6227      7373      7377      6231      7375      7378      7379      6232
 -1      1519    4    0    1
 -2      6099      7245      7249      6103      6230      7376      7380      6234      7248      7251
 -2      7252      6105      6231      7377      7381      6235      7379      7382      7383      6236
 -1      1520    4    0    1
 -2      6103      7249      7253      6107      6234      7380      7384      6238      7252      7255
 -2      7256      6109      6235      7381      7385      6239      7383      7386      7387      6240
 -1      1521    4    0    1
 -2      6111      7257      7258      6112      6242      7388      7389      6243      7261      7262
 -2      7263      6116      6244      7390      7391      6245      7392      7393      7394      6247
 -1      1522    4    0    1
 -2      6112      7258      7264      6118      6243      7389      7395      6249      7263      7266
 -2      7267      6120      6245      7391      7396      6250      7394      7397      7398      6251
 -1      1523    4    0    1
 -2      6118      7264      7268      6122      6249      7395      7399      6253      7267      7270
 -2      7271      6124      6250      7396      7400      6254      7398      7401      7402      6255
 -1      1524    4    0    1
 -2      6122      7268      7272      6126      6253      7399      7403      6257      7271      7274
 -2      7275      6128      6254      7400      7404      6258      7402      7405      7406      6259
 -1      1525    4    0    1
 -2      6126      7272      7276      6130      6257      7403      7407      6261      7275      7278
 -2      7279      6132      6258      7404      7408      6262      7406      7409      7410      6263
 -1      1526    4    0    1
 -2      6130      7276      7280      6134      6261      7407      7411      6265      7279      7282
 -2      7283      6136      6262      7408      7412      6266      7410      7413      7414      6267
 -1      1527    4    0    1
 -2      6134      7280      7284      6138      6265      7411      7415      6269      7283      7286
 -2      7287      6140      6266      7412      7416      6270      7414      7417      7418      6271
 -1      1528    4    0    1
 -2      6138      7284      7288      6142      6269      7415      7419      6273      7287      7290
 -2      7291      6144      6270      7416      7420      6274      7418      7421      7422      6275
 -1      1529    4    0    1
 -2      6142      7288      7292      6146      6273      7419      7423      6277      7291      7294
 -2      7295      6148      6274      7420      7424      6278      7422      7425      7426      6279
 -1      1530    4    0    1
 -2      6146      7292      7296      6150      6277      7423      7427      6281      7295      7298
 -2      7299      6152      6278      7424      7428      6282      7426      7429      7430      6283
 -1      1531    4    0    1
 -2      6150      7296      7300      6154      6281      7427      7431      6285      7299      7302
 -2      7303      6156      6282      7428      7432      6286      7430      7433      7434      6287
 -1      1532    4    0    1
 -2      6154      7300      7304      6158      6285      7431      7435      6289      7303      7306
 -2      7307      6160      6286      7432      7436      6290      7434      7437      7438      6291
 -1      1533    4    0    1
 -2      6158      7304      7308      6162      6289      7435      7439      6293      7307      7310
 -2      7311      6164      6290      7436      7440      6294      7438      7441      7442      6295
 -1      1534    4    0    1
 -2      6162      7308      7312      6166      6293      7439      7443      6297      7311      7314
 -2      7315      6168      6294      7440      7444      6298      7442      7445      7446      6299
 -1      1535    4    0    1
 -2      6166      7312      7316      6170      6297      7443      7447      6301      7315      7318
 -2      7319      6172      6298      7444      7448      6302      7446      7449      7450      6303
 -1      1536    4    0    1
 -2      6170      7316      7320      6174      6301      7447      7451      6305      7319      7322
 -2      7323      6176      6302      7448      7452      6306      7450      7453      7454      6307
 -1      1537    4    0    1
 -2      6174      7320      7324      6178      6305      7451      7455      6309      7323      7326
 -2      7327      6180      6306      7452      7456      6310      7454      7457      7458      6311
 -1      1538    4    0    1
 -2      6178      7324      7328      6182      6309      7455      7459      6313      7327      7330
 -2      7331      6184      6310      7456      7460      6314      7458      7461      7462      6315
 -1      1539    4    0    1
 -2      6182      7328      7332      6186      6313      7459      7463      6317      7331      7334
 -2      7335      6188      6314      7460      7464      6318      7462      7465      7466      6319
 -1      1540    4    0    1
 -2      6186      7332      7336      6190      6317      7463      7467      6321      7335      7338
 -2      7339      6192      6318      7464      7468      6322      7466      7469      7470      6323
 -1      1541    4    0    1
 -2      6190      7336      7340      6194      6321      7467      7471      6325      7339      7342
 -2      7343      6196      6322      7468      7472      6326      7470      7473      7474      6327
 -1      1542    4    0    1
 -2      6194      7340      7344      6198      6325      7471      7475      6329      7343      7346
 -2      7347      6200      6326      7472      7476      6330      7474      7477      7478      6331
 -1      1543    4    0    1
 -2      6198      7344      7348      6202      6329      7475      7479      6333      7347      7350
 -2      7351      6204      6330      7476      7480      6334      7478      7481      7482      6335
 -1      1544    4    0    1
 -2      6202      7348      7352      6206      6333      7479      7483      6337      7351      7354
 -2      7355      6208      6334      7480      7484      6338      7482      7485      7486      6339
 -1      1545    4    0    1
 -2      6206      7352      7356      6210      6337      7483      7487      6341      7355      7358
 -2      7359      6212      6338      7484      7488      6342      7486      7489      7490      6343
 -1      1546    4    0    1
 -2      6210      7356      7360      6214      6341      7487      7491      6345      7359      7362
 -2      7363      6216      6342      7488      7492      6346      7490      7493      7494      6347
 -1      1547    4    0    1
 -2      6214      7360      7364      6218      6345      7491      7495      6349      7363      7366
 -2      7367      6220      6346      7492      7496      6350      7494      7497      7498      6351
 -1      1548    4    0    1
 -2      6218      7364      7368      6222      6349      7495      7499      6353      7367      7370
 -2      7371      6224      6350      7496      7500      6354      7498      7501      7502      6355
 -1      1549    4    0    1
 -2      6222      7368      7372      6226      6353      7499      7503      6357      7371      7374
 -2      7375      6228      6354      7500      7504      6358      7502      7505      7506      6359
 -1      1550    4    0    1
 -2      6226      7372      7376      6230      6357      7503      7507      6361      7375      7378
 -2      7379      6232      6358      7504      7508      6362      7506      7509      7510      6363
 -1      1551    4    0    1
 -2      6230      7376      7380      6234      6361      7507      7511      6365      7379      7382
 -2      7383      6236      6362      7508      7512      6366      7510      7513      7514      6367
 -1      1552    4    0    1
 -2      6234      7380      7384      6238      6365      7511      7515      6369      7383      7386
 -2      7387      6240      6366      7512      7516      6370      7514      7517      7518      6371
 -1      1553    4    0    1
 -2      6242      7388      7389      6243      6373      7519      7520      6374      7392      7393
 -2      7394      6247      6375      7521      7522      6376      7523      7524      7525      6378
 -1      1554    4    0    1
 -2      6243      7389      7395      6249      6374      7520      7526      6380      7394      7397
 -2      7398      6251      6376      7522      7527      6381      7525      7528      7529      6382
 -1      1555    4    0    1
 -2      6249      7395      7399      6253      6380      7526      7530      6384      7398      7401
 -2      7402      6255      6381      7527      7531      6385      7529      7532      7533      6386
 -1      1556    4    0    1
 -2      6253      7399      7403      6257      6384      7530      7534      6388      7402      7405
 -2      7406      6259      6385      7531      7535      6389      7533      7536      7537      6390
 -1      1557    4    0    1
 -2      6257      7403      7407      6261      6388      7534      7538      6392      7406      7409
 -2      7410      6263      6389      7535      7539      6393      7537      7540      7541      6394
 -1      1558    4    0    1
 -2      6261      7407      7411      6265      6392      7538      7542      6396      7410      7413
 -2      7414      6267      6393      7539      7543      6397      7541      7544      7545      6398
 -1      1559    4    0    1
 -2      6265      7411      7415      6269      6396      7542      7546      6400      7414      7417
 -2      7418      6271      6397      7543      7547      6401      7545      7548      7549      6402
 -1      1560    4    0    1
 -2      6269      7415      7419      6273      6400      7546      7550      6404      7418      7421
 -2      7422      6275      6401      7547      7551      6405      7549      7552      7553      6406
 -1      1561    4    0    1
 -2      6273      7419      7423      6277      6404      7550      7554      6408      7422      7425
 -2      7426      6279      6405      7551      7555      6409      7553      7556      7557      6410
 -1      1562    4    0    1
 -2      6277      7423      7427      6281      6408      7554      7558      6412      7426      7429
 -2      7430      6283      6409      7555      7559      6413      7557      7560      7561      6414
 -1      1563    4    0    1
 -2      6281      7427      7431      6285      6412      7558      7562      6416      7430      7433
 -2      7434      6287      6413      7559      7563      6417      7561      7564      7565      6418
 -1      1564    4    0    1
 -2      6285      7431      7435      6289      6416      7562      7566      6420      7434      7437
 -2      7438      6291      6417      7563      7567      6421      7565      7568      7569      6422
 -1      1565    4    0    1
 -2      6289      7435      7439      6293      6420      7566      7570      6424      7438      7441
 -2      7442      6295      6421      7567      7571      6425      7569      7572      7573      6426
 -1      1566    4    0    1
 -2      6293      7439      7443      6297      6424      7570      7574      6428      7442      7445
 -2      7446      6299      6425      7571      7575      6429      7573      7576      7577      6430
 -1      1567    4    0    1
 -2      6297      7443      7447      6301      6428      7574      7578      6432      7446      7449
 -2      7450      6303      6429      7575      7579      6433      7577      7580      7581      6434
 -1      1568    4    0    1
 -2      6301      7447      7451      6305      6432      7578      7582      6436      7450      7453
 -2      7454      6307      6433      7579      7583      6437      7581      7584      7585      6438
 -1      1569    4    0    1
 -2      6305      7451      7455      6309      6436      7582      7586      6440      7454      7457
 -2      7458      6311      6437      7583      7587      6441      7585      7588      7589      6442
 -1      1570    4    0    1
 -2      6309      7455      7459      6313      6440      7586      7590      6444      7458      7461
 -2      7462      6315      6441      7587      7591      6445      7589      7592      7593      6446
 -1      1571    4    0    1
 -2      6313      7459      7463      6317      6444      7590      7594      6448      7462      7465
 -2      7466      6319      6445      7591      7595      6449      7593      7596      7597      6450
 -1      1572    4    0    1
 -2      6317      7463      7467      6321      6448      7594      7598      6452      7466      7469
 -2      7470      6323      6449      7595      7599      6453      7597      7600      7601      6454
 -1      1573    4    0    1
 -2      6321      7467      7471      6325      6452      7598      7602      6456      7470      7473
 -2      7474      6327      6453      7599      7603      6457      7601      7604      7605      6458
 -1      1574    4    0    1
 -2      6325      7471      7475      6329      6456      7602      7606      6460      7474      7477
 -2      7478      6331      6457      7603      7607      6461      7605      7608      7609      6462
 -1      1575    4    0    1
 -2      6329      7475      7479      6333      6460      7606      7610      6464      7478      7481
 -2      7482      6335      6461      7607      7611      6465      7609      7612      7613      6466
 -1      1576    4    0    1
 -2      6333      7479      7483      6337      6464      7610      7614      6468      7482      7485
 -2      7486      6339      6465      7611      7615      6469      7613      7616      7617      6470
 -1      1577    4    0    1
 -2      6337      7483      7487      6341      6468      7614      7618      6472      7486      7489
 -2      7490      6343      6469      7615      7619      6473      7617      7620      7621      6474
 -1      1578    4    0    1
 -2      6341      7487      7491      6345      6472      7618      7622      6476      7490      7493
 -2      7494      6347      6473      7619      7623      6477      7621      7624      7625      6478
 -1      1579    4    0    1
 -2      6345      7491      7495      6349      6476      7622      7626      6480      7494      7497
 -2      7498      6351      6477      7623      7627      6481      7625      7628      7629      6482
 -1      1580    4    0    1
 -2      6349      7495      7499      6353      6480      7626      7630      6484      7498      7501
 -2      7502      6355      6481      7627      7631      6485      7629      7632      7633      6486
 -1      1581    4    0    1
 -2      6353      7499      7503      6357      6484      7630      7634      6488      7502      7505
 -2      7506      6359      6485      7631      7635      6489      7633      7636      7637      6490
 -1      1582    4    0    1
 -2      6357      7503      7507      6361      6488      7634      7638      6492      7506      7509
 -2      7510      6363      6489      7635      7639      6493      7637      7640      7641      6494
 -1      1583    4    0    1
 -2      6361      7507      7511      6365      6492      7638      7642      6496      7510      7513
 -2      7514      6367      6493      7639      7643      6497      7641      7644      7645      6498
 -1      1584    4    0    1
 -2      6365      7511      7515      6369      6496      7642      7646      6500      7514      7517
 -2      7518      6371      6497      7643      7647      6501      7645      7648      7649      6502
 -1      1585    4    0    1
 -2      6373      7519      7520      6374      6504      7650      7651      6505      7523      7524
 -2      7525      6378      6506      7652      7653      6507      7654      7655      7656      6509
 -1      1586    4    0    1
 -2      6374      7520      7526      6380      6505      7651      7657      6511      7525      7528
 -2      7529      6382      6507      7653      7658      6512      7656      7659      7660      6513
 -1      1587    4    0    1
 -2      6380      7526      7530      6384      6511      7657      7661      6515      7529      7532
 -2      7533      6386      6512      7658      7662      6516      7660      7663      7664      6517
 -1      1588    4    0    1
 -2      6384      7530      7534      6388      6515      7661      7665      6519      7533      7536
 -2      7537      6390      6516      7662      7666      6520      7664      7667      7668      6521
 -1      1589    4    0    1
 -2      6388      7534      7538      6392      6519      7665      7669      6523      7537      7540
 -2      7541      6394      6520      7666      7670      6524      7668      7671      7672      6525
 -1      1590    4    0    1
 -2      6392      7538      7542      6396      6523      7669      7673      6527      7541      7544
 -2      7545      6398      6524      7670      7674      6528      7672      7675      7676      6529
 -1      1591    4    0    1
 -2      6396      7542      7546      6400      6527      7673      7677      6531      7545      7548
 -2      7549      6402      6528      7674      7678      6532      7676      7679      7680      6533
 -1      1592    4    0    1
 -2      6400      7546      7550      6404      6531      7677      7681      6535      7549      7552
 -2      7553      6406      6532      7678      7682      6536      7680      7683      7684      6537
 -1      1593    4    0    1
 -2      6404      7550      7554      6408      6535      7681      7685      6539      7553      7556
 -2      7557      6410      6536      7682      7686      6540      7684      7687      7688      6541
 -1      1594    4    0    1
 -2      6408      7554      7558      6412      6539      7685      7689      6543      7557      7560
 -2      7561      6414      6540      7686      7690      6544      7688      7691      7692      6545
 -1      1595    4    0    1
 -2      6412      7558      7562      6416      6543      7689      7693      6547      7561      7564
 -2      7565      6418      6544      7690      7694      6548      7692      7695      7696      6549
 -1      1596    4    0    1
 -2      6416      7562      7566      6420      6547      7693      7697      6551      7565      7568
 -2      7569      6422      6548      7694      7698      6552      7696      7699      7700      6553
 -1      1597    4    0    1
 -2      6420      7566      7570      6424      6551      7697      7701      6555      7569      7572
 -2      7573      6426      6552      7698      7702      6556      7700      7703      7704      6557
 -1      1598    4    0    1
 -2      6424      7570      7574      6428      6555      7701      7705      6559      7573      7576
 -2      7577      6430      6556      7702      7706      6560      7704      7707      7708      6561
 -1      1599    4    0    1
 -2      6428      7574      7578      6432      6559      7705      7709      6563      7577      7580
 -2      7581      6434      6560      7706      7710      6564      7708      7711      7712      6565
 -1      1600    4    0    1
 -2      6432      7578      7582      6436      6563      7709      7713      6567      7581      7584
 -2      7585      6438      6564      7710      7714      6568      7712      7715      7716      6569
 -1      1601    4    0    1
 -2      6436      7582      7586      6440      6567      7713      7717      6571      7585      7588
 -2      7589      6442      6568      7714      7718      6572      7716      7719      7720      6573
 -1      1602    4    0    1
 -2      6440      7586      7590      6444      6571      7717      7721      6575      7589      7592
 -2      7593      6446      6572      7718      7722      6576      7720      7723      7724      6577
 -1      1603    4    0    1
 -2      6444      7590      7594      6448      6575      7721      7725      6579      7593      7596
 -2      7597      6450      6576      7722      7726      6580      7724      7727      7728      6581
 -1      1604    4    0    1
 -2      6448      7594      7598      6452      6579      7725      7729      6583      7597      7600
 -2      7601      6454      6580      7726      7730      6584      7728      7731      7732      6585
 -1      1605    4    0    1
 -2      6452      7598      7602      6456      6583      7729      7733      6587      7601      7604
 -2      7605      6458      6584      7730      7734      6588      7732      7735      7736      6589
 -1      1606    4    0    1
 -2      6456      7602      7606      6460      6587      7733      7737      6591      7605      7608
 -2      7609      6462      6588      7734      7738      6592      7736      7739      7740      6593
 -1      1607    4    0    1
 -2      6460      7606      7610      6464      6591      7737      7741      6595      7609      7612
 -2      7613      6466      6592      7738      7742      6596      7740      7743      7744      6597
 -1      1608    4    0    1
 -2      6464      7610      7614      6468      6595      7741      7745      6599      7613      7616
 -2      7617      6470      6596      7742      7746      6600      7744      7747      7748      6601
 -1      1609    4    0    1
 -2      6468      7614      7618      6472      6599      7745      7749      6603      7617      7620
 -2      7621      6474      6600      7746      7750      6604      7748      7751      7752      6605
 -1      1610    4    0    1
 -2      6472      7618      7622      6476      6603      7749      7753      6607      7621      7624
 -2      7625      6478      6604      7750      7754      6608      7752      7755      7756      6609
 -1      1611    4    0    1
 -2      6476      7622      7626      6480      6607      7753      7757      6611      7625      7628
 -2      7629      6482      6608      7754      7758      6612      7756      7759      7760      6613
 -1      1612    4    0    1
 -2      6480      7626      7630      6484      6611      7757      7761      6615      7629      7632
 -2      7633      6486      6612      7758      7762      6616      7760      7763      7764      6617
 -1      1613    4    0    1
 -2      6484      7630      7634      6488      6615      7761      7765      6619      7633      7636
 -2      7637      6490      6616      7762      7766      6620      7764      7767      7768      6621
 -1      1614    4    0    1
 -2      6488      7634      7638      6492      6619      7765      7769      6623      7637      7640
 -2      7641      6494      6620      7766      7770      6624      7768      7771      7772      6625
 -1      1615    4    0    1
 -2      6492      7638      7642      6496      6623      7769      7773      6627      7641      7644
 -2      7645      6498      6624      7770      7774      6628      7772      7775      7776      6629
 -1      1616    4    0    1
 -2      6496      7642      7646      6500      6627      7773      7777      6631      7645      7648
 -2      7649      6502      6628      7774      7778      6632      7776      7779      7780      6633
 -1      1617    4    0    1
 -2      6635      7781      7782      6636      6637      7783      7784      6638      7785      7786
 -2      7787      6640      6642      7788      7789      6643      7790      7791      7792      6645
 -1      1618    4    0    1
 -2      6636      7782      7793      6647      6638      7784      7794      6648      7787      7795
 -2      7796      6649      6643      7789      7797      6651      7792      7798      7799      6652
 -1      1619    4    0    1
 -2      6647      7793      7800      6654      6648      7794      7801      6655      7796      7802
 -2      7803      6656      6651      7797      7804      6658      7799      7805      7806      6659
 -1      1620    4    0    1
 -2      6654      7800      7807      6661      6655      7801      7808      6662      7803      7809
 -2      7810      6663      6658      7804      7811      6665      7806      7812      7813      6666
 -1      1621    4    0    1
 -2      6661      7807      7814      6668      6662      7808      7815      6669      7810      7816
 -2      7817      6670      6665      7811      7818      6672      7813      7819      7820      6673
 -1      1622    4    0    1
 -2      6668      7814      7821      6675      6669      7815      7822      6676      7817      7823
 -2      7824      6677      6672      7818      7825      6679      7820      7826      7827      6680
 -1      1623    4    0    1
 -2      6675      7821      7828      6682      6676      7822      7829      6683      7824      7830
 -2      7831      6684      6679      7825      7832      6686      7827      7833      7834      6687
 -1      1624    4    0    1
 -2      6682      7828      7835      6689      6683      7829      7836      6690      7831      7837
 -2      7838      6691      6686      7832      7839      6693      7834      7840      7841      6694
 -1      1625    4    0    1
 -2      6689      7835      7842      6696      6690      7836      7843      6697      7838      7844
 -2      7845      6698      6693      7839      7846      6700      7841      7847      7848      6701
 -1      1626    4    0    1
 -2      6696      7842      7849      6703      6697      7843      7850      6704      7845      7851
 -2      7852      6705      6700      7846      7853      6707      7848      7854      7855      6708
 -1      1627    4    0    1
 -2      6703      7849      7856      6710      6704      7850      7857      6711      7852      7858
 -2      7859      6712      6707      7853      7860      6714      7855      7861      7862      6715
 -1      1628    4    0    1
 -2      6710      7856      7863      6717      6711      7857      7864      6718      7859      7865
 -2      7866      6719      6714      7860      7867      6721      7862      7868      7869      6722
 -1      1629    4    0    1
 -2      6717      7863      7870      6724      6718      7864      7871      6725      7866      7872
 -2      7873      6726      6721      7867      7874      6728      7869      7875      7876      6729
 -1      1630    4    0    1
 -2      6724      7870      7877      6731      6725      7871      7878      6732      7873      7879
 -2      7880      6733      6728      7874      7881      6735      7876      7882      7883      6736
 -1      1631    4    0    1
 -2      6731      7877      7884      6738      6732      7878      7885      6739      7880      7886
 -2      7887      6740      6735      7881      7888      6742      7883      7889      7890      6743
 -1      1632    4    0    1
 -2      6738      7884      7891      6745      6739      7885      7892      6746      7887      7893
 -2      7894      6747      6742      7888      7895      6749      7890      7896      7897      6750
 -1      1633    4    0    1
 -2      6745      7891      7898      6752      6746      7892      7899      6753      7894      7900
 -2      7901      6754      6749      7895      7902      6756      7897      7903      7904      6757
 -1      1634    4    0    1
 -2      6752      7898      7905      6759      6753      7899      7906      6760      7901      7907
 -2      7908      6761      6756      7902      7909      6763      7904      7910      7911      6764
 -1      1635    4    0    1
 -2      6759      7905      7912      6766      6760      7906      7913      6767      7908      7914
 -2      7915      6768      6763      7909      7916      6770      7911      7917      7918      6771
 -1      1636    4    0    1
 -2      6766      7912      7919      6773      6767      7913      7920      6774      7915      7921
 -2      7922      6775      6770      7916      7923      6777      7918      7924      7925      6778
 -1      1637    4    0    1
 -2      6773      7919      7926      6780      6774      7920      7927      6781      7922      7928
 -2      7929      6782      6777      7923      7930      6784      7925      7931      7932      6785
 -1      1638    4    0    1
 -2      6780      7926      7933      6787      6781      7927      7934      6788      7929      7935
 -2      7936      6789      6784      7930      7937      6791      7932      7938      7939      6792
 -1      1639    4    0    1
 -2      6787      7933      7940      6794      6788      7934      7941      6795      7936      7942
 -2      7943      6796      6791      7937      7944      6798      7939      7945      7946      6799
 -1      1640    4    0    1
 -2      6794      7940      7947      6801      6795      7941      7948      6802      7943      7949
 -2      7950      6803      6798      7944      7951      6805      7946      7952      7953      6806
 -1      1641    4    0    1
 -2      6801      7947      7954      6808      6802      7948      7955      6809      7950      7956
 -2      7957      6810      6805      7951      7958      6812      7953      7959      7960      6813
 -1      1642    4    0    1
 -2      6808      7954      7961      6815      6809      7955      7962      6816      7957      7963
 -2      7964      6817      6812      7958      7965      6819      7960      7966      7967      6820
 -1      1643    4    0    1
 -2      6815      7961      7968      6822      6816      7962      7969      6823      7964      7970
 -2      7971      6824      6819      7965      7972      6826      7967      7973      7974      6827
 -1      1644    4    0    1
 -2      6822      7968      7975      6829      6823      7969      7976      6830      7971      7977
 -2      7978      6831      6826      7972      7979      6833      7974      7980      7981      6834
 -1      1645    4    0    1
 -2      6829      7975      7982      6836      6830      7976      7983      6837      7978      7984
 -2      7985      6838      6833      7979      7986      6840      7981      7987      7988      6841
 -1      1646    4    0    1
 -2      6836      7982      7989      6843      6837      7983      7990      6844      7985      7991
 -2      7992      6845      6840      7986      7993      6847      7988      7994      7995      6848
 -1      1647    4    0    1
 -2      6843      7989      7996      6850      6844      7990      7997      6851      7992      7998
 -2      7999      6852      6847      7993      8000      6854      7995      8001      8002      6855
 -1      1648    4    0    1
 -2      6850      7996      8003      6857      6851      7997      8004      6858      7999      8005
 -2      8006      6859      6854      8000      8007      6861      8002      8008      8009      6862
 -1      1649    4    0    1
 -2      6637      7783      7784      6638      6864      8010      8011      6865      7790      7791
 -2      7792      6645      6866      8012      8013      6867      8014      8015      8016      6869
 -1      1650    4    0    1
 -2      6638      7784      7794      6648      6865      8011      8017      6871      7792      7798
 -2      7799      6652      6867      8013      8018      6872      8016      8019      8020      6873
 -1      1651    4    0    1
 -2      6648      7794      7801      6655      6871      8017      8021      6875      7799      7805
 -2      7806      6659      6872      8018      8022      6876      8020      8023      8024      6877
 -1      1652    4    0    1
 -2      6655      7801      7808      6662      6875      8021      8025      6879      7806      7812
 -2      7813      6666      6876      8022      8026      6880      8024      8027      8028      6881
 -1      1653    4    0    1
 -2      6662      7808      7815      6669      6879      8025      8029      6883      7813      7819
 -2      7820      6673      6880      8026      8030      6884      8028      8031      8032      6885
 -1      1654    4    0    1
 -2      6669      7815      7822      6676      6883      8029      8033      6887      7820      7826
 -2      7827      6680      6884      8030      8034      6888      8032      8035      8036      6889
 -1      1655    4    0    1
 -2      6676      7822      7829      6683      6887      8033      8037      6891      7827      7833
 -2      7834      6687      6888      8034      8038      6892      8036      8039      8040      6893
 -1      1656    4    0    1
 -2      6683      7829      7836      6690      6891      8037      8041      6895      7834      7840
 -2      7841      6694      6892      8038      8042      6896      8040      8043      8044      6897
 -1      1657    4    0    1
 -2      6690      7836      7843      6697      6895      8041      8045      6899      7841      7847
 -2      7848      6701      6896      8042      8046      6900      8044      8047      8048      6901
 -1      1658    4    0    1
 -2      6697      7843      7850      6704      6899      8045      8049      6903      7848      7854
 -2      7855      6708      6900      8046      8050      6904      8048      8051      8052      6905
 -1      1659    4    0    1
 -2      6704      7850      7857      6711      6903      8049      8053      6907      7855      7861
 -2      7862      6715      6904      8050      8054      6908      8052      8055      8056      6909
 -1      1660    4    0    1
 -2      6711      7857      7864      6718      6907      8053      8057      6911      7862      7868
 -2      7869      6722      6908      8054      8058      6912      8056      8059      8060      6913
 -1      1661    4    0    1
 -2      6718      7864      7871      6725      6911      8057      8061      6915      7869      7875
 -2      7876      6729      6912      8058      8062      6916      8060      8063      8064      6917
 -1      1662    4    0    1
 -2      6725      7871      7878      6732      6915      8061      8065      6919      7876      7882
 -2      7883      6736      6916      8062      8066      6920      8064      8067      8068      6921
 -1      1663    4    0    1
 -2      6732      7878      7885      6739      6919      8065      8069      6923      7883      7889
 -2      7890      6743      6920      8066      8070      6924      8068      8071      8072      6925
 -1      1664    4    0    1
 -2      6739      7885      7892      6746      6923      8069      8073      6927      7890      7896
 -2      7897      6750      6924      8070      8074      6928      8072      8075      8076      6929
 -1      1665    4    0    1
 -2      6746      7892      7899      6753      6927      8073      8077      6931      7897      7903
 -2      7904      6757      6928      8074      8078      6932      8076      8079      8080      6933
 -1      1666    4    0    1
 -2      6753      7899      7906      6760      6931      8077      8081      6935      7904      7910
 -2      7911      6764      6932      8078      8082      6936      8080      8083      8084      6937
 -1      1667    4    0    1
 -2      6760      7906      7913      6767      6935      8081      8085      6939      7911      7917
 -2      7918      6771      6936      8082      8086      6940      8084      8087      8088      6941
 -1      1668    4    0    1
 -2      6767      7913      7920      6774      6939      8085      8089      6943      7918      7924
 -2      7925      6778      6940      8086      8090      6944      8088      8091      8092      6945
 -1      1669    4    0    1
 -2      6774      7920      7927      6781      6943      8089      8093      6947      7925      7931
 -2      7932      6785      6944      8090      8094      6948      8092      8095      8096      6949
 -1      1670    4    0    1
 -2      6781      7927      7934      6788      6947      8093      8097      6951      7932      7938
 -2      7939      6792      6948      8094      8098      6952      8096      8099      8100      6953
 -1      1671    4    0    1
 -2      6788      7934      7941      6795      6951      8097      8101      6955      7939      7945
 -2      7946      6799      6952      8098      8102      6956      8100      8103      8104      6957
 -1      1672    4    0    1
 -2      6795      7941      7948      6802      6955      8101      8105      6959      7946      7952
 -2      7953      6806      6956      8102      8106      6960      8104      8107      8108      6961
 -1      1673    4    0    1
 -2      6802      7948      7955      6809      6959      8105      8109      6963      7953      7959
 -2      7960      6813      6960      8106      8110      6964      8108      8111      8112      6965
 -1      1674    4    0    1
 -2      6809      7955      7962      6816      6963      8109      8113      6967      7960      7966
 -2      7967      6820      6964      8110      8114      6968      8112      8115      8116      6969
 -1      1675    4    0    1
 -2      6816      7962      7969      6823      6967      8113      8117      6971      7967      7973
 -2      7974      6827      6968      8114      8118      6972      8116      8119      8120      6973
 -1      1676    4    0    1
 -2      6823      7969      7976      6830      6971      8117      8121      6975      7974      7980
 -2      7981      6834      6972      8118      8122      6976      8120      8123      8124      6977
 -1      1677    4    0    1
 -2      6830      7976      7983      6837      6975      8121      8125      6979      7981      7987
 -2      7988      6841      6976      8122      8126      6980      8124      8127      8128      6981
 -1      1678    4    0    1
 -2      6837      7983      7990      6844      6979      8125      8129      6983      7988      7994
 -2      7995      6848      6980      8126      8130      6984      8128      8131      8132      6985
 -1      1679    4    0    1
 -2      6844      7990      7997      6851      6983      8129      8133      6987      7995      8001
 -2      8002      6855      6984      8130      8134      6988      8132      8135      8136      6989
 -1      1680    4    0    1
 -2      6851      7997      8004      6858      6987      8133      8137      6991      8002      8008
 -2      8009      6862      6988      8134      8138      6992      8136      8139      8140      6993
 -1      1681    4    0    1
 -2      6864      8010      8011      6865      6995      8141      8142      6996      8014      8015
 -2      8016      6869      6997      8143      8144      6998      8145      8146      8147      7000
 -1      1682    4    0    1
 -2      6865      8011      8017      6871      6996      8142      8148      7002      8016      8019
 -2      8020      6873      6998      8144      8149      7003      8147      8150      8151      7004
 -1      1683    4    0    1
 -2      6871      8017      8021      6875      7002      8148      8152      7006      8020      8023
 -2      8024      6877      7003      8149      8153      7007      8151      8154      8155      7008
 -1      1684    4    0    1
 -2      6875      8021      8025      6879      7006      8152      8156      7010      8024      8027
 -2      8028      6881      7007      8153      8157      7011      8155      8158      8159      7012
 -1      1685    4    0    1
 -2      6879      8025      8029      6883      7010      8156      8160      7014      8028      8031
 -2      8032      6885      7011      8157      8161      7015      8159      8162      8163      7016
 -1      1686    4    0    1
 -2      6883      8029      8033      6887      7014      8160      8164      7018      8032      8035
 -2      8036      6889      7015      8161      8165      7019      8163      8166      8167      7020
 -1      1687    4    0    1
 -2      6887      8033      8037      6891      7018      8164      8168      7022      8036      8039
 -2      8040      6893      7019      8165      8169      7023      8167      8170      8171      7024
 -1      1688    4    0    1
 -2      6891      8037      8041      6895      7022      8168      8172      7026      8040      8043
 -2      8044      6897      7023      8169      8173      7027      8171      8174      8175      7028
 -1      1689    4    0    1
 -2      6895      8041      8045      6899      7026      8172      8176      7030      8044      8047
 -2      8048      6901      7027      8173      8177      7031      8175      8178      8179      7032
 -1      1690    4    0    1
 -2      6899      8045      8049      6903      7030      8176      8180      7034      8048      8051
 -2      8052      6905      7031      8177      8181      7035      8179      8182      8183      7036
 -1      1691    4    0    1
 -2      6903      8049      8053      6907      7034      8180      8184      7038      8052      8055
 -2      8056      6909      7035      8181      8185      7039      8183      8186      8187      7040
 -1      1692    4    0    1
 -2      6907      8053      8057      6911      7038      8184      8188      7042      8056      8059
 -2      8060      6913      7039      8185      8189      7043      8187      8190      8191      7044
 -1      1693    4    0    1
 -2      6911      8057      8061      6915      7042      8188      8192      7046      8060      8063
 -2      8064      6917      7043      8189      8193      7047      8191      8194      8195      7048
 -1      1694    4    0    1
 -2      6915      8061      8065      6919      7046      8192      8196      7050      8064      8067
 -2      8068      6921      7047      8193      8197      7051      8195      8198      8199      7052
 -1      1695    4    0    1
 -2      6919      8065      8069      6923      7050      8196      8200      7054      8068      8071
 -2      8072      6925      7051      8197      8201      7055      8199      8202      8203      7056
 -1      1696    4    0    1
 -2      6923      8069      8073      6927      7054      8200      8204      7058      8072      8075
 -2      8076      6929      7055      8201      8205      7059      8203      8206      8207      7060
 -1      1697    4    0    1
 -2      6927      8073      8077      6931      7058      8204      8208      7062      8076      8079
 -2      8080      6933      7059      8205      8209      7063      8207      8210      8211      7064
 -1      1698    4    0    1
 -2      6931      8077      8081      6935      7062      8208      8212      7066      8080      8083
 -2      8084      6937      7063      8209      8213      7067      8211      8214      8215      7068
 -1      1699    4    0    1
 -2      6935      8081      8085      6939      7066      8212      8216      7070      8084      8087
 -2      8088      6941      7067      8213      8217      7071      8215      8218      8219      7072
 -1      1700    4    0    1
 -2      6939      8085      8089      6943      7070      8216      8220      7074      8088      8091
 -2      8092      6945      7071      8217      8221      7075      8219      8222      8223      7076
 -1      1701    4    0    1
 -2      6943      8089      8093      6947      7074      8220      8224      7078      8092      8095
 -2      8096      6949      7075      8221      8225      7079      8223      8226      8227      7080
 -1      1702    4    0    1
 -2      6947      8093      8097      6951      7078      8224      8228      7082      8096      8099
 -2      8100      6953      7079      8225      8229      7083      8227      8230      8231      7084
 -1      1703    4    0    1
 -2      6951      8097      8101      6955      7082      8228      8232      7086      8100      8103
 -2      8104      6957      7083      8229      8233      7087      8231      8234      8235      7088
 -1      1704    4    0    1
 -2      6955      8101      8105      6959      7086      8232      8236      7090      8104      8107
 -2      8108      6961      7087      8233      8237      7091      8235      8238      8239      7092
 -1      1705    4    0    1
 -2      6959      8105      8109      6963      7090      8236      8240      7094      8108      8111
 -2      8112      6965      7091      8237      8241      7095      8239      8242      8243      7096
 -1      1706    4    0    1
 -2      6963      8109      8113      6967      7094      8240      8244      7098      8112      8115
 -2      8116      6969      7095      8241      8245      7099      8243      8246      8247      7100
 -1      1707    4    0    1
 -2      6967      8113      8117      6971      7098      8244      8248      7102      8116      8119
 -2      8120      6973      7099      8245      8249      7103      8247      8250      8251      7104
 -1      1708    4    0    1
 -2      6971      8117      8121      6975      7102      8248      8252      7106      8120      8123
 -2      8124      6977      7103      8249      8253      7107      8251      8254      8255      7108
 -1      1709    4    0    1
 -2      6975      8121      8125      6979      7106      8252      8256      7110      8124      8127
 -2      8128      6981      7107      8253      8257      7111      8255      8258      8259      7112
 -1      1710    4    0    1
 -2      6979      8125      8129      6983      7110      8256      8260      7114      8128      8131
 -2      8132      6985      7111      8257      8261      7115      8259      8262      8263      7116
 -1      1711    4    0    1
 -2      6983      8129      8133      6987      7114      8260      8264      7118      8132      8135
 -2      8136      6989      7115      8261      8265      7119      8263      8266      8267      7120
 -1      1712    4    0    1
 -2      6987      8133      8137      6991      7118      8264      8268      7122      8136      8139
 -2      8140      6993      7119      8265      8269      7123      8267      8270      8271      7124
 -1      1713    4    0    1
 -2      6995      8141      8142      6996      7126      8272      8273      7127      8145      8146
 -2      8147      7000      7128      8274      8275      7129      8276      8277      8278      7131
 -1      1714    4    0    1
 -2      6996      8142      8148      7002      7127      8273      8279      7133      8147      8150
 -2      8151      7004      7129      8275      8280      7134      8278      8281      8282      7135
 -1      1715    4    0    1
 -2      7002      8148      8152      7006      7133      8279      8283      7137      8151      8154
 -2      8155      7008      7134      8280      8284      7138      8282      8285      8286      7139
 -1      1716    4    0    1
 -2      7006      8152      8156      7010      7137      8283      8287      7141      8155      8158
 -2      8159      7012      7138      8284      8288      7142      8286      8289      8290      7143
 -1      1717    4    0    1
 -2      7010      8156      8160      7014      7141      8287      8291      7145      8159      8162
 -2      8163      7016      7142      8288      8292      7146      8290      8293      8294      7147
 -1      1718    4    0    1
 -2      7014      8160      8164      7018      7145      8291      8295      7149      8163      8166
 -2      8167      7020      7146      8292      8296      7150      8294      8297      8298      7151
 -1      1719    4    0    1
 -2      7018      8164      8168      7022      7149      8295      8299      7153      8167      8170
 -2      8171      7024      7150      8296      8300      7154      8298      8301      8302      7155
 -1      1720    4    0    1
 -2      7022      8168      8172      7026      7153      8299      8303      7157      8171      8174
 -2      8175      7028      7154      8300      8304      7158      8302      8305      8306      7159
 -1      1721    4    0    1
 -2      7026      8172      8176      7030      7157      8303      8307      7161      8175      8178
 -2      8179      7032      7158      8304      8308      7162      8306      8309      8310      7163
 -1      1722    4    0    1
 -2      7030      8176      8180      7034      7161      8307      8311      7165      8179      8182
 -2      8183      7036      7162      8308      8312      7166      8310      8313      8314      7167
 -1      1723    4    0    1
 -2      7034      8180      8184      7038      7165      8311      8315      7169      8183      8186
 -2      8187      7040      7166      8312      8316      7170      8314      8317      8318      7171
 -1      1724    4    0    1
 -2      7038      8184      8188      7042      7169      8315      8319      7173      8187      8190
 -2      8191      7044      7170      8316      8320      7174      8318      8321      8322      7175
 -1      1725    4    0    1
 -2      7042      8188      8192      7046      7173      8319      8323      7177      8191      8194
 -2      8195      7048      7174      8320      8324      7178      8322      8325      8326      7179
 -1      1726    4    0    1
 -2      7046      8192      8196      7050      7177      8323      8327      7181      8195      8198
 -2      8199      7052      7178      8324      8328      7182      8326      8329      8330      7183
 -1      1727    4    0    1
 -2      7050      8196      8200      7054      7181      8327      8331      7185      8199      8202
 -2      8203      7056      7182      8328      8332      7186      8330      8333      8334      7187
 -1      1728    4    0    1
 -2      7054      8200      8204      7058      7185      8331      8335      7189      8203      8206
 -2      8207      7060      7186      8332      8336      7190      8334      8337      8338      7191
 -1      1729    4    0    1
 -2      7058      8204      8208      7062      7189      8335      8339      7193      8207      8210
 -2      8211      7064      7190      8336      8340      7194      8338      8341      8342      7195
 -1      1730    4    0    1
 -2      7062      8208      8212      7066      7193      8339      8343      7197      8211      8214
 -2      8215      7068      7194      8340      8344      7198      8342      8345      8346      7199
 -1      1731    4    0    1
 -2      7066      8212      8216      7070      7197      8343      8347      7201      8215      8218
 -2      8219      7072      7198      8344      8348      7202      8346      8349      8350      7203
 -1      1732    4    0    1
 -2      7070      8216      8220      7074      7201      8347      8351      7205      8219      8222
 -2      8223      7076      7202      8348      8352      7206      8350      8353      8354      7207
 -1      1733    4    0    1
 -2      7074      8220      8224      7078      7205      8351      8355      7209      8223      8226
 -2      8227      7080      7206      8352      8356      7210      8354      8357      8358      7211
 -1      1734    4    0    1
 -2      7078      8224      8228      7082      7209      8355      8359      7213      8227      8230
 -2      8231      7084      7210      8356      8360      7214      8358      8361      8362      7215
 -1      1735    4    0    1
 -2      7082      8228      8232      7086      7213      8359      8363      7217      8231      8234
 -2      8235      7088      7214      8360      8364      7218      8362      8365      8366      7219
 -1      1736    4    0    1
 -2      7086      8232      8236      7090      7217      8363      8367      7221      8235      8238
 -2      8239      7092      7218      8364      8368      7222      8366      8369      8370      7223
 -1      1737    4    0    1
 -2      7090      8236      8240      7094      7221      8367      8371      7225      8239      8242
 -2      8243      7096      7222      8368      8372      7226      8370      8373      8374      7227
 -1      1738    4    0    1
 -2      7094      8240      8244      7098      7225      8371      8375      7229      8243      8246
 -2      8247      7100      7226      8372      8376      7230      8374      8377      8378      7231
 -1      1739    4    0    1
 -2      7098      8244      8248      7102      7229      8375      8379      7233      8247      8250
 -2      8251      7104      7230      8376      8380      7234      8378      8381      8382      7235
 -1      1740    4    0    1
 -2      7102      8248      8252      7106      7233      8379      8383      7237      8251      8254
 -2      8255      7108      7234      8380      8384      7238      8382      8385      8386      7239
 -1      1741    4    0    1
 -2      7106      8252      8256      7110      7237      8383      8387      7241      8255      8258
 -2      8259      7112      7238      8384      8388      7242      8386      8389      8390      7243
 -1      1742    4    0    1
 -2      7110      8256      8260      7114      7241      8387      8391      7245      8259      8262
 -2      8263      7116      7242      8388      8392      7246      8390      8393      8394      7247
 -1      1743    4    0    1
 -2      7114      8260      8264      7118      7245      8391      8395      7249      8263      8266
 -2      8267      7120      7246      8392      8396      7250      8394      8397      8398      7251
 -1      1744    4    0    1
 -2      7118      8264      8268      7122      7249      8395      8399      7253      8267      8270
 -2      8271      7124      7250      8396      8400      7254      8398      8401      8402      7255
 -1      1745    4    0    1
 -2      7126      8272      8273      7127      7257      8403      8404      7258      8276      8277
 -2      8278      7131      7259      8405      8406      7260      8407      8408      8409      7262
 -1      1746    4    0    1
 -2      7127      8273      8279      7133      7258      8404      8410      7264      8278      8281
 -2      8282      7135      7260      8406      8411      7265      8409      8412      8413      7266
 -1      1747    4    0    1
 -2      7133      8279      8283      7137      7264      8410      8414      7268      8282      8285
 -2      8286      7139      7265      8411      8415      7269      8413      8416      8417      7270
 -1      1748    4    0    1
 -2      7137      8283      8287      7141      7268      8414      8418      7272      8286      8289
 -2      8290      7143      7269      8415      8419      7273      8417      8420      8421      7274
 -1      1749    4    0    1
 -2      7141      8287      8291      7145      7272      8418      8422      7276      8290      8293
 -2      8294      7147      7273      8419      8423      7277      8421      8424      8425      7278
 -1      1750    4    0    1
 -2      7145      8291      8295      7149      7276      8422      8426      7280      8294      8297
 -2      8298      7151      7277      8423      8427      7281      8425      8428      8429      7282
 -1      1751    4    0    1
 -2      7149      8295      8299      7153      7280      8426      8430      7284      8298      8301
 -2      8302      7155      7281      8427      8431      7285      8429      8432      8433      7286
 -1      1752    4    0    1
 -2      7153      8299      8303      7157      7284      8430      8434      7288      8302      8305
 -2      8306      7159      7285      8431      8435      7289      8433      8436      8437      7290
 -1      1753    4    0    1
 -2      7157      8303      8307      7161      7288      8434      8438      7292      8306      8309
 -2      8310      7163      7289      8435      8439      7293      8437      8440      8441      7294
 -1      1754    4    0    1
 -2      7161      8307      8311      7165      7292      8438      8442      7296      8310      8313
 -2      8314      7167      7293      8439      8443      7297      8441      8444      8445      7298
 -1      1755    4    0    1
 -2      7165      8311      8315      7169      7296      8442      8446      7300      8314      8317
 -2      8318      7171      7297      8443      8447      7301      8445      8448      8449      7302
 -1      1756    4    0    1
 -2      7169      8315      8319      7173      7300      8446      8450      7304      8318      8321
 -2      8322      7175      7301      8447      8451      7305      8449      8452      8453      7306
 -1      1757    4    0    1
 -2      7173      8319      8323      7177      7304      8450      8454      7308      8322      8325
 -2      8326      7179      7305      8451      8455      7309      8453      8456      8457      7310
 -1      1758    4    0    1
 -2      7177      8323      8327      7181      7308      8454      8458      7312      8326      8329
 -2      8330      7183      7309      8455      8459      7313      8457      8460      8461      7314
 -1      1759    4    0    1
 -2      7181      8327      8331      7185      7312      8458      8462      7316      8330      8333
 -2      8334      7187      7313      8459      8463      7317      8461      8464      8465      7318
 -1      1760    4    0    1
 -2      7185      8331      8335      7189      7316      8462      8466      7320      8334      8337
 -2      8338      7191      7317      8463      8467      7321      8465      8468      8469      7322
 -1      1761    4    0    1
 -2      7189      8335      8339      7193      7320      8466      8470      7324      8338      8341
 -2      8342      7195      7321      8467      8471      7325      8469      8472      8473      7326
 -1      1762    4    0    1
 -2      7193      8339      8343      7197      7324      8470      8474      7328      8342      8345
 -2      8346      7199      7325      8471      8475      7329      8473      8476      8477      7330
 -1      1763    4    0    1
 -2      7197      8343      8347      7201      7328      8474      8478      7332      8346      8349
 -2      8350      7203      7329      8475      8479      7333      8477      8480      8481      7334
 -1      1764    4    0    1
 -2      7201      8347      8351      7205      7332      8478      8482      7336      8350      8353
 -2      8354      7207      7333      8479      8483      7337      8481      8484      8485      7338
 -1      1765    4    0    1
 -2      7205      8351      8355      7209      7336      8482      8486      7340      8354      8357
 -2      8358      7211      7337      8483      8487      7341      8485      8488      8489      7342
 -1      1766    4    0    1
 -2      7209      8355      8359      7213      7340      8486      8490      7344      8358      8361
 -2      8362      7215      7341      8487      8491      7345      8489      8492      8493      7346
 -1      1767    4    0    1
 -2      7213      8359      8363      7217      7344      8490      8494      7348      8362      8365
 -2      8366      7219      7345      8491      8495      7349      8493      8496      8497      7350
 -1      1768    4    0    1
 -2      7217      8363      8367      7221      7348      8494      8498      7352      8366      8369
 -2      8370      7223      7349      8495      8499      7353      8497      8500      8501      7354
 -1      1769    4    0    1
 -2      7221      8367      8371      7225      7352      8498      8502      7356      8370      8373
 -2      8374      7227      7353      8499      8503      7357      8501      8504      8505      7358
 -1      1770    4    0    1
 -2      7225      8371      8375      7229      7356      8502      8506      7360      8374      8377
 -2      8378      7231      7357      8503      8507      7361      8505      8508      8509      7362
 -1      1771    4    0    1
 -2      7229      8375      8379      7233      7360      8506      8510      7364      8378      8381
 -2      8382      7235      7361      8507      8511      7365      8509      8512      8513      7366
 -1      1772    4    0    1
 -2      7233      8379      8383      7237      7364      8510      8514      7368      8382      8385
 -2      8386      7239      7365      8511      8515      7369      8513      8516      8517      7370
 -1      1773    4    0    1
 -2      7237      8383      8387      7241      7368      8514      8518      7372      8386      8389
 -2      8390      7243      7369      8515      8519      7373      8517      8520      8521      7374
 -1      1774    4    0    1
 -2      7241      8387      8391      7245      7372      8518      8522      7376      8390      8393
 -2      8394      7247      7373      8519      8523      7377      8521      8524      8525      7378
 -1      1775    4    0    1
 -2      7245      8391      8395      7249      7376      8522      8526      7380      8394      8397
 -2      8398      7251      7377      8523      8527      7381      8525      8528      8529      7382
 -1      1776    4    0    1
 -2      7249      8395      8399      7253      7380      8526      8530      7384      8398      8401
 -2      8402      7255      7381      8527      8531      7385      8529      8532      8533      7386
 -1      1777    4    0    1
 -2      7257      8403      8404      7258      7388      8534      8535      7389      8407      8408
 -2      8409      7262      7390      8536      8537      7391      8538      8539      8540      7393
 -1      1778    4    0    1
 -2      7258      8404      8410      7264      7389      8535      8541      7395      8409      8412
 -2      8413      7266      7391      8537      8542      7396      8540      8543      8544      7397
 -1      1779    4    0    1
 -2      7264      8410      8414      7268      7395      8541      8545      7399      8413      8416
 -2      8417      7270      7396      8542      8546      7400      8544      8547      8548      7401
 -1      1780    4    0    1
 -2      7268      8414      8418      7272      7399      8545      8549      7403      8417      8420
 -2      8421      7274      7400      8546      8550      7404      8548      8551      8552      7405
 -1      1781    4    0    1
 -2      7272      8418      8422      7276      7403      8549      8553      7407      8421      8424
 -2      8425      7278      7404      8550      8554      7408      8552      8555      8556      7409
 -1      1782    4    0    1
 -2      7276      8422      8426      7280      7407      8553      8557      7411      8425      8428
 -2      8429      7282      7408      8554      8558      7412      8556      8559      8560      7413
 -1      1783    4    0    1
 -2      7280      8426      8430      7284      7411      8557      8561      7415      8429      8432
 -2      8433      7286      7412      8558      8562      7416      8560      8563      8564      7417
 -1      1784    4    0    1
 -2      7284      8430      8434      7288      7415      8561      8565      7419      8433      8436
 -2      8437      7290      7416      8562      8566      7420      8564      8567      8568      7421
 -1      1785    4    0    1
 -2      7288      8434      8438      7292      7419      8565      8569      7423      8437      8440
 -2      8441      7294      7420      8566      8570      7424      8568      8571      8572      7425
 -1      1786    4    0    1
 -2      7292      8438      8442      7296      7423      8569      8573      7427      8441      8444
 -2      8445      7298      7424      8570      8574      7428      8572      8575      8576      7429
 -1      1787    4    0    1
 -2      7296      8442      8446      7300      7427      8573      8577      7431      8445      8448
 -2      8449      7302      7428      8574      8578      7432      8576      8579      8580      7433
 -1      1788    4    0    1
 -2      7300      8446      8450      7304      7431      8577      8581      7435      8449      8452
 -2      8453      7306      7432      8578      8582      7436      8580      8583      8584      7437
 -1      1789    4    0    1
 -2      7304      8450      8454      7308      7435      8581      8585      7439      8453      8456
 -2      8457      7310      7436      8582      8586      7440      8584      8587      8588      7441
 -1      1790    4    0    1
 -2      7308      8454      8458      7312      7439      8585      8589      7443      8457      8460
 -2      8461      7314      7440      8586      8590      7444      8588      8591      8592      7445
 -1      1791    4    0    1
 -2      7312      8458      8462      7316      7443      8589      8593      7447      8461      8464
 -2      8465      7318      7444      8590      8594      7448      8592      8595      8596      7449
 -1      1792    4    0    1
 -2      7316      8462      8466      7320      7447      8593      8597      7451      8465      8468
 -2      8469      7322      7448      8594      8598      7452      8596      8599      8600      7453
 -1      1793    4    0    1
 -2      7320      8466      8470      7324      7451      8597      8601      7455      8469      8472
 -2      8473      7326      7452      8598      8602      7456      8600      8603      8604      7457
 -1      1794    4    0    1
 -2      7324      8470      8474      7328      7455      8601      8605      7459      8473      8476
 -2      8477      7330      7456      8602      8606      7460      8604      8607      8608      7461
 -1      1795    4    0    1
 -2      7328      8474      8478      7332      7459      8605      8609      7463      8477      8480
 -2      8481      7334      7460      8606      8610      7464      8608      8611      8612      7465
 -1      1796    4    0    1
 -2      7332      8478      8482      7336      7463      8609      8613      7467      8481      8484
 -2      8485      7338      7464      8610      8614      7468      8612      8615      8616      7469
 -1      1797    4    0    1
 -2      7336      8482      8486      7340      7467      8613      8617      7471      8485      8488
 -2      8489      7342      7468      8614      8618      7472      8616      8619      8620      7473
 -1      1798    4    0    1
 -2      7340      8486      8490      7344      7471      8617      8621      7475      8489      8492
 -2      8493      7346      7472      8618      8622      7476      8620      8623      8624      7477
 -1      1799    4    0    1
 -2      7344      8490      8494      7348      7475      8621      8625      7479      8493      8496
 -2      8497      7350      7476      8622      8626      7480      8624      8627      8628      7481
 -1      1800    4    0    1
 -2      7348      8494      8498      7352      7479      8625      8629      7483      8497      8500
 -2      8501      7354      7480      8626      8630      7484      8628      8631      8632      7485
 -1      1801    4    0    1
 -2      7352      8498      8502      7356      7483      8629      8633      7487      8501      8504
 -2      8505      7358      7484      8630      8634      7488      8632      8635      8636      7489
 -1      1802    4    0    1
 -2      7356      8502      8506      7360      7487      8633      8637      7491      8505      8508
 -2      8509      7362      7488      8634      8638      7492      8636      8639      8640      7493
 -1      1803    4    0    1
 -2      7360      8506      8510      7364      7491      8637      8641      7495      8509      8512
 -2      8513      7366      7492      8638      8642      7496      8640      8643      8644      7497
 -1      1804    4    0    1
 -2      7364      8510      8514      7368      7495      8641      8645      7499      8513      8516
 -2      8517      7370      7496      8642      8646      7500      8644      8647      8648      7501
 -1      1805    4    0    1
 -2      7368      8514      8518      7372      7499      8645      8649      7503      8517      8520
 -2      8521      7374      7500      8646      8650      7504      8648      8651      8652      7505
 -1      1806    4    0    1
 -2      7372      8518      8522      7376      7503      8649      8653      7507      8521      8524
 -2      8525      7378      7504      8650      8654      7508      8652      8655      8656      7509
 -1      1807    4    0    1
 -2      7376      8522      8526      7380      7507      8653      8657      7511      8525      8528
 -2      8529      7382      7508      8654      8658      7512      8656      8659      8660      7513
 -1      1808    4    0    1
 -2      7380      8526      8530      7384      7511      8657      8661      7515      8529      8532
 -2      8533      7386      7512      8658      8662      7516      8660      8663      8664      7517
 -1      1809    4    0    1
 -2      7388      8534      8535      7389      7519      8665      8666      7520      8538      8539
 -2      8540      7393      7521      8667      8668      7522      8669      8670      8671      7524
 -1      1810    4    0    1
 -2      7389      8535      8541      7395      7520      8666      8672      7526      8540      8543
 -2      8544      7397      7522      8668      8673      7527      8671      8674      8675      7528
 -1      1811    4    0    1
 -2      7395      8541      8545      7399      7526      8672      8676      7530      8544      8547
 -2      8548      7401      7527      8673      8677      7531      8675      8678      8679      7532
 -1      1812    4    0    1
 -2      7399      8545      8549      7403      7530      8676      8680      7534      8548      8551
 -2      8552      7405      7531      8677      8681      7535      8679      8682      8683      7536
 -1      1813    4    0    1
 -2      7403      8549      8553      7407      7534      8680      8684      7538      8552      8555
 -2      8556      7409      7535      8681      8685      7539      8683      8686      8687      7540
 -1      1814    4    0    1
 -2      7407      8553      8557      7411      7538      8684      8688      7542      8556      8559
 -2      8560      7413      7539      8685      8689      7543      8687      8690      8691      7544
 -1      1815    4    0    1
 -2      7411      8557      8561      7415      7542      8688      8692      7546      8560      8563
 -2      8564      7417      7543      8689      8693      7547      8691      8694      8695      7548
 -1      1816    4    0    1
 -2      7415      8561      8565      7419      7546      8692      8696      7550      8564      8567
 -2      8568      7421      7547      8693      8697      7551      8695      8698      8699      7552
 -1      1817    4    0    1
 -2      7419      8565      8569      7423      7550      8696      8700      7554      8568      8571
 -2      8572      7425      7551      8697      8701      7555      8699      8702      8703      7556
 -1      1818    4    0    1
 -2      7423      8569      8573      7427      7554      8700      8704      7558      8572      8575
 -2      8576      7429      7555      8701      8705      7559      8703      8706      8707      7560
 -1      1819    4    0    1
 -2      7427      8573      8577      7431      7558      8704      8708      7562      8576      8579
 -2      8580      7433      7559      8705      8709      7563      8707      8710      8711      7564
 -1      1820    4    0    1
 -2      7431      8577      8581      7435      7562      8708      8712      7566      8580      8583
 -2      8584      7437      7563      8709      8713      7567      8711      8714      8715      7568
 -1      1821    4    0    1
 -2      7435      8581      8585      7439      7566      8712      8716      7570      8584      8587
 -2      8588      7441      7567      8713      8717      7571      8715      8718      8719      7572
 -1      1822    4    0    1
 -2      7439      8585      8589      7443      7570      8716      8720      7574      8588      8591
 -2      8592      7445      7571      8717      8721      7575      8719      8722      8723      7576
 -1      1823    4    0    1
 -2      7443      8589      8593      7447      7574      8720      8724      7578      8592      8595
 -2      8596      7449      7575      8721      8725      7579      8723      8726      8727      7580
 -1      1824    4    0    1
 -2      7447      8593      8597      7451      7578      8724      8728      7582      8596      8599
 -2      8600      7453      7579      8725      8729      7583      8727      8730      8731      7584
 -1      1825    4    0    1
 -2      7451      8597      8601      7455      7582      8728      8732      7586      8600      8603
 -2      8604      7457      7583      8729      8733      7587      8731      8734      8735      7588
 -1      1826    4    0    1
 -2      7455      8601      8605      7459      7586      8732      8736      7590      8604      8607
 -2      8608      7461      7587      8733      8737      7591      8735      8738      8739      7592
 -1      1827    4    0    1
 -2      7459      8605      8609      7463      7590      8736      8740      7594      8608      8611
 -2      8612      7465      7591      8737      8741      7595      8739      8742      8743      7596
 -1      1828    4    0    1
 -2      7463      8609      8613      7467      7594      8740      8744      7598      8612      8615
 -2      8616      7469      7595      8741      8745      7599      8743      8746      8747      7600
 -1      1829    4    0    1
 -2      7467      8613      8617      7471      7598      8744      8748      7602      8616      8619
 -2      8620      7473      7599      8745      8749      7603      8747      8750      8751      7604
 -1      1830    4    0    1
 -2      7471      8617      8621      7475      7602      8748      8752      7606      8620      8623
 -2      8624      7477      7603      8749      8753      7607      8751      8754      8755      7608
 -1      1831    4    0    1
 -2      7475      8621      8625      7479      7606      8752      8756      7610      8624      8627
 -2      8628      7481      7607      8753      8757      7611      8755      8758      8759      7612
 -1      1832    4    0    1
 -2      7479      8625      8629      7483      7610      8756      8760      7614      8628      8631
 -2      8632      7485      7611      8757      8761      7615      8759      8762      8763      7616
 -1      1833    4    0    1
 -2      7483      8629      8633      7487      7614      8760      8764      7618      8632      8635
 -2      8636      7489      7615      8761      8765      7619      8763      8766      8767      7620
 -1      1834    4    0    1
 -2      7487      8633      8637      7491      7618      8764      8768      7622      8636      8639
 -2      8640      7493      7619      8765      8769      7623      8767      8770      8771      7624
 -1      1835    4    0    1
 -2      7491      8637      8641      7495      7622      8768      8772      7626      8640      8643
 -2      8644      7497      7623      8769      8773      7627      8771      8774      8775      7628
 -1      1836    4    0    1
 -2      7495      8641      8645      7499      7626      8772      8776      7630      8644      8647
 -2      8648      7501      7627      8773      8777      7631      8775      8778      8779      7632
 -1      1837    4    0    1
 -2      7499      8645      8649      7503      7630      8776      8780      7634      8648      8651
 -2      8652      7505      7631      8777      8781      7635      8779      8782      8783      7636
 -1      1838    4    0    1
 -2      7503      8649      8653      7507      7634      8780      8784      7638      8652      8655
 -2      8656      7509      7635      8781      8785      7639      8783      8786      8787      7640
 -1      1839    4    0    1
 -2      7507      8653      8657      7511      7638      8784      8788      7642      8656      8659
 -2      8660      7513      7639      8785      8789      7643      8787      8790      8791      7644
 -1      1840    4    0    1
 -2      7511      8657      8661      7515      7642      8788      8792      7646      8660      8663
 -2      8664      7517      7643      8789      8793      7647      8791      8794      8795      7648
 -1      1841    4    0    1
 -2      7519      8665      8666      7520      7650      8796      8797      7651      8669      8670
 -2      8671      7524      7652      8798      8799      7653      8800      8801      8802      7655
 -1      1842    4    0    1
 -2      7520      8666      8672      7526      7651      8797      8803      7657      8671      8674
 -2      8675      7528      7653      8799      8804      7658      8802      8805      8806      7659
 -1      1843    4    0    1
 -2      7526      8672      8676      7530      7657      8803      8807      7661      8675      8678
 -2      8679      7532      7658      8804      8808      7662      8806      8809      8810      7663
 -1      1844    4    0    1
 -2      7530      8676      8680      7534      7661      8807      8811      7665      8679      8682
 -2      8683      7536      7662      8808      8812      7666      8810      8813      8814      7667
 -1      1845    4    0    1
 -2      7534      8680      8684      7538      7665      8811      8815      7669      8683      8686
 -2      8687      7540      7666      8812      8816      7670      8814      8817      8818      7671
 -1      1846    4    0    1
 -2      7538      8684      8688      7542      7669      8815      8819      7673      8687      8690
 -2      8691      7544      7670      8816      8820      7674      8818      8821      8822      7675
 -1      1847    4    0    1
 -2      7542      8688      8692      7546      7673      8819      8823      7677      8691      8694
 -2      8695      7548      7674      8820      8824      7678      8822      8825      8826      7679
 -1      1848    4    0    1
 -2      7546      8692      8696      7550      7677      8823      8827      7681      8695      8698
 -2      8699      7552      7678      8824      8828      7682      8826      8829      8830      7683
 -1      1849    4    0    1
 -2      7550      8696      8700      7554      7681      8827      8831      7685      8699      8702
 -2      8703      7556      7682      8828      8832      7686      8830      8833      8834      7687
 -1      1850    4    0    1
 -2      7554      8700      8704      7558      7685      8831      8835      7689      8703      8706
 -2      8707      7560      7686      8832      8836      7690      8834      8837      8838      7691
 -1      1851    4    0    1
 -2      7558      8704      8708      7562      7689      8835      8839      7693      8707      8710
 -2      8711      7564      7690      8836      8840      7694      8838      8841      8842      7695
 -1      1852    4    0    1
 -2      7562      8708      8712      7566      7693      8839      8843      7697      8711      8714
 -2      8715      7568      7694      8840      8844      7698      8842      8845      8846      7699
 -1      1853    4    0    1
 -2      7566      8712      8716      7570      7697      8843      8847      7701      8715      8718
 -2      8719      7572      7698      8844      8848      7702      8846      8849      8850      7703
 -1      1854    4    0    1
 -2      7570      8716      8720      7574      7701      8847      8851      7705      8719      8722
 -2      8723      7576      7702      8848      8852      7706      8850      8853      8854      7707
 -1      1855    4    0    1
 -2      7574      8720      8724      7578      7705      8851      8855      7709      8723      8726
 -2      8727      7580      7706      8852      8856      7710      8854      8857      8858      7711
 -1      1856    4    0    1
 -2      7578      8724      8728      7582      7709      8855      8859      7713      8727      8730
 -2      8731      7584      7710      8856      8860      7714      8858      8861      8862      7715
 -1      1857    4    0    1
 -2      7582      8728      8732      7586      7713      8859      8863      7717      8731      8734
 -2      8735      7588      7714      8860      8864      7718      8862      8865      8866      7719
 -1      1858    4    0    1
 -2      7586      8732      8736      7590      7717      8863      8867      7721      8735      8738
 -2      8739      7592      7718      8864      8868      7722      8866      8869      8870      7723
 -1      1859    4    0    1
 -2      7590      8736      8740      7594      7721      8867      8871      7725      8739      8742
 -2      8743      7596      7722      8868      8872      7726      8870      8873      8874      7727
 -1      1860    4    0    1
 -2      7594      8740      8744      7598      7725      8871      8875      7729      8743      8746
 -2      8747      7600      7726      8872      8876      7730      8874      8877      8878      7731
 -1      1861    4    0    1
 -2      7598      8744      8748      7602      7729      8875      8879      7733      8747      8750
 -2      8751      7604      7730      8876      8880      7734      8878      8881      8882      7735
 -1      1862    4    0    1
 -2      7602      8748      8752      7606      7733      8879      8883      7737      8751      8754
 -2      8755      7608      7734      8880      8884      7738      8882      8885      8886      7739
 -1      1863    4    0    1
 -2      7606      8752      8756      7610      7737      8883      8887      7741      8755      8758
 -2      8759      7612      7738      8884      8888      7742      8886      8889      8890      7743
 -1      1864    4    0    1
 -2      7610      8756      8760      7614      7741      8887      8891      7745      8759      8762
 -2      8763      7616      7742      8888      8892      7746      8890      8893      8894      7747
 -1      1865    4    0    1
 -2      7614      8760      8764      7618      7745      8891      8895      7749      8763      8766
 -2      8767      7620      7746      8892      8896      7750      8894      8897      8898      7751
 -1      1866    4    0    1
 -2      7618      8764      8768      7622      7749      8895      8899      7753      8767      8770
 -2      8771      7624      7750      8896      8900      7754      8898      8901      8902      7755
 -1      1867    4    0    1
 -2      7622      8768      8772      7626      7753      8899      8903      7757      8771      8774
 -2      8775      7628      7754      8900      8904      7758      8902      8905      8906      7759
 -1      1868    4    0    1
 -2      7626      8772      8776      7630      7757      8903      8907      7761      8775      8778
 -2      8779      7632      7758      8904      8908      7762      8906      8909      8910      7763
 -1      1869    4    0    1
 -2      7630      8776      8780      7634      7761      8907      8911      7765      8779      8782
 -2      8783      7636      7762      8908      8912      7766      8910      8913      8914      7767
 -1      1870    4    0    1
 -2      7634      8780      8784      7638      7765      8911      8915      7769      8783      8786
 -2      8787      7640      7766      8912      8916      7770      8914      8917      8918      7771
 -1      1871    4    0    1
 -2      7638      8784      8788      7642      7769      8915      8919      7773      8787      8790
 -2      8791      7644      7770      8916      8920      7774      8918      8921      8922      7775
 -1      1872    4    0    1
 -2      7642      8788      8792      7646      7773      8919      8923      7777      8791      8794
 -2      8795      7648      7774      8920      8924      7778      8922      8925      8926      7779
 -1      1873    4    0    1
 -2      7781      8927      8928      7782      7783      8929      8930      7784      8931      8932
 -2      8933      7786      7788      8934      8935      7789      8936      8937      8938      7791
 -1      1874    4    0    1
 -2      7782      8928      8939      7793      7784      8930      8940      7794      8933      8941
 -2      8942      7795      7789      8935      8943      7797      8938      8944      8945      7798
 -1      1875    4    0    1
 -2      7793      8939      8946      7800      7794      8940      8947      7801      8942      8948
 -2      8949      7802      7797      8943      8950      7804      8945      8951      8952      7805
 -1      1876    4    0    1
 -2      7800      8946      8953      7807      7801      8947      8954      7808      8949      8955
 -2      8956      7809      7804      8950      8957      7811      8952      8958      8959      7812
 -1      1877    4    0    1
 -2      7807      8953      8960      7814      7808      8954      8961      7815      8956      8962
 -2      8963      7816      7811      8957      8964      7818      8959      8965      8966      7819
 -1      1878    4    0    1
 -2      7814      8960      8967      7821      7815      8961      8968      7822      8963      8969
 -2      8970      7823      7818      8964      8971      7825      8966      8972      8973      7826
 -1      1879    4    0    1
 -2      7821      8967      8974      7828      7822      8968      8975      7829      8970      8976
 -2      8977      7830      7825      8971      8978      7832      8973      8979      8980      7833
 -1      1880    4    0    1
 -2      7828      8974      8981      7835      7829      8975      8982      7836      8977      8983
 -2      8984      7837      7832      8978      8985      7839      8980      8986      8987      7840
 -1      1881    4    0    1
 -2      7835      8981      8988      7842      7836      8982      8989      7843      8984      8990
 -2      8991      7844      7839      8985      8992      7846      8987      8993      8994      7847
 -1      1882    4    0    1
 -2      7842      8988      8995      7849      7843      8989      8996      7850      8991      8997
 -2      8998      7851      7846      8992      8999      7853      8994      9000      9001      7854
 -1      1883    4    0    1
 -2      7849      8995      9002      7856      7850      8996      9003      7857      8998      9004
 -2      9005      7858      7853      8999      9006      7860      9001      9007      9008      7861
 -1      1884    4    0    1
 -2      7856      9002      9009      7863      7857      9003      9010      7864      9005      9011
 -2      9012      7865      7860      9006      9013      7867      9008      9014      9015      7868
 -1      1885    4    0    1
 -2      7863      9009      9016      7870      7864      9010      9017      7871      9012      9018
 -2      9019      7872      7867      9013      9020      7874      9015      9021      9022      7875
 -1      1886    4    0    1
 -2      7870      9016      9023      7877      7871      9017      9024      7878      9019      9025
 -2      9026      7879      7874      9020      9027      7881      9022      9028      9029      7882
 -1      1887    4    0    1
 -2      7877      9023      9030      7884      7878      9024      9031      7885      9026      9032
 -2      9033      7886      7881      9027      9034      7888      9029      9035      9036      7889
 -1      1888    4    0    1
 -2      7884      9030      9037      7891      7885      9031      9038      7892      9033      9039
 -2      9040      7893      7888      9034      9041      7895      9036      9042      9043      7896
 -1      1889    4    0    1
 -2      7891      9037      9044      7898      7892      9038      9045      7899      9040      9046
 -2      9047      7900      7895      9041      9048      7902      9043      9049      9050      7903
 -1      1890    4    0    1
 -2      7898      9044      9051      7905      7899      9045      9052      7906      9047      9053
 -2      9054      7907      7902      9048      9055      7909      9050      9056      9057      7910
 -1      1891    4    0    1
 -2      7905      9051      9058      7912      7906      9052      9059      7913      9054      9060
 -2      9061      7914      7909      9055      9062      7916      9057      9063      9064      7917
 -1      1892    4    0    1
 -2      7912      9058      9065      7919      7913      9059      9066      7920      9061      9067
 -2      9068      7921      7916      9062      9069      7923      9064      9070      9071      7924
 -1      1893    4    0    1
 -2      7919      9065      9072      7926      7920      9066      9073      7927      9068      9074
 -2      9075      7928      7923      9069      9076      7930      9071      9077      9078      7931
 -1      1894    4    0    1
 -2      7926      9072      9079      7933      7927      9073      9080      7934      9075      9081
 -2      9082      7935      7930      9076      9083      7937      9078      9084      9085      7938
 -1      1895    4    0    1
 -2      7933      9079      9086      7940      7934      9080      9087      7941      9082      9088
 -2      9089      7942      7937      9083      9090      7944      9085      9091      9092      7945
 -1      1896    4    0    1
 -2      7940      9086      9093      7947      7941      9087      9094      7948      9089      9095
 -2      9096      7949      7944      9090      9097      7951      9092      9098      9099      7952
 -1      1897    4    0    1
 -2      7947      9093      9100      7954      7948      9094      9101      7955      9096      9102
 -2      9103      7956      7951      9097      9104      7958      9099      9105      9106      7959
 -1      1898    4    0    1
 -2      7954      9100      9107      7961      7955      9101      9108      7962      9103      9109
 -2      9110      7963      7958      9104      9111      7965      9106      9112      9113      7966
 -1      1899    4    0    1
 -2      7961      9107      9114      7968      7962      9108      9115      7969      9110      9116
 -2      9117      7970      7965      9111      9118      7972      9113      9119      9120      7973
 -1      1900    4    0    1
 -2      7968      9114      9121      7975      7969      9115      9122      7976      9117      9123
 -2      9124      7977      7972      9118      9125      7979      9120      9126      9127      7980
 -1      1901    4    0    1
 -2      7975      9121      9128      7982      7976      9122      9129      7983      9124      9130
 -2      9131      7984      7979      9125      9132      7986      9127      9133      9134      7987
 -1      1902    4    0    1
 -2      7982      9128      9135      7989      7983      9129      9136      7990      9131      9137
 -2      9138      7991      7986      9132      9139      7993      9134      9140      9141      7994
 -1      1903    4    0    1
 -2      7989      9135      9142      7996      7990      9136      9143      7997      9138      9144
 -2      9145      7998      7993      9139      9146      8000      9141      9147      9148      8001
 -1      1904    4    0    1
 -2      7996      9142      9149      8003      7997      9143      9150      8004      9145      9151
 -2      9152      8005      8000      9146      9153      8007      9148      9154      9155      8008
 -1      1905    4    0    1
 -2      7783      8929      8930      7784      8010      9156      9157      8011      8936      8937
 -2      8938      7791      8012      9158      9159      8013      9160      9161      9162      8015
 -1      1906    4    0    1
 -2      7784      8930      8940      7794      8011      9157      9163      8017      8938      8944
 -2      8945      7798      8013      9159      9164      8018      9162      9165      9166      8019
 -1      1907    4    0    1
 -2      7794      8940      8947      7801      8017      9163      9167      8021      8945      8951
 -2      8952      7805      8018      9164      9168      8022      9166      9169      9170      8023
 -1      1908    4    0    1
 -2      7801      8947      8954      7808      8021      9167      9171      8025      8952      8958
 -2      8959      7812      8022      9168      9172      8026      9170      9173      9174      8027
 -1      1909    4    0    1
 -2      7808      8954      8961      7815      8025      9171      9175      8029      8959      8965
 -2      8966      7819      8026      9172      9176      8030      9174      9177      9178      8031
 -1      1910    4    0    1
 -2      7815      8961      8968      7822      8029      9175      9179      8033      8966      8972
 -2      8973      7826      8030      9176      9180      8034      9178      9181      9182      8035
 -1      1911    4    0    1
 -2      7822      8968      8975      7829      8033      9179      9183      8037      8973      8979
 -2      8980      7833      8034      9180      9184      8038      9182      9185      9186      8039
 -1      1912    4    0    1
 -2      7829      8975      8982      7836      8037      9183      9187      8041      8980      8986
 -2      8987      7840      8038      9184      9188      8042      9186      9189      9190      8043
 -1      1913    4    0    1
 -2      7836      8982      8989      7843      8041      9187      9191      8045      8987      8993
 -2      8994      7847      8042      9188      9192      8046      9190      9193      9194      8047
 -1      1914    4    0    1
 -2      7843      8989      8996      7850      8045      9191      9195      8049      8994      9000
 -2      9001      7854      8046      9192      9196      8050      9194      9197      9198      8051
 -1      1915    4    0    1
 -2      7850      8996      9003      7857      8049      9195      9199      8053      9001      9007
 -2      9008      7861      8050      9196      9200      8054      9198      9201      9202      8055
 -1      1916    4    0    1
 -2      7857      9003      9010      7864      8053      9199      9203      8057      9008      9014
 -2      9015      7868      8054      9200      9204      8058      9202      9205      9206      8059
 -1      1917    4    0    1
 -2      7864      9010      9017      7871      8057      9203      9207      8061      9015      9021
 -2      9022      7875      8058      9204      9208      8062      9206      9209      9210      8063
 -1      1918    4    0    1
 -2      7871      9017      9024      7878      8061      9207      9211      8065      9022      9028
 -2      9029      7882      8062      9208      9212      8066      9210      9213      9214      8067
 -1      1919    4    0    1
 -2      7878      9024      9031      7885      8065      9211      9215      8069      9029      9035
 -2      9036      7889      8066      9212      9216      8070      9214      9217      9218      8071
 -1      1920    4    0    1
 -2      7885      9031      9038      7892      8069      9215      9219      8073      9036      9042
 -2      9043      7896      8070      9216      9220      8074      9218      9221      9222      8075
 -1      1921    4    0    1
 -2      7892      9038      9045      7899      8073      9219      9223      8077      9043      9049
 -2      9050      7903      8074      9220      9224      8078      9222      9225      9226      8079
 -1      1922    4    0    1
 -2      7899      9045      9052      7906      8077      9223      9227      8081      9050      9056
 -2      9057      7910      8078      9224      9228      8082      9226      9229      9230      8083
 -1      1923    4    0    1
 -2      7906      9052      9059      7913      8081      9227      9231      8085      9057      9063
 -2      9064      7917      8082      9228      9232      8086      9230      9233      9234      8087
 -1      1924    4    0    1
 -2      7913      9059      9066      7920      8085      9231      9235      8089      9064      9070
 -2      9071      7924      8086      9232      9236      8090      9234      9237      9238      8091
 -1      1925    4    0    1
 -2      7920      9066      9073      7927      8089      9235      9239      8093      9071      9077
 -2      9078      7931      8090      9236      9240      8094      9238      9241      9242      8095
 -1      1926    4    0    1
 -2      7927      9073      9080      7934      8093      9239      9243      8097      9078      9084
 -2      9085      7938      8094      9240      9244      8098      9242      9245      9246      8099
 -1      1927    4    0    1
 -2      7934      9080      9087      7941      8097      9243      9247      8101      9085      9091
 -2      9092      7945      8098      9244      9248      8102      9246      9249      9250      8103
 -1      1928    4    0    1
 -2      7941      9087      9094      7948      8101      9247      9251      8105      9092      9098
 -2      9099      7952      8102      9248      9252      8106      9250      9253      9254      8107
 -1      1929    4    0    1
 -2      7948      9094      9101      7955      8105      9251      9255      8109      9099      9105
 -2      9106      7959      8106      9252      9256      8110      9254      9257      9258      8111
 -1      1930    4    0    1
 -2      7955      9101      9108      7962      8109      9255      9259      8113      9106      9112
 -2      9113      7966      8110      9256      9260      8114      9258      9261      9262      8115
 -1      1931    4    0    1
 -2      7962      9108      9115      7969      8113      9259      9263      8117      9113      9119
 -2      9120      7973      8114      9260      9264      8118      9262      9265      9266      8119
 -1      1932    4    0    1
 -2      7969      9115      9122      7976      8117      9263      9267      8121      9120      9126
 -2      9127      7980      8118      9264      9268      8122      9266      9269      9270      8123
 -1      1933    4    0    1
 -2      7976      9122      9129      7983      8121      9267      9271      8125      9127      9133
 -2      9134      7987      8122      9268      9272      8126      9270      9273      9274      8127
 -1      1934    4    0    1
 -2      7983      9129      9136      7990      8125      9271      9275      8129      9134      9140
 -2      9141      7994      8126      9272      9276      8130      9274      9277      9278      8131
 -1      1935    4    0    1
 -2      7990      9136      9143      7997      8129      9275      9279      8133      9141      9147
 -2      9148      8001      8130      9276      9280      8134      9278      9281      9282      8135
 -1      1936    4    0    1
 -2      7997      9143      9150      8004      8133      9279      9283      8137      9148      9154
 -2      9155      8008      8134      9280      9284      8138      9282      9285      9286      8139
 -1      1937    4    0    1
 -2      8010      9156      9157      8011      8141      9287      9288      8142      9160      9161
 -2      9162      8015      8143      9289      9290      8144      9291      9292      9293      8146
 -1      1938    4    0    1
 -2      8011      9157      9163      8017      8142      9288      9294      8148      9162      9165
 -2      9166      8019      8144      9290      9295      8149      9293      9296      9297      8150
 -1      1939    4    0    1
 -2      8017      9163      9167      8021      8148      9294      9298      8152      9166      9169
 -2      9170      8023      8149      9295      9299      8153      9297      9300      9301      8154
 -1      1940    4    0    1
 -2      8021      9167      9171      8025      8152      9298      9302      8156      9170      9173
 -2      9174      8027      8153      9299      9303      8157      9301      9304      9305      8158
 -1      1941    4    0    1
 -2      8025      9171      9175      8029      8156      9302      9306      8160      9174      9177
 -2      9178      8031      8157      9303      9307      8161      9305      9308      9309      8162
 -1      1942    4    0    1
 -2      8029      9175      9179      8033      8160      9306      9310      8164      9178      9181
 -2      9182      8035      8161      9307      9311      8165      9309      9312      9313      8166
 -1      1943    4    0    1
 -2      8033      9179      9183      8037      8164      9310      9314      8168      9182      9185
 -2      9186      8039      8165      9311      9315      8169      9313      9316      9317      8170
 -1      1944    4    0    1
 -2      8037      9183      9187      8041      8168      9314      9318      8172      9186      9189
 -2      9190      8043      8169      9315      9319      8173      9317      9320      9321      8174
 -1      1945    4    0    1
 -2      8041      9187      9191      8045      8172      9318      9322      8176      9190      9193
 -2      9194      8047      8173      9319      9323      8177      9321      9324      9325      8178
 -1      1946    4    0    1
 -2      8045      9191      9195      8049      8176      9322      9326      8180      9194      9197
 -2      9198      8051      8177      9323      9327      8181      9325      9328      9329      8182
 -1      1947    4    0    1
 -2      8049      9195      9199      8053      8180      9326      9330      8184      9198      9201
 -2      9202      8055      8181      9327      9331      8185      9329      9332      9333      8186
 -1      1948    4    0    1
 -2      8053      9199      9203      8057      8184      9330      9334      8188      9202      9205
 -2      9206      8059      8185      9331      9335      8189      9333      9336      9337      8190
 -1      1949    4    0    1
 -2      8057      9203      9207      8061      8188      9334      9338      8192      9206      9209
 -2      9210      8063      8189      9335      9339      8193      9337      9340      9341      8194
 -1      1950    4    0    1
 -2      8061      9207      9211      8065      8192      9338      9342      8196      9210      9213
 -2      9214      8067      8193      9339      9343      8197      9341      9344      9345      8198
 -1      1951    4    0    1
 -2      8065      9211      9215      8069      8196      9342      9346      8200      9214      9217
 -2      9218      8071      8197      9343      9347      8201      9345      9348      9349      8202
 -1      1952    4    0    1
 -2      8069      9215      9219      8073      8200      9346      9350      8204      9218      9221
 -2      9222      8075      8201      9347      9351      8205      9349      9352      9353      8206
 -1      1953    4    0    1
 -2      8073      9219      9223      8077      8204      9350      9354      8208      9222      9225
 -2      9226      8079      8205      9351      9355      8209      9353      9356      9357      8210
 -1      1954    4    0    1
 -2      8077      9223      9227      8081      8208      9354      9358      8212      9226      9229
 -2      9230      8083      8209      9355      9359      8213      9357      9360      9361      8214
 -1      1955    4    0    1
 -2      8081      9227      9231      8085      8212      9358      9362      8216      9230      9233
 -2      9234      8087      8213      9359      9363      8217      9361      9364      9365      8218
 -1      1956    4    0    1
 -2      8085      9231      9235      8089      8216      9362      9366      8220      9234      9237
 -2      9238      8091      8217      9363      9367      8221      9365      9368      9369      8222
 -1      1957    4    0    1
 -2      8089      9235      9239      8093      8220      9366      9370      8224      9238      9241
 -2      9242      8095      8221      9367      9371      8225      9369      9372      9373      8226
 -1      1958    4    0    1
 -2      8093      9239      9243      8097      8224      9370      9374      8228      9242      9245
 -2      9246      8099      8225      9371      9375      8229      9373      9376      9377      8230
 -1      1959    4    0    1
 -2      8097      9243      9247      8101      8228      9374      9378      8232      9246      9249
 -2      9250      8103      8229      9375      9379      8233      9377      9380      9381      8234
 -1      1960    4    0    1
 -2      8101      9247      9251      8105      8232      9378      9382      8236      9250      9253
 -2      9254      8107      8233      9379      9383      8237      9381      9384      9385      8238
 -1      1961    4    0    1
 -2      8105      9251      9255      8109      8236      9382      9386      8240      9254      9257
 -2      9258      8111      8237      9383      9387      8241      9385      9388      9389      8242
 -1      1962    4    0    1
 -2      8109      9255      9259      8113      8240      9386      9390      8244      9258      9261
 -2      9262      8115      8241      9387      9391      8245      9389      9392      9393      8246
 -1      1963    4    0    1
 -2      8113      9259      9263      8117      8244      9390      9394      8248      9262      9265
 -2      9266      8119      8245      9391      9395      8249      9393      9396      9397      8250
 -1      1964    4    0    1
 -2      8117      9263      9267      8121      8248      9394      9398      8252      9266      9269
 -2      9270      8123      8249      9395      9399      8253      9397      9400      9401      8254
 -1      1965    4    0    1
 -2      8121      9267      9271      8125      8252      9398      9402      8256      9270      9273
 -2      9274      8127      8253      9399      9403      8257      9401      9404      9405      8258
 -1      1966    4    0    1
 -2      8125      9271      9275      8129      8256      9402      9406      8260      9274      9277
 -2      9278      8131      8257      9403      9407      8261      9405      9408      9409      8262
 -1      1967    4    0    1
 -2      8129      9275      9279      8133      8260      9406      9410      8264      9278      9281
 -2      9282      8135      8261      9407      9411      8265      9409      9412      9413      8266
 -1      1968    4    0    1
 -2      8133      9279      9283      8137      8264      9410      9414      8268      9282      9285
 -2      9286      8139      8265      9411      9415      8269      9413      9416      9417      8270
 -1      1969    4    0    1
 -2      8141      9287      9288      8142      8272      9418      9419      8273      9291      9292
 -2      9293      8146      8274      9420      9421      8275      9422      9423      9424      8277
 -1      1970    4    0    1
 -2      8142      9288      9294      8148      8273      9419      9425      8279      9293      9296
 -2      9297      8150      8275      9421      9426      8280      9424      9427      9428      8281
 -1      1971    4    0    1
 -2      8148      9294      9298      8152      8279      9425      9429      8283      9297      9300
 -2      9301      8154      8280      9426      9430      8284      9428      9431      9432      8285
 -1      1972    4    0    1
 -2      8152      9298      9302      8156      8283      9429      9433      8287      9301      9304
 -2      9305      8158      8284      9430      9434      8288      9432      9435      9436      8289
 -1      1973    4    0    1
 -2      8156      9302      9306      8160      8287      9433      9437      8291      9305      9308
 -2      9309      8162      8288      9434      9438      8292      9436      9439      9440      8293
 -1      1974    4    0    1
 -2      8160      9306      9310      8164      8291      9437      9441      8295      9309      9312
 -2      9313      8166      8292      9438      9442      8296      9440      9443      9444      8297
 -1      1975    4    0    1
 -2      8164      9310      9314      8168      8295      9441      9445      8299      9313      9316
 -2      9317      8170      8296      9442      9446      8300      9444      9447      9448      8301
 -1      1976    4    0    1
 -2      8168      9314      9318      8172      8299      9445      9449      8303      9317      9320
 -2      9321      8174      8300      9446      9450      8304      9448      9451      9452      8305
 -1      1977    4    0    1
 -2      8172      9318      9322      8176      8303      9449      9453      8307      9321      9324
 -2      9325      8178      8304      9450      9454      8308      9452      9455      9456      8309
 -1      1978    4    0    1
 -2      8176      9322      9326      8180      8307      9453      9457      8311      9325      9328
 -2      9329      8182      8308      9454      9458      8312      9456      9459      9460      8313
 -1      1979    4    0    1
 -2      8180      9326      9330      8184      8311      9457      9461      8315      9329      9332
 -2      9333      8186      8312      9458      9462      8316      9460      9463      9464      8317
 -1      1980    4    0    1
 -2      8184      9330      9334      8188      8315      9461      9465      8319      9333      9336
 -2      9337      8190      8316      9462      9466      8320      9464      9467      9468      8321
 -1      1981    4    0    1
 -2      8188      9334      9338      8192      8319      9465      9469      8323      9337      9340
 -2      9341      8194      8320      9466      9470      8324      9468      9471      9472      8325
 -1      1982    4    0    1
 -2      8192      9338      9342      8196      8323      9469      9473      8327      9341      9344
 -2      9345      8198      8324      9470      9474      8328      9472      9475      9476      8329
 -1      1983    4    0    1
 -2      8196      9342      9346      8200      8327      9473      9477      8331      9345      9348
 -2      9349      8202      8328      9474      9478      8332      9476      9479      9480      8333
 -1      1984    4    0    1
 -2      8200      9346      9350      8204      8331      9477      9481      8335      9349      9352
 -2      9353      8206      8332      9478      9482      8336      9480      9483      9484      8337
 -1      1985    4    0    1
 -2      8204      9350      9354      8208      8335      9481      9485      8339      9353      9356
 -2      9357      8210      8336      9482      9486      8340      9484      9487      9488      8341
 -1      1986    4    0    1
 -2      8208      9354      9358      8212      8339      9485      9489      8343      9357      9360
 -2      9361      8214      8340      9486      9490      8344      9488      9491      9492      8345
 -1      1987    4    0    1
 -2      8212      9358      9362      8216      8343      9489      9493      8347      9361      9364
 -2      9365      8218      8344      9490      9494      8348      9492      9495      9496      8349
 -1      1988    4    0    1
 -2      8216      9362      9366      8220      8347      9493      9497      8351      9365      9368
 -2      9369      8222      8348      9494      9498      8352      9496      9499      9500      8353
 -1      1989    4    0    1
 -2      8220      9366      9370      8224      8351      9497      9501      8355      9369      9372
 -2      9373      8226      8352      9498      9502      8356      9500      9503      9504      8357
 -1      1990    4    0    1
 -2      8224      9370      9374      8228      8355      9501      9505      8359      9373      9376
 -2      9377      8230      8356      9502      9506      8360      9504      9507      9508      8361
 -1      1991    4    0    1
 -2      8228      9374      9378      8232      8359      9505      9509      8363      9377      9380
 -2      9381      8234      8360      9506      9510      8364      9508      9511      9512      8365
 -1      1992    4    0    1
 -2      8232      9378      9382      8236      8363      9509      9513      8367      9381      9384
 -2      9385      8238      8364      9510      9514      8368      9512      9515      9516      8369
 -1      1993    4    0    1
 -2      8236      9382      9386      8240      8367      9513      9517      8371      9385      9388
 -2      9389      8242      8368      9514      9518      8372      9516      9519      9520      8373
 -1      1994    4    0    1
 -2      8240      9386      9390      8244      8371      9517      9521      8375      9389      9392
 -2      9393      8246      8372      9518      9522      8376      9520      9523      9524      8377
 -1      1995    4    0    1
 -2      8244      9390      9394      8248      8375      9521      9525      8379      9393      9396
 -2      9397      8250      8376      9522      9526      8380      9524      9527      9528      8381
 -1      1996    4    0    1
 -2      8248      9394      9398      8252      8379      9525      9529      8383      9397      9400
 -2      9401      8254      8380      9526      9530      8384      9528      9531      9532      8385
 -1      1997    4    0    1
 -2      8252      9398      9402      8256      8383      9529      9533      8387      9401      9404
 -2      9405      8258      8384      9530      9534      8388      9532      9535      9536      8389
 -1      1998    4    0    1
 -2      8256      9402      9406      8260      8387      9533      9537      8391      9405      9408
 -2      9409      8262      8388      9534      9538      8392      9536      9539      9540      8393
 -1      1999    4    0    1
 -2      8260      9406      9410      8264      8391      9537      9541      8395      9409      9412
 -2      9413      8266      8392      9538      9542      8396      9540      9543      9544      8397
 -1      2000    4    0    1
 -2      8264      9410      9414      8268      8395      9541      9545      8399      9413      9416
 -2      9417      8270      8396      9542      9546      8400      9544      9547      9548      8401
 -1      2001    4    0    1
 -2      8272      9418      9419      8273      8403      9549      9550      8404      9422      9423
 -2      9424      8277      8405      9551      9552      8406      9553      9554      9555      8408
 -1      2002    4    0    1
 -2      8273      9419      9425      8279      8404      9550      9556      8410      9424      9427
 -2      9428      8281      8406      9552      9557      8411      9555      9558      9559      8412
 -1      2003    4    0    1
 -2      8279      9425      9429      8283      8410      9556      9560      8414      9428      9431
 -2      9432      8285      8411      9557      9561      8415      9559      9562      9563      8416
 -1      2004    4    0    1
 -2      8283      9429      9433      8287      8414      9560      9564      8418      9432      9435
 -2      9436      8289      8415      9561      9565      8419      9563      9566      9567      8420
 -1      2005    4    0    1
 -2      8287      9433      9437      8291      8418      9564      9568      8422      9436      9439
 -2      9440      8293      8419      9565      9569      8423      9567      9570      9571      8424
 -1      2006    4    0    1
 -2      8291      9437      9441      8295      8422      9568      9572      8426      9440      9443
 -2      9444      8297      8423      9569      9573      8427      9571      9574      9575      8428
 -1      2007    4    0    1
 -2      8295      9441      9445      8299      8426      9572      9576      8430      9444      9447
 -2      9448      8301      8427      9573      9577      8431      9575      9578      9579      8432
 -1      2008    4    0    1
 -2      8299      9445      9449      8303      8430      9576      9580      8434      9448      9451
 -2      9452      8305      8431      9577      9581      8435      9579      9582      9583      8436
 -1      2009    4    0    1
 -2      8303      9449      9453      8307      8434      9580      9584      8438      9452      9455
 -2      9456      8309      8435      9581      9585      8439      9583      9586      9587      8440
 -1      2010    4    0    1
 -2      8307      9453      9457      8311      8438      9584      9588      8442      9456      9459
 -2      9460      8313      8439      9585      9589      8443      9587      9590      9591      8444
 -1      2011    4    0    1
 -2      8311      9457      9461      8315      8442      9588      9592      8446      9460      9463
 -2      9464      8317      8443      9589      9593      8447      9591      9594      9595      8448
 -1      2012    4    0    1
 -2      8315      9461      9465      8319      8446      9592      9596      8450      9464      9467
 -2      9468      8321      8447      9593      9597      8451      9595      9598      9599      8452
 -1      2013    4    0    1
 -2      8319      9465      9469      8323      8450      9596      9600      8454      9468      9471
 -2      9472      8325      8451      9597      9601      8455      9599      9602      9603      8456
 -1      2014    4    0    1
 -2      8323      9469      9473      8327      8454      9600      9604      8458      9472      9475
 -2      9476      8329      8455      9601      9605      8459      9603      9606      9607      8460
 -1      2015    4    0    1
 -2      8327      9473      9477      8331      8458      9604      9608      8462      9476      9479
 -2      9480      8333      8459      9605      9609      8463      9607      9610      9611      8464
 -1      2016    4    0    1
 -2      8331      9477      9481      8335      8462      9608      9612      8466      9480      9483
 -2      9484      8337      8463      9609      9613      8467      9611      9614      9615      8468
 -1      2017    4    0    1
 -2      8335      9481      9485      8339      8466      9612      9616      8470      9484      9487
 -2      9488      8341      8467      9613      9617      8471      9615      9618      9619      8472
 -1      2018    4    0    1
 -2      8339      9485      9489      8343      8470      9616      9620      8474      9488      9491
 -2      9492      8345      8471      9617      9621      8475      9619      9622      9623      8476
 -1      2019    4    0    1
 -2      8343      9489      9493      8347      8474      9620      9624      8478      9492      9495
 -2      9496      8349      8475      9621      9625      8479      9623      9626      9627      8480
 -1      2020    4    0    1
 -2      8347      9493      9497      8351      8478      9624      9628      8482      9496      9499
 -2      9500      8353      8479      9625      9629      8483      9627      9630      9631      8484
 -1      2021    4    0    1
 -2      8351      9497      9501      8355      8482      9628      9632      8486      9500      9503
 -2      9504      8357      8483      9629      9633      8487      9631      9634      9635      8488
 -1      2022    4    0    1
 -2      8355      9501      9505      8359      8486      9632      9636      8490      9504      9507
 -2      9508      8361      8487      9633      9637      8491      9635      9638      9639      8492
 -1      2023    4    0    1
 -2      8359      9505      9509      8363      8490      9636      9640      8494      9508      9511
 -2      9512      8365      8491      9637      9641      8495      9639      9642      9643      8496
 -1      2024    4    0    1
 -2      8363      9509      9513      8367      8494      9640      9644      8498      9512      9515
 -2      9516      8369      8495      9641      9645      8499      9643      9646      9647      8500
 -1      2025    4    0    1
 -2      8367      9513      9517      8371      8498      9644      9648      8502      9516      9519
 -2      9520      8373      8499      9645      9649      8503      9647      9650      9651      8504
 -1      2026    4    0    1
 -2      8371      9517      9521      8375      8502      9648      9652      8506      9520      9523
 -2      9524      8377      8503      9649      9653      8507      9651      9654      9655      8508
 -1      2027    4    0    1
 -2      8375      9521      9525      8379      8506      9652      9656      8510      9524      9527
 -2      9528      8381      8507      9653      9657      8511      9655      9658      9659      8512
 -1      2028    4    0    1
 -2      8379      9525      9529      8383      8510      9656      9660      8514      9528      9531
 -2      9532      8385      8511      9657      9661      8515      9659      9662      9663      8516
 -1      2029    4    0    1
 -2      8383      9529      9533      8387      8514      9660      9664      8518      9532      9535
 -2      9536      8389      8515      9661      9665      8519      9663      9666      9667      8520
 -1      2030    4    0    1
 -2      8387      9533      9537      8391      8518      9664      9668      8522      9536      9539
 -2      9540      8393      8519      9665      9669      8523      9667      9670      9671      8524
 -1      2031    4    0    1
 -2      8391      9537      9541      8395      8522      9668      9672      8526      9540      9543
 -2      9544      8397      8523      9669      9673      8527      9671      9674      9675      8528
 -1      2032    4    0    1
 -2      8395      9541      9545      8399      8526      9672      9676      8530      9544      9547
 -2      9548      8401      8527      9673      9677      8531      9675      9678      9679      8532
 -1      2033    4    0    1
 -2      8403      9549      9550      8404      8534      9680      9681      8535      9553      9554
 -2      9555      8408      8536      9682      9683      8537      9684      9685      9686      8539
 -1      2034    4    0    1
 -2      8404      9550      9556      8410      8535      9681      9687      8541      9555      9558
 -2      9559      8412      8537      9683      9688      8542      9686      9689      9690      8543
 -1      2035    4    0    1
 -2      8410      9556      9560      8414      8541      9687      9691      8545      9559      9562
 -2      9563      8416      8542      9688      9692      8546      9690      9693      9694      8547
 -1      2036    4    0    1
 -2      8414      9560      9564      8418      8545      9691      9695      8549      9563      9566
 -2      9567      8420      8546      9692      9696      8550      9694      9697      9698      8551
 -1      2037    4    0    1
 -2      8418      9564      9568      8422      8549      9695      9699      8553      9567      9570
 -2      9571      8424      8550      9696      9700      8554      9698      9701      9702      8555
 -1      2038    4    0    1
 -2      8422      9568      9572      8426      8553      9699      9703      8557      9571      9574
 -2      9575      8428      8554      9700      9704      8558      9702      9705      9706      8559
 -1      2039    4    0    1
 -2      8426      9572      9576      8430      8557      9703      9707      8561      9575      9578
 -2      9579      8432      8558      9704      9708      8562      9706      9709      9710      8563
 -1      2040    4    0    1
 -2      8430      9576      9580      8434      8561      9707      9711      8565      9579      9582
 -2      9583      8436      8562      9708      9712      8566      9710      9713      9714      8567
 -1      2041    4    0    1
 -2      8434      9580      9584      8438      8565      9711      9715      8569      9583      9586
 -2      9587      8440      8566      9712      9716      8570      9714      9717      9718      8571
 -1      2042    4    0    1
 -2      8438      9584      9588      8442      8569      9715      9719      8573      9587      9590
 -2      9591      8444      8570      9716      9720      8574      9718      9721      9722      8575
 -1      2043    4    0    1
 -2      8442      9588      9592      8446      8573      9719      9723      8577      9591      9594
 -2      9595      8448      8574      9720      9724      8578      9722      9725      9726      8579
 -1      2044    4    0    1
 -2      8446      9592      9596      8450      8577      9723      9727      8581      9595      9598
 -2      9599      8452      8578      9724      9728      8582      9726      9729      9730      8583
 -1      2045    4    0    1
 -2      8450      9596      9600      8454      8581      9727      9731      8585      9599      9602
 -2      9603      8456      8582      9728      9732      8586      9730      9733      9734      8587
 -1      2046    4    0    1
 -2      8454      9600      9604      8458      8585      9731      9735      8589      9603      9606
 -2      9607      8460      8586      9732      9736      8590      9734      9737      9738      8591
 -1      2047    4    0    1
 -2      8458      9604      9608      8462      8589      9735      9739      8593      9607      9610
 -2      9611      8464      8590      9736      9740      8594      9738      9741      9742      8595
 -1      2048    4    0    1
 -2      8462      9608      9612      8466      8593      9739      9743      8597      9611      9614
 -2      9615      8468      8594      9740      9744      8598      9742      9745      9746      8599
 -1      2049    4    0    1
 -2      8466      9612      9616      8470      8597      9743      9747      8601      9615      9618
 -2      9619      8472      8598      9744      9748      8602      9746      9749      9750      8603
 -1      2050    4    0    1
 -2      8470      9616      9620      8474      8601      9747      9751      8605      9619      9622
 -2      9623      8476      8602      9748      9752      8606      9750      9753      9754      8607
 -1      2051    4    0    1
 -2      8474      9620      9624      8478      8605      9751      9755      8609      9623      9626
 -2      9627      8480      8606      9752      9756      8610      9754      9757      9758      8611
 -1      2052    4    0    1
 -2      8478      9624      9628      8482      8609      9755      9759      8613      9627      9630
 -2      9631      8484      8610      9756      9760      8614      9758      9761      9762      8615
 -1      2053    4    0    1
 -2      8482      9628      9632      8486      8613      9759      9763      8617      9631      9634
 -2      9635      8488      8614      9760      9764      8618      9762      9765      9766      8619
 -1      2054    4    0    1
 -2      8486      9632      9636      8490      8617      9763      9767      8621      9635      9638
 -2      9639      8492      8618      9764      9768      8622      9766      9769      9770      8623
 -1      2055    4    0    1
 -2      8490      9636      9640      8494      8621      9767      9771      8625      9639      9642
 -2      9643      8496      8622      9768      9772      8626      9770      9773      9774      8627
 -1      2056    4    0    1
 -2      8494      9640      9644      8498      8625      9771      9775      8629      9643      9646
 -2      9647      8500      8626      9772      9776      8630      9774      9777      9778      8631
 -1      2057    4    0    1
 -2      8498      9644      9648      8502      8629      9775      9779      8633      9647      9650
 -2      9651      8504      8630      9776      9780      8634      9778      9781      9782      8635
 -1      2058    4    0    1
 -2      8502      9648      9652      8506      8633      9779      9783      8637      9651      9654
 -2      9655      8508      8634      9780      9784      8638      9782      9785      9786      8639
 -1      2059    4    0    1
 -2      8506      9652      9656      8510      8637      9783      9787      8641      9655      9658
 -2      9659      8512      8638      9784      9788      8642      9786      9789      9790      8643
 -1      2060    4    0    1
 -2      8510      9656      9660      8514      8641      9787      9791      8645      9659      9662
 -2      9663      8516      8642      9788      9792      8646      9790      9793      9794      8647
 -1      2061    4    0    1
 -2      8514      9660      9664      8518      8645      9791      9795      8649      9663      9666
 -2      9667      8520      8646      9792      9796      8650      9794      9797      9798      8651
 -1      2062    4    0    1
 -2      8518      9664      9668      8522      8649      9795      9799      8653      9667      9670
 -2      9671      8524      8650      9796      9800      8654      9798      9801      9802      8655
 -1      2063    4    0    1
 -2      8522      9668      9672      8526      8653      9799      9803      8657      9671      9674
 -2      9675      8528      8654      9800      9804      8658      9802      9805      9806      8659
 -1      2064    4    0    1
 -2      8526      9672      9676      8530      8657      9803      9807      8661      9675      9678
 -2      9679      8532      8658      9804      9808      8662      9806      9809      9810      8663
 -1      2065    4    0    1
 -2      8534      9680      9681      8535      8665      9811      9812      8666      9684      9685
 -2      9686      8539      8667      9813      9814      8668      9815      9816      9817      8670
 -1      2066    4    0    1
 -2      8535      9681      9687      8541      8666      9812      9818      8672      9686      9689
 -2      9690      8543      8668      9814      9819      8673      9817      9820      9821      8674
 -1      2067    4    0    1
 -2      8541      9687      9691      8545      8672      9818      9822      8676      9690      9693
 -2      9694      8547      8673      9819      9823      8677      9821      9824      9825      8678
 -1      2068    4    0    1
 -2      8545      9691      9695      8549      8676      9822      9826      8680      9694      9697
 -2      9698      8551      8677      9823      9827      8681      9825      9828      9829      8682
 -1      2069    4    0    1
 -2      8549      9695      9699      8553      8680      9826      9830      8684      9698      9701
 -2      9702      8555      8681      9827      9831      8685      9829      9832      9833      8686
 -1      2070    4    0    1
 -2      8553      9699      9703      8557      8684      9830      9834      8688      9702      9705
 -2      9706      8559      8685      9831      9835      8689      9833      9836      9837      8690
 -1      2071    4    0    1
 -2      8557      9703      9707      8561      8688      9834      9838      8692      9706      9709
 -2      9710      8563      8689      9835      9839      8693      9837      9840      9841      8694
 -1      2072    4    0    1
 -2      8561      9707      9711      8565      8692      9838      9842      8696      9710      9713
 -2      9714      8567      8693      9839      9843      8697      9841      9844      9845      8698
 -1      2073    4    0    1
 -2      8565      9711      9715      8569      8696      9842      9846      8700      9714      9717
 -2      9718      8571      8697      9843      9847      8701      9845      9848      9849      8702
 -1      2074    4    0    1
 -2      8569      9715      9719      8573      8700      9846      9850      8704      9718      9721
 -2      9722      8575      8701      9847      9851      8705      9849      9852      9853      8706
 -1      2075    4    0    1
 -2      8573      9719      9723      8577      8704      9850      9854      8708      9722      9725
 -2      9726      8579      8705      9851      9855      8709      9853      9856      9857      8710
 -1      2076    4    0    1
 -2      8577      9723      9727      8581      8708      9854      9858      8712      9726      9729
 -2      9730      8583      8709      9855      9859      8713      9857      9860      9861      8714
 -1      2077    4    0    1
 -2      8581      9727      9731      8585      8712      9858      9862      8716      9730      9733
 -2      9734      8587      8713      9859      9863      8717      9861      9864      9865      8718
 -1      2078    4    0    1
 -2      8585      9731      9735      8589      8716      9862      9866      8720      9734      9737
 -2      9738      8591      8717      9863      9867      8721      9865      9868      9869      8722
 -1      2079    4    0    1
 -2      8589      9735      9739      8593      8720      9866      9870      8724      9738      9741
 -2      9742      8595      8721      9867      9871      8725      9869      9872      9873      8726
 -1      2080    4    0    1
 -2      8593      9739      9743      8597      8724      9870      9874      8728      9742      9745
 -2      9746      8599      8725      9871      9875      8729      9873      9876      9877      8730
 -1      2081    4    0    1
 -2      8597      9743      9747      8601      8728      9874      9878      8732      9746      9749
 -2      9750      8603      8729      9875      9879      8733      9877      9880      9881      8734
 -1      2082    4    0    1
 -2      8601      9747      9751      8605      8732      9878      9882      8736      9750      9753
 -2      9754      8607      8733      9879      9883      8737      9881      9884      9885      8738
 -1      2083    4    0    1
 -2      8605      9751      9755      8609      8736      9882      9886      8740      9754      9757
 -2      9758      8611      8737      9883      9887      8741      9885      9888      9889      8742
 -1      2084    4    0    1
 -2      8609      9755      9759      8613      8740      9886      9890      8744      9758      9761
 -2      9762      8615      8741      9887      9891      8745      9889      9892      9893      8746
 -1      2085    4    0    1
 -2      8613      9759      9763      8617      8744      9890      9894      8748      9762      9765
 -2      9766      8619      8745      9891      9895      8749      9893      9896      9897      8750
 -1      2086    4    0    1
 -2      8617      9763      9767      8621      8748      9894      9898      8752      9766      9769
 -2      9770      8623      8749      9895      9899      8753      9897      9900      9901      8754
 -1      2087    4    0    1
 -2      8621      9767      9771      8625      8752      9898      9902      8756      9770      9773
 -2      9774      8627      8753      9899      9903      8757      9901      9904      9905      8758
 -1      2088    4    0    1
 -2      8625      9771      9775      8629      8756      9902      9906      8760      9774      9777
 -2      9778      8631      8757      9903      9907      8761      9905      9908      9909      8762
 -1      2089    4    0    1
 -2      8629      9775      9779      8633      8760      9906      9910      8764      9778      9781
 -2      9782      8635      8761      9907      9911      8765      9909      9912      9913      8766
 -1      2090    4    0    1
 -2      8633      9779      9783      8637      8764      9910      9914      8768      9782      9785
 -2      9786      8639      8765      9911      9915      8769      9913      9916      9917      8770
 -1      2091    4    0    1
 -2      8637      9783      9787      8641      8768      9914      9918      8772      9786      9789
 -2      9790      8643      8769      9915      9919      8773      9917      9920      9921      8774
 -1      2092    4    0    1
 -2      8641      9787      9791      8645      8772      9918      9922      8776      9790      9793
 -2      9794      8647      8773      9919      9923      8777      9921      9924      9925      8778
 -1      2093    4    0    1
 -2      8645      9791      9795      8649      8776      9922      9926      8780      9794      9797
 -2      9798      8651      8777      9923      9927      8781      9925      9928      9929      8782
 -1      2094    4    0    1
 -2      8649      9795      9799      8653      8780      9926      9930      8784      9798      9801
 -2      9802      8655      8781      9927      9931      8785      9929      9932      9933      8786
 -1      2095    4    0    1
 -2      8653      9799      9803      8657      8784      9930      9934      8788      9802      9805
 -2      9806      8659      8785      9931      9935      8789      9933      9936      9937      8790
 -1      2096    4    0    1
 -2      8657      9803      9807      8661      8788      9934      9938      8792      9806      9809
 -2      9810      8663      8789      9935      9939      8793      9937      9940      9941      8794
 -1      2097    4    0    1
 -2      8665      9811      9812      8666      8796      9942      9943      8797      9815      9816
 -2      9817      8670      8798      9944      9945      8799      9946      9947      9948      8801
 -1      2098    4    0    1
 -2      8666      9812      9818      8672      8797      9943      9949      8803      9817      9820
 -2      9821      8674      8799      9945      9950      8804      9948      9951      9952      8805
 -1      2099    4    0    1
 -2      8672      9818      9822      8676      8803      9949      9953      8807      9821      9824
 -2      9825      8678      8804      9950      9954      8808      9952      9955      9956      8809
 -1      2100    4    0    1
 -2      8676      9822      9826      8680      8807      9953      9957      8811      9825      9828
 -2      9829      8682      8808      9954      9958      8812      9956      9959      9960      8813
 -1      2101    4    0    1
 -2      8680      9826      9830      8684      8811      9957      9961      8815      9829      9832
 -2      9833      8686      8812      9958      9962      8816      9960      9963      9964      8817
 -1      2102    4    0    1
 -2      8684      9830      9834      8688      8815      9961      9965      8819      9833      9836
 -2      9837      8690      8816      9962      9966      8820      9964      9967      9968      8821
 -1      2103    4    0    1
 -2      8688      9834      9838      8692      8819      9965      9969      8823      9837      9840
 -2      9841      8694      8820      9966      9970      8824      9968      9971      9972      8825
 -1      2104    4    0    1
 -2      8692      9838      9842      8696      8823      9969      9973      8827      9841      9844
 -2      9845      8698      8824      9970      9974      8828      9972      9975      9976      8829
 -1      2105    4    0    1
 -2      8696      9842      9846      8700      8827      9973      9977      8831      9845      9848
 -2      9849      8702      8828      9974      9978      8832      9976      9979      9980      8833
 -1      2106    4    0    1
 -2      8700      9846      9850      8704      8831      9977      9981      8835      9849      9852
 -2      9853      8706      8832      9978      9982      8836      9980      9983      9984      8837
 -1      2107    4    0    1
 -2      8704      9850      9854      8708      8835      9981      9985      8839      9853      9856
 -2      9857      8710      8836      9982      9986      8840      9984      9987      9988      8841
 -1      2108    4    0    1
 -2      8708      9854      9858      8712      8839      9985      9989      8843      9857      9860
 -2      9861      8714      8840      9986      9990      8844      9988      9991      9992      8845
 -1      2109    4    0    1
 -2      8712      9858      9862      8716      8843      9989      9993      8847      9861      9864
 -2      9865      8718      8844      9990      9994      8848      9992      9995      9996      8849
 -1      2110    4    0    1
 -2      8716      9862      9866      8720      8847      9993      9997      8851      9865      9868
 -2      9869      8722      8848      9994      9998      8852      9996      9999     10000      8853
 -1      2111    4    0    1
 -2      8720      9866      9870      8724      8851      9997     10001      8855      9869      9872
 -2      9873      8726      8852      9998     10002      8856     10000     10003     10004      8857
 -1      2112    4    0    1
 -2      8724      9870      9874      8728      8855     10001     10005      8859      9873      9876
 -2      9877      8730      8856     10002     10006      8860     10004     10007     10008      8861
 -1      2113    4    0    1
 -2      8728      9874      9878      8732      8859     10005     10009      8863      9877      9880
 -2      9881      8734      8860     10006     10010      8864     10008     10011     10012      8865
 -1      2114    4    0    1
 -2      8732      9878      9882      8736      8863     10009     10013      8867      9881      9884
 -2      9885      8738      8864     10010     10014      8868     10012     10015     10016      8869
 -1      2115    4    0    1
 -2      8736      9882      9886      8740      8867     10013     10017      8871      9885      9888
 -2      9889      8742      8868     10014     10018      8872     10016     10019     10020      8873
 -1      2116    4    0    1
 -2      8740      9886      9890      8744      8871     10017     10021      8875      9889      9892
 -2      9893      8746      8872     10018     10022      8876     10020     10023     10024      8877
 -1      2117    4    0    1
 -2      8744      9890      9894      8748      8875     10021     10025      8879      9893      9896
 -2      9897      8750      8876     10022     10026      8880     10024     10027     10028      8881
 -1      2118    4    0    1
 -2      8748      9894      9898      8752      8879     10025     10029      8883      9897      9900
 -2      9901      8754      8880     10026     10030      8884     10028     10031     10032      8885
 -1      2119    4    0    1
 -2      8752      9898      9902      8756      8883     10029     10033      8887      9901      9904
 -2      9905      8758      8884     10030     10034      8888     10032     10035     10036      8889
 -1      2120    4    0    1
 -2      8756      9902      9906      8760      8887     10033     10037      8891      9905      9908
 -2      9909      8762      8888     10034     10038      8892     10036     10039     10040      8893
 -1      2121    4    0    1
 -2      8760      9906      9910      8764      8891     10037     10041      8895      9909      9912
 -2      9913      8766      8892     10038     10042      8896     10040     10043     10044      8897
 -1      2122    4    0    1
 -2      8764      9910      9914      8768      8895     10041     10045      8899      9913      9916
 -2      9917      8770      8896     10042     10046      8900     10044     10047     10048      8901
 -1      2123    4    0    1
 -2      8768      9914      9918      8772      8899     10045     10049      8903      9917      9920
 -2      9921      8774      8900     10046     10050      8904     10048     10051     10052      8905
 -1      2124    4    0    1
 -2      8772      9918      9922      8776      8903     10049     10053      8907      9921      9924
 -2      9925      8778      8904     10050     10054      8908     10052     10055     10056      8909
 -1      2125    4    0    1
 -2      8776      9922      9926      8780      8907     10053     10057      8911      9925      9928
 -2      9929      8782      8908     10054     10058      8912     10056     10059     10060      8913
 -1      2126    4    0    1
 -2      8780      9926      9930      8784      8911     10057     10061      8915      9929      9932
 -2      9933      8786      8912     10058     10062      8916     10060     10063     10064      8917
 -1      2127    4    0    1
 -2      8784      9930      9934      8788      8915     10061     10065      8919      9933      9936
 -2      9937      8790      8916     10062     10066      8920     10064     10067     10068      8921
 -1      2128    4    0    1
 -2      8788      9934      9938      8792      8919     10065     10069      8923      9937      9940
 -2      9941      8794      8920     10066     10070      8924     10068     10071     10072      8925
 -3
    1PSTEP                         1           1           1          
  100CL  101 1.000000000       10017                     0    1           1
 -4  DISP        4    1
 -5  D1          1    2    1    0
 -5  D2          1    2    2    0
 -5  D3          1    2    3    0
 -5  ALL         1    2    0    0    1ALL
 -1        56 0.00000E+00 0.00000E+00 0.00000E+00
 -1        57 0.00000E+00 0.00000E+00 0.00000E+00
 -1        58 9.83533E-04 5.73886E-04-1.46702E-03
 -1        59 1.27278E-03 1.01860E-03-2.23502E-03
 -1        60 0.00000E+00 0.00000E+00 0.00000E+00
 -1        61 0.00000E+00 0.00000E+00 0.00000E+00
 -1        62 6.00647E-04 7.93849E-04-1.20606E-03
 -1        63 7.92623E-04 1.30965E-03-1.97716E-03
 -1        64 0.00000E+00 0.00000E+00 0.00000E+00
 -1        65 6.46487E-04 1.77985E-04-7.36122E-04
 -1        66 1.12328E-03 7.46989E-04-1.80864E-03
 -1        67 8.71869E-04 6.43513E-04-1.18905E-03
 -1        68 0.00000E+00 0.00000E+00 0.00000E+00
 -1        69 0.00000E+00 0.00000E+00 0.00000E+00
 -1        70 7.60009E-04 7.06392E-04-1.26809E-03
 -1        71 9.91856E-04 1.18112E-03-2.01290E-03
 -1        72 0.00000E+00 0.00000E+00 0.00000E+00
 -1        73 3.10490E-04 3.11718E-04-5.18030E-04
 -1        74 6.94813E-04 9.91880E-04-1.51119E-03
 -1        75 4.16325E-04 7.70479E-04-9.66812E-04
 -1        76 1.26117E-03 1.62774E-03-2.64445E-03
 -1        77 1.67968E-03 2.06333E-03-3.86000E-03
 -1        78 8.85980E-04 1.95607E-03-2.49749E-03
 -1        79 1.17018E-03 2.43797E-03-3.70292E-03
 -1        80 1.16963E-03 1.04099E-03-2.07260E-03
 -1        81 1.46653E-03 1.83887E-03-3.23160E-03
 -1        82 1.54031E-03 1.49567E-03-3.08463E-03
 -1        83 1.08281E-03 1.80889E-03-2.56785E-03
 -1        84 1.43422E-03 2.27146E-03-3.76735E-03
 -1        85 7.73406E-04 1.32661E-03-1.85398E-03
 -1        86 1.02644E-03 2.18769E-03-3.07311E-03
 -1        87 1.01802E-03 1.84416E-03-2.86013E-03
 -1        88 1.34079E-03 3.14611E-03-3.78025E-03
 -1        89 1.79292E-03 3.56214E-03-5.38774E-03
 -1        90 9.86033E-04 3.51722E-03-3.74114E-03
 -1        91 1.30748E-03 3.95952E-03-5.34757E-03
 -1        92 1.31766E-03 2.33064E-03-3.22065E-03
 -1        93 1.56393E-03 3.33814E-03-4.55821E-03
 -1        94 1.76154E-03 2.75787E-03-4.63063E-03
 -1        95 1.16428E-03 3.34990E-03-3.76554E-03
 -1        96 1.55006E-03 3.77798E-03-5.37148E-03
 -1        97 9.53978E-04 2.68708E-03-3.13536E-03
 -1        98 1.14629E-03 3.72059E-03-4.51645E-03
 -1        99 1.26240E-03 3.14723E-03-4.54023E-03
 -1       100 1.31560E-03 5.10415E-03-4.85610E-03
 -1       101 1.76320E-03 5.49398E-03-6.85750E-03
 -1       102 9.83667E-04 5.48063E-03-4.87458E-03
 -1       103 1.30907E-03 5.88474E-03-6.87678E-03
 -1       104 1.33629E-03 4.07176E-03-4.32632E-03
 -1       105 1.53803E-03 5.28530E-03-5.82415E-03
 -1       106 1.78908E-03 4.47428E-03-6.13420E-03
 -1       107 1.15148E-03 5.30877E-03-4.87266E-03
 -1       108 1.53766E-03 5.70548E-03-6.87631E-03
 -1       109 9.93323E-04 4.44881E-03-4.31949E-03
 -1       110 1.14643E-03 5.66811E-03-5.84526E-03
 -1       111 1.31965E-03 4.87101E-03-6.12724E-03
 -1       112 1.24293E-03 7.47048E-03-5.86630E-03
 -1       113 1.66743E-03 7.83315E-03-8.23199E-03
 -1       114 9.34084E-04 7.83329E-03-5.91919E-03
 -1       115 1.24683E-03 8.20359E-03-8.28761E-03
 -1       116 1.28362E-03 6.23886E-03-5.36992E-03
 -1       117 1.45453E-03 7.63841E-03-7.01299E-03
 -1       118 1.72131E-03 6.61551E-03-7.55683E-03
 -1       119 1.08940E-03 7.66673E-03-5.90071E-03
 -1       120 1.45783E-03 8.03277E-03-8.27152E-03
 -1       121 9.62995E-04 6.61027E-03-5.40817E-03
 -1       122 1.09069E-03 8.00457E-03-7.07139E-03
 -1       123 1.28359E-03 6.99741E-03-7.59699E-03
 -1       124 1.14446E-03 1.02041E-02-6.80276E-03
 -1       125 1.53699E-03 1.05366E-02-9.50334E-03
 -1       126 8.61222E-04 1.05429E-02-6.87433E-03
 -1       127 1.15262E-03 1.08792E-02-9.57850E-03
 -1       128 1.19579E-03 8.79385E-03-6.34431E-03
 -1       129 1.34045E-03 1.03581E-02-8.11480E-03
 -1       130 1.60506E-03 9.14166E-03-8.88130E-03
 -1       131 1.00342E-03 1.03867E-02-6.84636E-03
 -1       132 1.34530E-03 1.07208E-02-9.55329E-03
 -1       133 8.99592E-04 9.14557E-03-6.40798E-03
 -1       134 1.00715E-03 1.06985E-02-8.19338E-03
 -1       135 1.20244E-03 9.49886E-03-8.94821E-03
 -1       136 1.03378E-03 1.32662E-02-7.65755E-03
 -1       137 1.39002E-03 1.35667E-02-1.06611E-02
 -1       138 7.77788E-04 1.35754E-02-7.73909E-03
 -1       139 1.04343E-03 1.38778E-02-1.07466E-02
 -1       140 1.09011E-03 1.16964E-02-7.24073E-03
 -1       141 1.21180E-03 1.34053E-02-9.12001E-03
 -1       142 1.46487E-03 1.20131E-02-1.00967E-02
 -1       143 9.06100E-04 1.34325E-02-7.70584E-03
 -1       144 1.21701E-03 1.37337E-02-1.07163E-02
 -1       145 8.20368E-04 1.20209E-02-7.31812E-03
 -1       146 9.10780E-04 1.37154E-02-9.20930E-03
 -1       147 1.09928E-03 1.23403E-02-1.01779E-02
 -1       148 9.17407E-04 1.66200E-02-8.42529E-03
 -1       149 1.23536E-03 1.68873E-02-1.16996E-02
 -1       150 6.89799E-04 1.68970E-02-8.51190E-03
 -1       151 9.27503E-04 1.71652E-02-1.17904E-02
 -1       152 9.76021E-04 1.49088E-02-8.05255E-03
 -1       153 1.07636E-03 1.67437E-02-1.00226E-02
 -1       154 1.31329E-03 1.51928E-02-1.11954E-02
 -1       155 8.03777E-04 1.67687E-02-8.47584E-03
 -1       156 1.08159E-03 1.70363E-02-1.17574E-02
 -1       157 7.34141E-04 1.52022E-02-8.13708E-03
 -1       158 8.08763E-04 1.70211E-02-1.01173E-02
 -1       159 9.86008E-04 1.54875E-02-1.12841E-02
 -1       160 7.98632E-04 2.02310E-02-9.10247E-03
 -1       161 1.07738E-03 2.04643E-02-1.26153E-02
 -1       162 6.00097E-04 2.04743E-02-9.19155E-03
 -1       163 8.08795E-04 2.07080E-02-1.27087E-02
 -1       164 8.58183E-04 1.83954E-02-8.77536E-03
 -1       165 9.38006E-04 2.03389E-02-1.08189E-02
 -1       166 1.15661E-03 1.86459E-02-1.21729E-02
 -1       167 6.99455E-04 2.03615E-02-9.15404E-03
 -1       168 9.43173E-04 2.05950E-02-1.26743E-02
 -1       169 6.45065E-04 1.86557E-02-8.86344E-03
 -1       170 7.04515E-04 2.05824E-02-1.09162E-02
 -1       171 8.68358E-04 1.89067E-02-1.22652E-02
 -1       172 6.78966E-04 2.40658E-02-9.68698E-03
 -1       173 9.18106E-04 2.42647E-02-1.34065E-02
 -1       174 5.09900E-04 2.42748E-02-9.77719E-03
 -1       175 6.89090E-04 2.44738E-02-1.35010E-02
 -1       176 7.38848E-04 2.21224E-02-9.40641E-03
 -1       177 7.98545E-04 2.41578E-02-1.15066E-02
 -1       178 9.97825E-04 2.23386E-02-1.30265E-02
 -1       179 5.94479E-04 2.41778E-02-9.73898E-03
 -1       180 8.03643E-04 2.43768E-02-1.34659E-02
 -1       181 5.55021E-04 2.23487E-02-9.49617E-03
 -1       182 5.99535E-04 2.43668E-02-1.16051E-02
 -1       183 7.49008E-04 2.25651E-02-1.31206E-02
 -1       184 5.59055E-04 2.80918E-02-1.01776E-02
 -1       185 7.58420E-04 2.82561E-02-1.40718E-02
 -1       186 4.19676E-04 2.82661E-02-1.02683E-02
 -1       187 5.69128E-04 2.84304E-02-1.41668E-02
 -1       188 6.19015E-04 2.60569E-02-9.94409E-03
 -1       189 6.58746E-04 2.81677E-02-1.20845E-02
 -1       190 8.38282E-04 2.62385E-02-1.37548E-02
 -1       191 4.89387E-04 2.81852E-02-1.02298E-02
 -1       192 6.63795E-04 2.83495E-02-1.41314E-02
 -1       193 4.64778E-04 2.62486E-02-1.00346E-02
 -1       194 4.94424E-04 2.83420E-02-1.21835E-02
 -1       195 6.29119E-04 2.64303E-02-1.38496E-02
 -1       196 4.39140E-04 3.22768E-02-1.05737E-02
 -1       197 5.98660E-04 3.24063E-02-1.46107E-02
 -1       198 3.29564E-04 3.24164E-02-1.06646E-02
 -1       199 4.49174E-04 3.25459E-02-1.47059E-02
 -1       200 4.99088E-04 3.01664E-02-1.03875E-02
 -1       201 5.18906E-04 3.23366E-02-1.25520E-02
 -1       202 6.78537E-04 3.03133E-02-1.43570E-02
 -1       203 3.84362E-04 3.23516E-02-1.06259E-02
 -1       204 5.23927E-04 3.24811E-02-1.46704E-02
 -1       205 3.74603E-04 3.03234E-02-1.04783E-02
 -1       206 3.89381E-04 3.24761E-02-1.26512E-02
 -1       207 5.09143E-04 3.04703E-02-1.44521E-02
 -1       208 3.19288E-04 3.65890E-02-1.08749E-02
 -1       209 4.38937E-04 3.66836E-02-1.50230E-02
 -1       210 2.39575E-04 3.66937E-02-1.09658E-02
 -1       211 3.29300E-04 3.67883E-02-1.51183E-02
 -1       212 3.79204E-04 3.44190E-02-1.07362E-02
 -1       213 3.79117E-04 3.66326E-02-1.29087E-02
 -1       214 5.18791E-04 3.45311E-02-1.48327E-02
 -1       215 2.79436E-04 3.66451E-02-1.09271E-02
 -1       216 3.84123E-04 3.67397E-02-1.50827E-02
 -1       217 2.84555E-04 3.45411E-02-1.08271E-02
 -1       218 2.84443E-04 3.67373E-02-1.30080E-02
 -1       219 3.89227E-04 3.46532E-02-1.49279E-02
 -1       220 1.99502E-04 4.09964E-02-1.10810E-02
 -1       221 2.79270E-04 4.10562E-02-1.53085E-02
 -1       222 1.49679E-04 4.10662E-02-1.11719E-02
 -1       223 2.09501E-04 4.11260E-02-1.54037E-02
 -1       224 2.59387E-04 3.87828E-02-1.09899E-02
 -1       225 2.39388E-04 4.10238E-02-1.31545E-02
 -1       226 3.59096E-04 3.88600E-02-1.51816E-02
 -1       227 1.74592E-04 4.10338E-02-1.11332E-02
 -1       228 2.44387E-04 4.10936E-02-1.53682E-02
 -1       229 1.94617E-04 3.88700E-02-1.10808E-02
 -1       230 1.79593E-04 4.10936E-02-1.32538E-02
 -1       231 2.69392E-04 3.89472E-02-1.52768E-02
 -1       232 7.97600E-05 4.54674E-02-1.11920E-02
 -1       233 1.19644E-04 4.54923E-02-1.54671E-02
 -1       234 5.98416E-05 4.55023E-02-1.12829E-02
 -1       235 8.97538E-05 4.55272E-02-1.55623E-02
 -1       236 1.39626E-04 4.32259E-02-1.11484E-02
 -1       237 9.97030E-05 4.54786E-02-1.32893E-02
 -1       238 1.99453E-04 4.32683E-02-1.54036E-02
 -1       239 6.98014E-05 4.54860E-02-1.12442E-02
 -1       240 1.04700E-04 4.55110E-02-1.55267E-02
 -1       241 1.04755E-04 4.32783E-02-1.12393E-02
 -1       242 7.47987E-05 4.55135E-02-1.33886E-02
 -1       243 1.49623E-04 4.33206E-02-1.54988E-02
 -1       244-3.99603E-05 4.99700E-02-1.12078E-02
 -1       245-3.99607E-05 4.99600E-02-1.54988E-02
 -1       246-2.99692E-05 4.99700E-02-1.12987E-02
 -1       247-2.99690E-05 4.99600E-02-1.55940E-02
 -1       248 1.98986E-05 4.77167E-02-1.12118E-02
 -1       249-3.99606E-05 4.99650E-02-1.33130E-02
 -1       250 3.98405E-05 4.77242E-02-1.54987E-02
 -1       251-3.49646E-05 4.99700E-02-1.12600E-02
 -1       252-3.49647E-05 4.99600E-02-1.55584E-02
 -1       253 1.49347E-05 4.77342E-02-1.13027E-02
 -1       254-2.99693E-05 4.99650E-02-1.34123E-02
 -1       255 2.98910E-05 4.77416E-02-1.55940E-02
 -1       256-1.59683E-04 5.44727E-02-1.11284E-02
 -1       257-1.99568E-04 5.44278E-02-1.54035E-02
 -1       258-1.19782E-04 5.44378E-02-1.12193E-02
 -1       259-1.49694E-04 5.43929E-02-1.54987E-02
 -1       260-9.98196E-05 5.22234E-02-1.11800E-02
 -1       261-1.79627E-04 5.44515E-02-1.32257E-02
 -1       262-1.19763E-04 5.21959E-02-1.54669E-02
 -1       263-1.39733E-04 5.44540E-02-1.11806E-02
 -1       264-1.74631E-04 5.44091E-02-1.54631E-02
 -1       265-7.48736E-05 5.22059E-02-1.12709E-02
 -1       266-1.34740E-04 5.44166E-02-1.33250E-02
 -1       267-8.98296E-05 5.21785E-02-1.55622E-02
 -1       268-2.79432E-04 5.89436E-02-1.09538E-02
 -1       269-3.59201E-04 5.88639E-02-1.51813E-02
 -1       270-2.09627E-04 5.88738E-02-1.10448E-02
 -1       271-2.69449E-04 5.87941E-02-1.52766E-02
 -1       272-2.19552E-04 5.67141E-02-1.10530E-02
 -1       273-3.19319E-04 5.89062E-02-1.30273E-02
 -1       274-2.79380E-04 5.66518E-02-1.53082E-02
 -1       275-2.44531E-04 5.89062E-02-1.10060E-02
 -1       276-3.14327E-04 5.88265E-02-1.52409E-02
 -1       277-1.64699E-04 5.66618E-02-1.11440E-02
 -1       278-2.39542E-04 5.88364E-02-1.31266E-02
 -1       279-2.09566E-04 5.65994E-02-1.54034E-02
 -1       280-3.99234E-04 6.33511E-02-1.06841E-02
 -1       281-5.18885E-04 6.32364E-02-1.48322E-02
 -1       282-2.99540E-04 6.32464E-02-1.07750E-02
 -1       283-3.89265E-04 6.31317E-02-1.49275E-02
 -1       284-3.39324E-04 6.11573E-02-1.08309E-02
 -1       285-4.59064E-04 6.32975E-02-1.27179E-02
 -1       286-4.39035E-04 6.10601E-02-1.50226E-02
 -1       287-3.49391E-04 6.32950E-02-1.07363E-02
 -1       288-4.54079E-04 6.31803E-02-1.48919E-02
 -1       289-2.54573E-04 6.10700E-02-1.09218E-02
 -1       290-3.44409E-04 6.31928E-02-1.28172E-02
 -1       291-3.29348E-04 6.09728E-02-1.51178E-02
 -1       292-5.19114E-04 6.76632E-02-1.03193E-02
 -1       293-6.78637E-04 6.75137E-02-1.43563E-02
 -1       294-3.89562E-04 6.75236E-02-1.04102E-02
 -1       295-5.09173E-04 6.73741E-02-1.44515E-02
 -1       296-4.59162E-04 6.55210E-02-1.05136E-02
 -1       297-5.98883E-04 6.75934E-02-1.22976E-02
 -1       298-5.98751E-04 6.53889E-02-1.46101E-02
 -1       299-4.54348E-04 6.75884E-02-1.03715E-02
 -1       300-5.93915E-04 6.74389E-02-1.44160E-02
 -1       301-3.44535E-04 6.53989E-02-1.06045E-02
 -1       302-4.49380E-04 6.74539E-02-1.23968E-02
 -1       303-4.49206E-04 6.52668E-02-1.47053E-02
 -1       304-6.39077E-04 7.18482E-02-9.85966E-03
 -1       305-8.38445E-04 7.16639E-02-1.37538E-02
 -1       306-4.79732E-04 7.16738E-02-9.95037E-03
 -1       307-6.29185E-04 7.14895E-02-1.38488E-02
 -1       308-5.79083E-04 6.97736E-02-1.01013E-02
 -1       309-7.38770E-04 7.17623E-02-1.17665E-02
 -1       310-7.58535E-04 6.96067E-02-1.40708E-02
 -1       311-5.59427E-04 7.17547E-02-9.91183E-03
 -1       312-7.33838E-04 7.15705E-02-1.38134E-02
 -1       313-4.34627E-04 6.96166E-02-1.01922E-02
 -1       314-5.54482E-04 7.15879E-02-1.18656E-02
 -1       315-5.69167E-04 6.94497E-02-1.41660E-02
 -1       316-7.59062E-04 7.58741E-02-9.30551E-03
 -1       317-9.98205E-04 7.56552E-02-1.30250E-02
 -1       318-5.70051E-04 7.56651E-02-9.39574E-03
 -1       319-7.49246E-04 7.54461E-02-1.31195E-02
 -1       320-6.99070E-04 7.38830E-02-9.59437E-03
 -1       321-8.78642E-04 7.57721E-02-1.11251E-02
 -1       322-9.18341E-04 7.36814E-02-1.34051E-02
 -1       323-6.64605E-04 7.57620E-02-9.35753E-03
 -1       324-8.73772E-04 7.55431E-02-1.30844E-02
 -1       325-5.24877E-04 7.36913E-02-9.68490E-03
 -1       326-6.59689E-04 7.55631E-02-1.12236E-02
 -1       327-6.89220E-04 7.34897E-02-1.34999E-02
 -1       328-8.78831E-04 7.97087E-02-8.65759E-03
 -1       329-1.15757E-03 7.94555E-02-1.21705E-02
 -1       330-6.60392E-04 7.94654E-02-8.74666E-03
 -1       331-8.69099E-04 7.92118E-02-1.22638E-02
 -1       332-8.18991E-04 7.78173E-02-8.99321E-03
 -1       333-1.01820E-03 7.95908E-02-1.03740E-02
 -1       334-1.07797E-03 7.75812E-02-1.26133E-02
 -1       335-7.69708E-04 7.95782E-02-8.70918E-03
 -1       336-1.01343E-03 7.93248E-02-1.22295E-02
 -1       337-6.15238E-04 7.75911E-02-9.08299E-03
 -1       338-7.64813E-04 7.93473E-02-1.04713E-02
 -1       339-8.09231E-04 7.73548E-02-1.27074E-02
 -1       340-9.97723E-04 8.33195E-02-7.91720E-03
 -1       341-1.31565E-03 8.30324E-02-1.11916E-02
 -1       342-7.50287E-04 8.30425E-02-8.00371E-03
 -1       343-9.88007E-04 8.27545E-02-1.12823E-02
 -1       344-9.38440E-04 8.15442E-02-8.29884E-03
 -1       345-1.15666E-03 8.31859E-02-9.51464E-03
 -1       346-1.23685E-03 8.12739E-02-1.16964E-02
 -1       347-8.74191E-04 8.31708E-02-7.96775E-03
 -1       348-1.15200E-03 8.28834E-02-1.12494E-02
 -1       349-7.05452E-04 8.12839E-02-8.38688E-03
 -1       350-8.69251E-04 8.29085E-02-9.60924E-03
 -1       351-9.28757E-04 8.10131E-02-1.17887E-02
 -1       352-1.11418E-03 8.66731E-02-7.08662E-03
 -1       353-1.47037E-03 8.63529E-02-1.00905E-02
 -1       354-8.38482E-04 8.63639E-02-7.16783E-03
 -1       355-1.10416E-03 8.60418E-02-1.01757E-02
 -1       356-1.05639E-03 8.50306E-02-7.51298E-03
 -1       357-1.29216E-03 8.65242E-02-8.54935E-03
 -1       358-1.39362E-03 8.47268E-02-1.06560E-02
 -1       359-9.76669E-04 8.65068E-02-7.13483E-03
 -1       360-1.28757E-03 8.61859E-02-1.01457E-02
 -1       361-7.94737E-04 8.47372E-02-7.59732E-03
 -1       362-9.71469E-04 8.62141E-02-8.63829E-03
 -1       363-1.04663E-03 8.44321E-02-1.07445E-02
 -1       364-1.22477E-03 8.97350E-02-6.16959E-03
 -1       365-1.61719E-03 8.93832E-02-8.87107E-03
 -1       366-9.22020E-04 8.93963E-02-6.24036E-03
 -1       367-1.21347E-03 8.90405E-02-8.94533E-03
 -1       368-1.17050E-03 8.82428E-02-6.63859E-03
 -1       369-1.42067E-03 8.95714E-02-7.48220E-03
 -1       370-1.54518E-03 8.79066E-02-9.49515E-03
 -1       371-1.07401E-03 8.95525E-02-6.21291E-03
 -1       372-1.41587E-03 8.91990E-02-8.92069E-03
 -1       373-8.81141E-04 8.79183E-02-6.71546E-03
 -1       374-1.06793E-03 8.92309E-02-7.55993E-03
 -1       375-1.16009E-03 8.75793E-02-9.57580E-03
 -1       376-1.32270E-03 9.24689E-02-5.17181E-03
 -1       377-1.74696E-03 9.20873E-02-7.53934E-03
 -1       378-9.94595E-04 9.21062E-02-5.22300E-03
 -1       379-1.30742E-03 9.17166E-02-7.59312E-03
 -1       380-1.27592E-03 9.11453E-02-5.68035E-03
 -1       381-1.53411E-03 9.22915E-02-6.31958E-03
 -1       382-1.68502E-03 9.07784E-02-8.21864E-03
 -1       383-1.15960E-03 9.22728E-02-5.20553E-03
 -1       384-1.52796E-03 9.18876E-02-7.57810E-03
 -1       385-9.60327E-04 9.07937E-02-5.74284E-03
 -1       386-1.15116E-03 9.19252E-02-6.37620E-03
 -1       387-1.26324E-03 9.04210E-02-8.28424E-03
 -1       388-1.39375E-03 9.48365E-02-4.10152E-03
 -1       389-1.84091E-03 9.44283E-02-6.10647E-03
 -1       390-1.04287E-03 9.44602E-02-4.11666E-03
 -1       391-1.36839E-03 9.40371E-02-6.12219E-03
 -1       392-1.36277E-03 9.37010E-02-4.64521E-03
 -1       393-1.61585E-03 9.46461E-02-5.07149E-03
 -1       394-1.80013E-03 9.33057E-02-6.83472E-03
 -1       395-1.22028E-03 9.46321E-02-4.11658E-03
 -1       396-1.60631E-03 9.42167E-02-6.12365E-03
 -1       397-1.02304E-03 9.33297E-02-4.68106E-03
 -1       398-1.20553E-03 9.42631E-02-5.08918E-03
 -1       399-1.34374E-03 9.29234E-02-6.87229E-03
 -1       400-1.41531E-03 9.67981E-02-2.96689E-03
 -1       401-1.86663E-03 9.63641E-02-4.58056E-03
 -1       402-1.04171E-03 9.64271E-02-2.92181E-03
 -1       403-1.36330E-03 9.59660E-02-4.53422E-03
 -1       404-1.41297E-03 9.58703E-02-3.54224E-03
 -1       405-1.63784E-03 9.65970E-02-3.74801E-03
 -1       406-1.86516E-03 9.54496E-02-5.35485E-03
 -1       407-1.22945E-03 9.65946E-02-2.94929E-03
 -1       408-1.61492E-03 9.61481E-02-4.56129E-03
 -1       409-1.05116E-03 9.54934E-02-3.53088E-03
 -1       410-1.20177E-03 9.62142E-02-3.70020E-03
 -1       411-1.37762E-03 9.50523E-02-5.34315E-03
 -1       412-1.32744E-03 9.83248E-02-1.77319E-03
 -1       413-1.74463E-03 9.78717E-02-2.99965E-03
 -1       414-9.33263E-04 9.79967E-02-1.61557E-03
 -1       415-1.21761E-03 9.74958E-02-2.83166E-03
 -1       416-1.38880E-03 9.76169E-02-2.37837E-03
 -1       417-1.53194E-03 9.81044E-02-2.36534E-03
 -1       418-1.83173E-03 9.71719E-02-3.79662E-03
 -1       419-1.14004E-03 9.81442E-02-1.69098E-03
 -1       420-1.49092E-03 9.76631E-02-2.90109E-03
 -1       421-1.00631E-03 9.72606E-02-2.28505E-03
 -1       422-1.07337E-03 9.77551E-02-2.19623E-03
 -1       423-1.31487E-03 9.67816E-02-3.69795E-03
 -1       424-1.03293E-03 9.93956E-02-5.38250E-04
 -1       425-1.31999E-03 9.89342E-02-1.32031E-03
 -1       426-6.30953E-04 9.91758E-02-2.62349E-04
 -1       427-8.23094E-04 9.86409E-02-1.04839E-03
 -1       428-1.22961E-03 9.89188E-02-1.17322E-03
 -1       429-1.17125E-03 9.92157E-02-8.83757E-04
 -1       430-1.59845E-03 9.84462E-02-2.19864E-03
 -1       431-7.98203E-04 9.92635E-02-3.28422E-04
 -1       432-1.02920E-03 9.87709E-02-1.08801E-03
 -1       433-8.13536E-04 9.86333E-02-9.40959E-04
 -1       434-7.24894E-04 9.89699E-02-5.71522E-04
 -1       435-1.05822E-03 9.80959E-02-1.96076E-03
 -1       436 0.00000E+00 1.00000E-01 1.00000E-03
 -1       437 0.00000E+00 1.00000E-01 1.00000E-03
 -1       438 0.00000E+00 1.00000E-01 1.00000E-03
 -1       439 0.00000E+00 1.00000E-01 1.00000E-03
 -1       440-6.78469E-04 9.98067E-02 2.28108E-04
 -1       441 0.00000E+00 1.00000E-01 1.00000E-03
 -1       442-9.04348E-04 9.93240E-02-2.35846E-04
 -1       443 0.00000E+00 1.00000E-01 1.00000E-03
 -1       444 0.00000E+00 1.00000E-01 1.00000E-03
 -1       445-3.25751E-04 9.96730E-02 4.57784E-04
 -1       446 0.00000E+00 1.00000E-01 1.00000E-03
 -1       447-4.31595E-04 9.91975E-02-2.58283E-06
 -1       448 0.00000E+00 0.00000E+00 0.00000E+00
 -1       449 0.00000E+00 0.00000E+00 0.00000E+00
 -1       450 3.31773E-04 9.10694E-04-1.14668E-03
 -1       451 4.35139E-04 1.44599E-03-1.95730E-03
 -1       452 0.00000E+00 0.00000E+00 0.00000E+00
 -1       453 0.00000E+00 0.00000E+00 0.00000E+00
 -1       454 4.48104E-04 8.62622E-04-1.15959E-03
 -1       455 5.91115E-04 1.38985E-03-1.94886E-03
 -1       456 0.00000E+00 0.00000E+00 0.00000E+00
 -1       457 1.75571E-04 3.62160E-04-5.10857E-04
 -1       458 3.84826E-04 1.11467E-03-1.45517E-03
 -1       459 2.35195E-04 8.49567E-04-9.96457E-04
 -1       460 5.44708E-04 2.15148E-03-2.43450E-03
 -1       461 7.14276E-04 2.66852E-03-3.66606E-03
 -1       462 7.09388E-04 2.06787E-03-2.46030E-03
 -1       463 9.34092E-04 2.57064E-03-3.67895E-03
 -1       464 4.58139E-04 1.48759E-03-1.78594E-03
 -1       465 6.30552E-04 2.40166E-03-3.01608E-03
 -1       466 6.00064E-04 2.03883E-03-2.83055E-03
 -1       467 6.35353E-04 3.75472E-03-3.69890E-03
 -1       468 8.36720E-04 4.22054E-03-5.31208E-03
 -1       469 8.08080E-04 3.65123E-03-3.71698E-03
 -1       470 1.06785E-03 4.10603E-03-5.32597E-03
 -1       471 6.02329E-04 2.90793E-03-3.07881E-03
 -1       472 7.36924E-04 3.96957E-03-4.47582E-03
 -1       473 7.91662E-04 3.39805E-03-4.49803E-03
 -1       474 6.48036E-04 5.73121E-03-4.86166E-03
 -1       475 8.57183E-04 6.15009E-03-6.86213E-03
 -1       476 8.15609E-04 5.62062E-03-4.86970E-03
 -1       477 1.08202E-03 6.03283E-03-6.87083E-03
 -1       478 6.48635E-04 4.69558E-03-4.29244E-03
 -1       479 7.53574E-04 5.92606E-03-5.83174E-03
 -1       480 8.56034E-04 5.13622E-03-6.10206E-03
 -1       481 6.21148E-04 8.08093E-03-5.92908E-03
 -1       482 8.25194E-04 8.45986E-03-8.29132E-03
 -1       483 7.77760E-04 7.97092E-03-5.92732E-03
 -1       484 1.03567E-03 8.34571E-03-8.29266E-03
 -1       485 6.38074E-04 6.86096E-03-5.40765E-03
 -1       486 7.23931E-04 8.25646E-03-7.07977E-03
 -1       487 8.45879E-04 7.25944E-03-7.59205E-03
 -1       488 5.74719E-04 1.07779E-02-6.89950E-03
 -1       489 7.66505E-04 1.11192E-02-9.59534E-03
 -1       490 7.18259E-04 1.06730E-02-6.89088E-03
 -1       491 9.59594E-04 1.10119E-02-9.59105E-03
 -1       492 5.99554E-04 9.38785E-03-6.42640E-03
 -1       493 6.71157E-04 1.09360E-02-8.21672E-03
 -1       494 7.98112E-04 9.74764E-03-8.95918E-03
 -1       495 5.19562E-04 1.37924E-02-7.77376E-03
 -1       496 6.95323E-04 1.40974E-02-1.07719E-02
 -1       497 6.48914E-04 1.36953E-02-7.76069E-03
 -1       498 8.69489E-04 1.39990E-02-1.07637E-02
 -1       499 5.47838E-04 1.22475E-02-7.34867E-03
 -1       500 6.07796E-04 1.39336E-02-9.24204E-03
 -1       501 7.31950E-04 1.25705E-02-1.01995E-02
 -1       502 4.60781E-04 1.70927E-02-8.55215E-03
 -1       503 6.18553E-04 1.73622E-02-1.18207E-02
 -1       504 5.75463E-04 1.70049E-02-8.53639E-03
 -1       505 7.73137E-04 1.72737E-02-1.18102E-02
 -1       506 4.90438E-04 1.54088E-02-8.17495E-03
 -1       507 5.39882E-04 1.72174E-02-1.01556E-02
 -1       508 6.57378E-04 1.56960E-02-1.13122E-02
 -1       509 4.00723E-04 2.06470E-02-9.23493E-03
 -1       510 5.39503E-04 2.08813E-02-1.27418E-02
 -1       511 5.00521E-04 2.05694E-02-9.21763E-03
 -1       512 6.74231E-04 2.08035E-02-1.27300E-02
 -1       513 4.30831E-04 1.88401E-02-8.90550E-03
 -1       514 4.70237E-04 2.07554E-02-1.09576E-02
 -1       515 5.79195E-04 1.90920E-02-1.22971E-02
 -1       516 3.40359E-04 2.44235E-02-9.82224E-03
 -1       517 4.59648E-04 2.46228E-02-1.35356E-02
 -1       518 4.25196E-04 2.43566E-02-9.80410E-03
 -1       519 5.74423E-04 2.45558E-02-1.35230E-02
 -1       520 3.70548E-04 2.25094E-02-9.54053E-03
 -1       521 4.00072E-04 2.45157E-02-1.16482E-02
 -1       522 4.99626E-04 2.27263E-02-1.31546E-02
 -1       523 2.80040E-04 2.83904E-02-1.03142E-02
 -1       524 3.79595E-04 2.85548E-02-1.42022E-02
 -1       525 3.49896E-04 2.83345E-02-1.02956E-02
 -1       526 4.74394E-04 2.84989E-02-1.41892E-02
 -1       527 3.10184E-04 2.63851E-02-1.00802E-02
 -1       528 3.29854E-04 2.84664E-02-1.22275E-02
 -1       529 4.19627E-04 2.65670E-02-1.38848E-02
 -1       530 2.19855E-04 3.25159E-02-1.07109E-02
 -1       531 2.99560E-04 3.26455E-02-1.47417E-02
 -1       532 2.74730E-04 3.24711E-02-1.06921E-02
 -1       533 3.74386E-04 3.26007E-02-1.47285E-02
 -1       534 2.49930E-04 3.04353E-02-1.05245E-02
 -1       535 2.59726E-04 3.25757E-02-1.26956E-02
 -1       536 3.39569E-04 3.05823E-02-1.44878E-02
 -1       537 1.59795E-04 3.67684E-02-1.10124E-02
 -1       538 2.19597E-04 3.68631E-02-1.51543E-02
 -1       539 1.99696E-04 3.67348E-02-1.09934E-02
 -1       540 2.74459E-04 3.68294E-02-1.51409E-02
 -1       541 1.89811E-04 3.46283E-02-1.08735E-02
 -1       542 1.89705E-04 3.68120E-02-1.30526E-02
 -1       543 2.59569E-04 3.47404E-02-1.49638E-02
 -1       544 9.98256E-05 4.11160E-02-1.12186E-02
 -1       545 1.39701E-04 4.11758E-02-1.54398E-02
 -1       546 1.24757E-04 4.10936E-02-1.11996E-02
 -1       547 1.74606E-04 4.11534E-02-1.54264E-02
 -1       548 1.29801E-04 3.89323E-02-1.11274E-02
 -1       549 1.19767E-04 4.11434E-02-1.32985E-02
 -1       550 1.79642E-04 3.90095E-02-1.53129E-02
 -1       551 3.99109E-05 4.55272E-02-1.13296E-02
 -1       552 5.98508E-05 4.55521E-02-1.55984E-02
 -1       553 4.98784E-05 4.55160E-02-1.13106E-02
 -1       554 7.48044E-05 4.55409E-02-1.55850E-02
 -1       555 6.98633E-05 4.33157E-02-1.12860E-02
 -1       556 4.98823E-05 4.55384E-02-1.34333E-02
 -1       557 9.97719E-05 4.33580E-02-1.55349E-02
 -1       558-1.99790E-05 4.99700E-02-1.13454E-02
 -1       559-1.99785E-05 4.99600E-02-1.56301E-02
 -1       560-2.49740E-05 4.99700E-02-1.13264E-02
 -1       561-2.49736E-05 4.99600E-02-1.56167E-02
 -1       562 9.96454E-06 4.77466E-02-1.13494E-02
 -1       563-1.99790E-05 4.99650E-02-1.34570E-02
 -1       564 1.99349E-05 4.77541E-02-1.56301E-02
 -1       565-7.98711E-05 5.44129E-02-1.12660E-02
 -1       566-9.98098E-05 5.43680E-02-1.55348E-02
 -1       567-9.98286E-05 5.44241E-02-1.12470E-02
 -1       568-1.24754E-04 5.43792E-02-1.55214E-02
 -1       569-4.99231E-05 5.21934E-02-1.13176E-02
 -1       570-8.98422E-05 5.43917E-02-1.33697E-02
 -1       571-5.98924E-05 5.21660E-02-1.55983E-02
 -1       572-1.39793E-04 5.88240E-02-1.10914E-02
 -1       573-1.79668E-04 5.87442E-02-1.53126E-02
 -1       574-1.74715E-04 5.88464E-02-1.10724E-02
 -1       575-2.24563E-04 5.87667E-02-1.52992E-02
 -1       576-1.09826E-04 5.66244E-02-1.11906E-02
 -1       577-1.59735E-04 5.87866E-02-1.31713E-02
 -1       578-1.39734E-04 5.65621E-02-1.54395E-02
 -1       579-1.99778E-04 6.31717E-02-1.08216E-02
 -1       580-2.59579E-04 6.30570E-02-1.49635E-02
 -1       581-2.49671E-04 6.32053E-02-1.08027E-02
 -1       582-3.24433E-04 6.30906E-02-1.49501E-02
 -1       583-1.69775E-04 6.10077E-02-1.09684E-02
 -1       584-2.29688E-04 6.31181E-02-1.28618E-02
 -1       585-2.19615E-04 6.09105E-02-1.51539E-02
 -1       586-2.59869E-04 6.74241E-02-1.04565E-02
 -1       587-3.39573E-04 6.72746E-02-1.44874E-02
 -1       588-3.24738E-04 6.74689E-02-1.04377E-02
 -1       589-4.24393E-04 6.73194E-02-1.44741E-02
 -1       590-2.29807E-04 6.53118E-02-1.06510E-02
 -1       591-2.99740E-04 6.73543E-02-1.24412E-02
 -1       592-2.99564E-04 6.51797E-02-1.47412E-02
 -1       593-3.20109E-04 7.15496E-02-9.99628E-03
 -1       594-4.19666E-04 7.13652E-02-1.38842E-02
 -1       595-3.99963E-04 7.16055E-02-9.97770E-03
 -1       596-5.24462E-04 7.14211E-02-1.38712E-02
 -1       597-2.89968E-04 6.95047E-02-1.02383E-02
 -1       598-3.69924E-04 7.14636E-02-1.19095E-02
 -1       599-3.79608E-04 6.93377E-02-1.42016E-02
 -1       600-3.80520E-04 7.55164E-02-9.44074E-03
 -1       601-4.99817E-04 7.52971E-02-1.31541E-02
 -1       602-4.75361E-04 7.55832E-02-9.42263E-03
 -1       603-6.24593E-04 7.53641E-02-1.31415E-02
 -1       604-3.50294E-04 7.35548E-02-9.73043E-03
 -1       605-4.40236E-04 7.54142E-02-1.12667E-02
 -1       606-4.59741E-04 7.33529E-02-1.35350E-02
 -1       607-4.41027E-04 7.92927E-02-8.78987E-03
 -1       608-5.79827E-04 7.90384E-02-1.22968E-02
 -1       609-5.50835E-04 7.93703E-02-8.77267E-03
 -1       610-7.24560E-04 7.91163E-02-1.22850E-02
 -1       611-4.10774E-04 7.74303E-02-9.12724E-03
 -1       612-5.10547E-04 7.91743E-02-1.05126E-02
 -1       613-5.39865E-04 7.71936E-02-1.27413E-02
 -1       614-5.01280E-04 8.28468E-02-8.04360E-03
 -1       615-6.59095E-04 8.25574E-02-1.13122E-02
 -1       616-6.25981E-04 8.29346E-02-8.02804E-03
 -1       617-8.23688E-04 8.26459E-02-1.13019E-02
 -1       618-4.71227E-04 8.10995E-02-8.42869E-03
 -1       619-5.80392E-04 8.27121E-02-9.64714E-03
 -1       620-6.19621E-04 8.08277E-02-1.18203E-02
 -1       621-5.60283E-04 8.61468E-02-7.20178E-03
 -1       622-7.36130E-04 8.58220E-02-1.02001E-02
 -1       623-6.99661E-04 8.62440E-02-7.18909E-03
 -1       624-9.20300E-04 8.59205E-02-1.01924E-02
 -1       625-5.31049E-04 8.45305E-02-7.63467E-03
 -1       626-6.48535E-04 8.59957E-02-8.67027E-03
 -1       627-6.98052E-04 8.42235E-02-1.07720E-02
 -1       628-6.15586E-04 8.91610E-02-6.26421E-03
 -1       629-8.07527E-04 8.88002E-02-8.96072E-03
 -1       630-7.69147E-04 8.92661E-02-6.25627E-03
 -1       631-1.01060E-03 8.89076E-02-8.95717E-03
 -1       632-5.88654E-04 8.76916E-02-6.74502E-03
 -1       633-7.12050E-04 8.89931E-02-7.58190E-03
 -1       634-7.72883E-04 8.73489E-02-9.59628E-03
 -1       635-6.61824E-04 9.18581E-02-5.23062E-03
 -1       636-8.66128E-04 9.14598E-02-7.59438E-03
 -1       637-8.28419E-04 9.19684E-02-5.22998E-03
 -1       638-1.08653E-03 9.15742E-02-7.59694E-03
 -1       639-6.40396E-04 9.05511E-02-5.75951E-03
 -1       640-7.64643E-04 9.16728E-02-6.38227E-03
 -1       641-8.39157E-04 9.01718E-02-8.29331E-03
 -1       642-6.87609E-04 9.42089E-02-4.10018E-03
 -1       643-8.97145E-04 9.37707E-02-6.10377E-03
 -1       644-8.65058E-04 9.43199E-02-4.10992E-03
 -1       645-1.13177E-03 9.38885E-02-6.11428E-03
 -1       646-6.78368E-04 9.30785E-02-4.67767E-03
 -1       647-7.93189E-04 9.40043E-02-5.07205E-03
 -1       648-8.86495E-04 9.26606E-02-6.86428E-03
 -1       649-6.71855E-04 9.61886E-02-2.87454E-03
 -1       650-8.73736E-04 9.57033E-02-4.49352E-03
 -1       651-8.54115E-04 9.62926E-02-2.89484E-03
 -1       652-1.11429E-03 9.58187E-02-4.50971E-03
 -1       653-6.87019E-04 9.52457E-02-3.49953E-03
 -1       654-7.73457E-04 9.59639E-02-3.65453E-03
 -1       655-8.94875E-04 9.47858E-02-5.31347E-03
 -1       656-5.74272E-04 9.78000E-02-1.54695E-03
 -1       657-7.44349E-04 9.72632E-02-2.78922E-03
 -1       658-7.47570E-04 9.78843E-02-1.57517E-03
 -1       659-9.72722E-04 9.73620E-02-2.80451E-03
 -1       660-6.35961E-04 9.70386E-02-2.22289E-03
 -1       661-6.60123E-04 9.75394E-02-2.13361E-03
 -1       662-8.25832E-04 9.65289E-02-3.65005E-03
 -1       663-3.48685E-04 9.90582E-02-1.98517E-04
 -1       664-4.52362E-04 9.85036E-02-1.02436E-03
 -1       665-4.70821E-04 9.91066E-02-2.12771E-04
 -1       666-6.14174E-04 9.85602E-02-1.01709E-03
 -1       667-4.82255E-04 9.84712E-02-8.67490E-04
 -1       668-4.01757E-04 9.88462E-02-5.11011E-04
 -1       669-6.24624E-04 9.78994E-02-1.92604E-03
 -1       670 0.00000E+00 1.00000E-01 1.00000E-03
 -1       671 0.00000E+00 1.00000E-01 1.00000E-03
 -1       672 0.00000E+00 1.00000E-01 1.00000E-03
 -1       673 0.00000E+00 1.00000E-01 1.00000E-03
 -1       674-1.84219E-04 9.96222E-02 4.66014E-04
 -1       675 0.00000E+00 1.00000E-01 1.00000E-03
 -1       676-2.44033E-04 9.91177E-02-3.13312E-05
 -1       677 0.00000E+00 0.00000E+00 0.00000E+00
 -1       678 0.00000E+00 0.00000E+00 0.00000E+00
 -1       679 1.54273E-04 9.63683E-04-1.14335E-03
 -1       680 2.00998E-04 1.51520E-03-1.98382E-03
 -1       681 0.00000E+00 0.00000E+00 0.00000E+00
 -1       682 0.00000E+00 0.00000E+00 0.00000E+00
 -1       683 2.37767E-04 9.42919E-04-1.14299E-03
 -1       684 3.10670E-04 1.48698E-03-1.97105E-03
 -1       685 0.00000E+00 0.00000E+00 0.00000E+00
 -1       686 8.15610E-05 3.87357E-04-5.08164E-04
 -1       687 1.78673E-04 1.17302E-03-1.45922E-03
 -1       688 1.08256E-04 8.82419E-04-1.01317E-03
 -1       689 2.58424E-04 2.25235E-03-2.41547E-03
 -1       690 3.36923E-04 2.78714E-03-3.66865E-03
 -1       691 3.95729E-04 2.21214E-03-2.42159E-03
 -1       692 5.17393E-04 2.73950E-03-3.66536E-03
 -1       693 2.12960E-04 1.56661E-03-1.77305E-03
 -1       694 2.98782E-04 2.51122E-03-3.00430E-03
 -1       695 2.77114E-04 2.13565E-03-2.84499E-03
 -1       696 3.08598E-04 3.88377E-03-3.67709E-03
 -1       697 4.04227E-04 4.36403E-03-5.29827E-03
 -1       698 4.69018E-04 3.83142E-03-3.68531E-03
 -1       699 6.15852E-04 4.30561E-03-5.30268E-03
 -1       700 2.89286E-04 3.02525E-03-3.05690E-03
 -1       701 3.57368E-04 4.10561E-03-4.45645E-03
 -1       702 3.77962E-04 3.53190E-03-4.49055E-03
 -1       703 3.20281E-04 5.87230E-03-4.84850E-03
 -1       704 4.21760E-04 6.30113E-03-6.84932E-03
 -1       705 4.83154E-04 5.81450E-03-4.85441E-03
 -1       706 6.37534E-04 6.23910E-03-6.85492E-03
 -1       707 3.18291E-04 4.83232E-03-4.27413E-03
 -1       708 3.71827E-04 6.07200E-03-5.81835E-03
 -1       709 4.18006E-04 5.28500E-03-6.08741E-03
 -1       710 3.09425E-04 8.22350E-03-5.92614E-03
 -1       711 4.09626E-04 8.60863E-03-8.28449E-03
 -1       712 4.65027E-04 8.16475E-03-5.92812E-03
 -1       713 6.16587E-04 8.54719E-03-8.28805E-03
 -1       714 3.16842E-04 7.00386E-03-5.39960E-03
 -1       715 3.60137E-04 8.40204E-03-7.07520E-03
 -1       716 4.18356E-04 7.41023E-03-7.58191E-03
 -1       717 2.87279E-04 1.09153E-02-6.90519E-03
 -1       718 3.82137E-04 1.12602E-02-9.59494E-03
 -1       719 4.31060E-04 1.08584E-02-6.90371E-03
 -1       720 5.74075E-04 1.12017E-02-9.59607E-03
 -1       721 2.99297E-04 9.52847E-03-6.42806E-03
 -1       722 3.35131E-04 1.10751E-02-8.22015E-03
 -1       723 3.97201E-04 9.89304E-03-8.95567E-03
 -1       724 2.60024E-04 1.39204E-02-7.78556E-03
 -1       725 3.47333E-04 1.42274E-02-1.07764E-02
 -1       726 3.89917E-04 1.38673E-02-7.78152E-03
 -1       727 5.21283E-04 1.41735E-02-1.07755E-02
 -1       728 2.74058E-04 1.23805E-02-7.35773E-03
 -1       729 3.03950E-04 1.40626E-02-9.25131E-03
 -1       730 3.65343E-04 1.27063E-02-1.02018E-02
 -1       731 2.30665E-04 1.72089E-02-8.56787E-03
 -1       732 3.09244E-04 1.74795E-02-1.18286E-02
 -1       733 3.45838E-04 1.71606E-02-8.56216E-03
 -1       734 4.63925E-04 1.74307E-02-1.18263E-02
 -1       735 2.45497E-04 1.55311E-02-8.18895E-03
 -1       736 2.70118E-04 1.73341E-02-1.01687E-02
 -1       737 3.28548E-04 1.58198E-02-1.13186E-02
 -1       738 2.00578E-04 2.07499E-02-9.25301E-03
 -1       739 2.69809E-04 2.09848E-02-1.27518E-02
 -1       740 3.00734E-04 2.07071E-02-9.24627E-03
 -1       741 4.04694E-04 2.09418E-02-1.27486E-02
 -1       742 2.15665E-04 1.89498E-02-8.92257E-03
 -1       743 2.35287E-04 2.08586E-02-1.09730E-02
 -1       744 2.89626E-04 1.92025E-02-1.23062E-02
 -1       745 1.70327E-04 2.45123E-02-9.84167E-03
 -1       746 2.29891E-04 2.47120E-02-1.35468E-02
 -1       747 2.55397E-04 2.44753E-02-9.83434E-03
 -1       748 3.44802E-04 2.46749E-02-1.35431E-02
 -1       749 1.85455E-04 2.26054E-02-9.55938E-03
 -1       750 2.00161E-04 2.46047E-02-1.16649E-02
 -1       751 2.49880E-04 2.28227E-02-1.31652E-02
 -1       752 1.40112E-04 2.84647E-02-1.03344E-02
 -1       753 1.89850E-04 2.86293E-02-1.42140E-02
 -1       754 2.10109E-04 2.84338E-02-1.03267E-02
 -1       755 2.84745E-04 2.85983E-02-1.42100E-02
 -1       756 1.55209E-04 2.64668E-02-1.01000E-02
 -1       757 1.65008E-04 2.85408E-02-1.22449E-02
 -1       758 2.09875E-04 2.66489E-02-1.38963E-02
 -1       759 1.09981E-04 3.25755E-02-1.07314E-02
 -1       760 1.49816E-04 3.27052E-02-1.47539E-02
 -1       761 1.64937E-04 3.25507E-02-1.07236E-02
 -1       762 2.24702E-04 3.26803E-02-1.47497E-02
 -1       763 1.25035E-04 3.05023E-02-1.05449E-02
 -1       764 1.29912E-04 3.26354E-02-1.27134E-02
 -1       765 1.69829E-04 3.06494E-02-1.44998E-02
 -1       766 7.99272E-05 3.68132E-02-1.10331E-02
 -1       767 1.09820E-04 3.69079E-02-1.51666E-02
 -1       768 1.19871E-04 3.67945E-02-1.10252E-02
 -1       769 1.64717E-04 3.68892E-02-1.51623E-02
 -1       770 9.49456E-05 3.46805E-02-1.08942E-02
 -1       771 9.48804E-05 3.68568E-02-1.30706E-02
 -1       772 1.29813E-04 3.47926E-02-1.49761E-02
 -1       773 4.99280E-05 4.11459E-02-1.12394E-02
 -1       774 6.98626E-05 4.12057E-02-1.54522E-02
 -1       775 7.48820E-05 4.11335E-02-1.12314E-02
 -1       776 1.04786E-04 4.11933E-02-1.54479E-02
 -1       777 6.49220E-05 3.89696E-02-1.11482E-02
 -1       778 5.98983E-05 4.11733E-02-1.33166E-02
 -1       779 8.98373E-05 3.90469E-02-1.53252E-02
 -1       780 1.99619E-05 4.55421E-02-1.13505E-02
 -1       781 2.99307E-05 4.55670E-02-1.56109E-02
 -1       782 2.99386E-05 4.55359E-02-1.13425E-02
 -1       783 4.48927E-05 4.55608E-02-1.56066E-02
 -1       784 3.49419E-05 4.33381E-02-1.13069E-02
 -1       785 2.49474E-05 4.55533E-02-1.34514E-02
 -1       786 4.98943E-05 4.33804E-02-1.55474E-02
 -1       787-9.98943E-06 4.99700E-02-1.13663E-02
 -1       788-9.98903E-06 4.99600E-02-1.56425E-02
 -1       789-1.49842E-05 4.99700E-02-1.13583E-02
 -1       790-1.49837E-05 4.99600E-02-1.56383E-02
 -1       791 4.98536E-06 4.77541E-02-1.13703E-02
 -1       792-9.98934E-06 4.99650E-02-1.34752E-02
 -1       793 9.97015E-06 4.77615E-02-1.56425E-02
 -1       794-3.99420E-05 5.43979E-02-1.12869E-02
 -1       795-4.99100E-05 5.43531E-02-1.55473E-02
 -1       796-5.99086E-05 5.44042E-02-1.12789E-02
 -1       797-7.48617E-05 5.43593E-02-1.55430E-02
 -1       798-2.49645E-05 5.21860E-02-1.13385E-02
 -1       799-4.49273E-05 5.43767E-02-1.33878E-02
 -1       800-2.99485E-05 5.21585E-02-1.56107E-02
 -1       801-6.99125E-05 5.87941E-02-1.11122E-02
 -1       802-8.98463E-05 5.87144E-02-1.53250E-02
 -1       803-1.04858E-04 5.88066E-02-1.11043E-02
 -1       804-1.34761E-04 5.87268E-02-1.53208E-02
 -1       805-5.49237E-05 5.66020E-02-1.12115E-02
 -1       806-7.98827E-05 5.87567E-02-1.31894E-02
 -1       807-6.98752E-05 5.65397E-02-1.54520E-02
 -1       808-9.99214E-05 6.31269E-02-1.08423E-02
 -1       809-1.29814E-04 6.30122E-02-1.49758E-02
 -1       810-1.49861E-04 6.31455E-02-1.08344E-02
 -1       811-1.94705E-04 6.30309E-02-1.49716E-02
 -1       812-8.49105E-05 6.09704E-02-1.09892E-02
 -1       813-1.14875E-04 6.30733E-02-1.28798E-02
 -1       814-1.09825E-04 6.08732E-02-1.51662E-02
 -1       815-1.29994E-04 6.73645E-02-1.04771E-02
 -1       816-1.69829E-04 6.72149E-02-1.44995E-02
 -1       817-1.94952E-04 6.73893E-02-1.04693E-02
 -1       818-2.54717E-04 6.72397E-02-1.44953E-02
 -1       819-1.14948E-04 6.52595E-02-1.06716E-02
 -1       820-1.49925E-04 6.72946E-02-1.24590E-02
 -1       821-1.49814E-04 6.51274E-02-1.47535E-02
 -1       822-1.60159E-04 7.14752E-02-1.00164E-02
 -1       823-2.09899E-04 7.12907E-02-1.38960E-02
 -1       824-2.40171E-04 7.15062E-02-1.00088E-02
 -1       825-3.14809E-04 7.13217E-02-1.38920E-02
 -1       826-1.45063E-04 6.94377E-02-1.02587E-02
 -1       827-1.85056E-04 7.13892E-02-1.19269E-02
 -1       828-1.89857E-04 6.92706E-02-1.42136E-02
 -1       829-1.90430E-04 7.54275E-02-9.46008E-03
 -1       830-2.50002E-04 7.52079E-02-1.31651E-02
 -1       831-2.85538E-04 7.54645E-02-9.45279E-03
 -1       832-3.74950E-04 7.52450E-02-1.31615E-02
 -1       833-1.75281E-04 7.34731E-02-9.75024E-03
 -1       834-2.20267E-04 7.53252E-02-1.12833E-02
 -1       835-2.29951E-04 7.32711E-02-1.35465E-02
 -1       836-2.20769E-04 7.91898E-02-8.80777E-03
 -1       837-2.90017E-04 7.89349E-02-1.23065E-02
 -1       838-3.30995E-04 7.92326E-02-8.80112E-03
 -1       839-4.34975E-04 7.89780E-02-1.23034E-02
 -1       840-2.05598E-04 7.73344E-02-9.14597E-03
 -1       841-2.55484E-04 7.90711E-02-1.05278E-02
 -1       842-2.70035E-04 7.70972E-02-1.27518E-02
 -1       843-2.50977E-04 8.27305E-02-8.05896E-03
 -1       844-3.29593E-04 8.24401E-02-1.13197E-02
 -1       845-3.76265E-04 8.27788E-02-8.05341E-03
 -1       846-4.94396E-04 8.24889E-02-1.13175E-02
 -1       847-2.35914E-04 8.09898E-02-8.44550E-03
 -1       848-2.90441E-04 8.25953E-02-9.65985E-03
 -1       849-3.09899E-04 8.07172E-02-1.18291E-02
 -1       850-2.80473E-04 8.60187E-02-7.21292E-03
 -1       851-3.67853E-04 8.56918E-02-1.02040E-02
 -1       852-4.20533E-04 8.60718E-02-7.20918E-03
 -1       853-5.51986E-04 8.57459E-02-1.02034E-02
 -1       854-2.65879E-04 8.44081E-02-7.64818E-03
 -1       855-3.24417E-04 8.58666E-02-8.67886E-03
 -1       856-3.48981E-04 8.40996E-02-1.07779E-02
 -1       857-3.07819E-04 8.90234E-02-6.26879E-03
 -1       858-4.02801E-04 8.86589E-02-8.95911E-03
 -1       859-4.61803E-04 8.90804E-02-6.26780E-03
 -1       860-6.04972E-04 8.87174E-02-8.96077E-03
 -1       861-2.94566E-04 8.75584E-02-6.75321E-03
 -1       862-3.55702E-04 8.88537E-02-7.58419E-03
 -1       863-3.85945E-04 8.72128E-02-9.59764E-03
 -1       864-3.29850E-04 9.17151E-02-5.22595E-03
 -1       865-4.30252E-04 9.13104E-02-7.58569E-03
 -1       866-4.95613E-04 9.17741E-02-5.22868E-03
 -1       867-6.47426E-04 9.13721E-02-7.59007E-03
 -1       868-3.19823E-04 9.04101E-02-5.75976E-03
 -1       869-3.80608E-04 9.15267E-02-6.37594E-03
 -1       870-4.17886E-04 9.00259E-02-8.28828E-03
 -1       871-3.40044E-04 9.40671E-02-4.08461E-03
 -1       872-4.41815E-04 9.36187E-02-6.08842E-03
 -1       873-5.12829E-04 9.41252E-02-4.09155E-03
 -1       874-6.67585E-04 9.36812E-02-6.09510E-03
 -1       875-3.37036E-04 9.29350E-02-4.66755E-03
 -1       876-3.91651E-04 9.38575E-02-5.05623E-03
 -1       877-4.38796E-04 9.25091E-02-6.85192E-03
 -1       878-3.26547E-04 9.60586E-02-2.84986E-03
 -1       879-4.22534E-04 9.55586E-02-4.47676E-03
 -1       880-4.96148E-04 9.61113E-02-2.85924E-03
 -1       881-6.43461E-04 9.56176E-02-4.48236E-03
 -1       882-3.37344E-04 9.51081E-02-3.47852E-03
 -1       883-3.75386E-04 9.58268E-02-3.63230E-03
 -1       884-4.37390E-04 9.46359E-02-5.29598E-03
 -1       885-2.72613E-04 9.76982E-02-1.52547E-03
 -1       886-3.51456E-04 9.71433E-02-2.78950E-03
 -1       887-4.17350E-04 9.77388E-02-1.53252E-03
 -1       888-5.39484E-04 9.71914E-02-2.78708E-03
 -1       889-3.05638E-04 9.69203E-02-2.19820E-03
 -1       890-3.13033E-04 9.74287E-02-2.11942E-03
 -1       891-3.94678E-04 9.63938E-02-3.63981E-03
 -1       892-1.62197E-04 9.90046E-02-1.94159E-04
 -1       893-2.09118E-04 9.84337E-02-1.05012E-03
 -1       894-2.49936E-04 9.90256E-02-1.94154E-04
 -1       895-3.23110E-04 9.84622E-02-1.03758E-03
 -1       896-2.24289E-04 9.83914E-02-8.52745E-04
 -1       897-1.86639E-04 9.87872E-02-5.14054E-04
 -1       898-2.88724E-04 9.78015E-02-1.93883E-03
 -1       899 0.00000E+00 1.00000E-01 1.00000E-03
 -1       900 0.00000E+00 1.00000E-01 1.00000E-03
 -1       901 0.00000E+00 1.00000E-01 1.00000E-03
 -1       902 0.00000E+00 1.00000E-01 1.00000E-03
 -1       903-8.55975E-05 9.95968E-02 4.69245E-04
 -1       904 0.00000E+00 1.00000E-01 1.00000E-03
 -1       905-1.12406E-04 9.90846E-02-4.76997E-05
 -1       906 0.00000E+00 0.00000E+00 0.00000E+00
 -1       907 0.00000E+00 0.00000E+00 0.00000E+00
 -1       908 9.23640E-17 9.79790E-04-1.14348E-03
 -1       909 1.00153E-16 1.53510E-03-1.99328E-03
 -1       910 0.00000E+00 0.00000E+00 0.00000E+00
 -1       911 0.00000E+00 0.00000E+00 0.00000E+00
 -1       912 7.55921E-05 9.75725E-04-1.14321E-03
 -1       913 9.83496E-05 1.53004E-03-1.99072E-03
 -1       914 0.00000E+00 0.00000E+00 0.00000E+00
 -1       915 4.33330E-17 3.94220E-04-5.09517E-04
 -1       916 9.81605E-17 1.19018E-03-1.46178E-03
 -1       917 4.41512E-17 8.93319E-04-1.02096E-03
 -1       918 2.15492E-16 2.28326E-03-2.41134E-03
 -1       919 2.33930E-16 2.82324E-03-3.67191E-03
 -1       920 1.27325E-04 2.27589E-03-2.41211E-03
 -1       921 1.65772E-04 2.81423E-03-3.67081E-03
 -1       922 1.50176E-16 1.59035E-03-1.77155E-03
 -1       923 2.27454E-16 2.54472E-03-3.00279E-03
 -1       924 1.62044E-16 2.16514E-03-2.85299E-03
 -1       925 3.67430E-16 3.92442E-03-3.67120E-03
 -1       926 4.06151E-16 4.40934E-03-5.29575E-03
 -1       927 1.53146E-04 3.91454E-03-3.67257E-03
 -1       928 2.00346E-04 4.39802E-03-5.29623E-03
 -1       929 2.88642E-16 3.06170E-03-3.05165E-03
 -1       930 3.88905E-16 4.14849E-03-4.45167E-03
 -1       931 3.14430E-16 3.57345E-03-4.49071E-03
 -1       932 5.42389E-16 5.91762E-03-4.84371E-03
 -1       933 6.04202E-16 6.34986E-03-6.84504E-03
 -1       934 1.59618E-04 5.90648E-03-4.84489E-03
 -1       935 2.09964E-04 6.33771E-03-6.84606E-03
 -1       936 4.52972E-16 4.87586E-03-4.26842E-03
 -1       937 5.74637E-16 6.11898E-03-5.81360E-03
 -1       938 5.02608E-16 5.33257E-03-6.08348E-03
 -1       939 7.31398E-16 8.26989E-03-5.92395E-03
 -1       940 8.13243E-16 8.65722E-03-8.28111E-03
 -1       941 1.54553E-04 8.25842E-03-5.92458E-03
 -1       942 2.04424E-04 8.64512E-03-8.28203E-03
 -1       943 6.36028E-16 7.05009E-03-5.39601E-03
 -1       944 7.71923E-16 8.44949E-03-7.07245E-03
 -1       945 7.03294E-16 7.45923E-03-7.57786E-03
 -1       946 9.32488E-16 1.09603E-02-6.90566E-03
 -1       947 1.03476E-15 1.13066E-02-9.59334E-03
 -1       948 1.43629E-04 1.09491E-02-6.90567E-03
 -1       949 1.90927E-04 1.12950E-02-9.59387E-03
 -1       950 8.30194E-16 9.57444E-03-6.42725E-03
 -1       951 9.80200E-16 1.11208E-02-8.21979E-03
 -1       952 9.23175E-16 9.94073E-03-8.95316E-03
 -1       953 1.13054E-15 1.39626E-02-7.78807E-03
 -1       954 1.25768E-15 1.42704E-02-1.07764E-02
 -1       955 1.30045E-04 1.39521E-02-7.78758E-03
 -1       956 1.73627E-04 1.42597E-02-1.07766E-02
 -1       957 1.03098E-15 1.24243E-02-7.35930E-03
 -1       958 1.19823E-15 1.41052E-02-9.25286E-03
 -1       959 1.14554E-15 1.27511E-02-1.02011E-02
 -1       960 1.35026E-15 1.72473E-02-8.57176E-03
 -1       961 1.48394E-15 1.75184E-02-1.18297E-02
 -1       962 1.15370E-04 1.72377E-02-8.57092E-03
 -1       963 1.54621E-04 1.75087E-02-1.18295E-02
 -1       964 1.24161E-15 1.55716E-02-8.19223E-03
 -1       965 1.41608E-15 1.73728E-02-1.01716E-02
 -1       966 1.36906E-15 1.58608E-02-1.13192E-02
 -1       967 1.56425E-15 2.07841E-02-9.25775E-03
 -1       968 1.70063E-15 2.10192E-02-1.27536E-02
 -1       969 1.00319E-04 2.07755E-02-9.25670E-03
 -1       970 1.34914E-04 2.10106E-02-1.27533E-02
 -1       971 1.45626E-15 1.89861E-02-8.92694E-03
 -1       972 1.62572E-15 2.08929E-02-1.09767E-02
 -1       973 1.59906E-15 1.92391E-02-1.23077E-02
 -1       974 1.76443E-15 2.45419E-02-9.84692E-03
 -1       975 1.91175E-15 2.47416E-02-1.35490E-02
 -1       976 8.51835E-05 2.45345E-02-9.84574E-03
 -1       977 1.14956E-04 2.47342E-02-1.35486E-02
 -1       978 1.66144E-15 2.26373E-02-9.56442E-03
 -1       979 1.83999E-15 2.46343E-02-1.16691E-02
 -1       980 1.81037E-15 2.28547E-02-1.31673E-02
 -1       981 1.95810E-15 2.84895E-02-1.03399E-02
 -1       982 2.09542E-15 2.86541E-02-1.42165E-02
 -1       983 7.00685E-05 2.84833E-02-1.03387E-02
 -1       984 9.49328E-05 2.86479E-02-1.42161E-02
 -1       985 1.86488E-15 2.64939E-02-1.01054E-02
 -1       986 2.02647E-15 2.85656E-02-1.22494E-02
 -1       987 2.00698E-15 2.66761E-02-1.38987E-02
 -1       988 2.12211E-15 3.25954E-02-1.07371E-02
 -1       989 2.26381E-15 3.27251E-02-1.47565E-02
 -1       990 5.49979E-05 3.25904E-02-1.07358E-02
 -1       991 7.49129E-05 3.27201E-02-1.47560E-02
 -1       992 2.04770E-15 3.05246E-02-1.05505E-02
 -1       993 2.20701E-15 3.26552E-02-1.27180E-02
 -1       994 2.18908E-15 3.06718E-02-1.45024E-02
 -1       995 2.27536E-15 3.68281E-02-1.10388E-02
 -1       996 2.41670E-15 3.69228E-02-1.51693E-02
 -1       997 3.99677E-05 3.68244E-02-1.10375E-02
 -1       998 5.49132E-05 3.69191E-02-1.51688E-02
 -1       999 2.19594E-15 3.46979E-02-1.08999E-02
 -1      1000 2.35348E-15 3.68717E-02-1.30753E-02
 -1      1001 2.35337E-15 3.48101E-02-1.49787E-02
 -1      1002 2.44872E-15 4.11559E-02-1.12452E-02
 -1      1003 2.60911E-15 4.12157E-02-1.54550E-02
 -1      1004 2.49661E-05 4.11534E-02-1.12439E-02
 -1      1005 3.49330E-05 4.12132E-02-1.54544E-02
 -1      1006 2.35566E-15 3.89821E-02-1.11540E-02
 -1      1007 2.52371E-15 4.11833E-02-1.33213E-02
 -1      1008 2.51995E-15 3.90593E-02-1.53280E-02
 -1      1009 2.59616E-15 4.55471E-02-1.13563E-02
 -1      1010 2.78041E-15 4.55720E-02-1.56136E-02
 -1      1011 9.98181E-06 4.55459E-02-1.13549E-02
 -1      1012 1.49661E-05 4.55708E-02-1.56131E-02
 -1      1013 2.52368E-15 4.33455E-02-1.13127E-02
 -1      1014 2.68534E-15 4.55583E-02-1.34562E-02
 -1      1015 2.70311E-15 4.33879E-02-1.55501E-02
 -1      1016 2.76675E-15 4.99700E-02-1.13721E-02
 -1      1017 2.92389E-15 4.99600E-02-1.56453E-02
 -1      1018-4.99471E-06 4.99700E-02-1.13708E-02
 -1      1019-4.99449E-06 4.99600E-02-1.56448E-02
 -1      1020 2.69151E-15 4.77566E-02-1.13761E-02
 -1      1021 2.84001E-15 4.99650E-02-1.34799E-02
 -1      1022 2.85232E-15 4.77640E-02-1.56453E-02
 -1      1023 2.85287E-15 5.43930E-02-1.12927E-02
 -1      1024 2.96806E-15 5.43481E-02-1.55500E-02
 -1      1025-1.99719E-05 5.43942E-02-1.12914E-02
 -1      1026-2.49557E-05 5.43493E-02-1.55495E-02
 -1      1027 2.81442E-15 5.21835E-02-1.13443E-02
 -1      1028 2.89744E-15 5.43718E-02-1.33926E-02
 -1      1029 2.94202E-15 5.21560E-02-1.56135E-02
 -1      1030 2.88307E-15 5.87842E-02-1.11180E-02
 -1      1031 2.98468E-15 5.87044E-02-1.53278E-02
 -1      1032-3.49585E-05 5.87867E-02-1.11167E-02
 -1      1033-4.49249E-05 5.87069E-02-1.53272E-02
 -1      1034 2.86683E-15 5.65945E-02-1.12173E-02
 -1      1035 2.93753E-15 5.87468E-02-1.31941E-02
 -1      1036 2.98702E-15 5.65322E-02-1.54547E-02
 -1      1037 2.92247E-15 6.31120E-02-1.08481E-02
 -1      1038 3.02465E-15 6.29973E-02-1.49785E-02
 -1      1039-4.99651E-05 6.31157E-02-1.08468E-02
 -1      1040-6.49102E-05 6.30010E-02-1.49780E-02
 -1      1041 2.91661E-15 6.09580E-02-1.09950E-02
 -1      1042 2.97503E-15 6.30583E-02-1.28845E-02
 -1      1043 2.98977E-15 6.08607E-02-1.51690E-02
 -1      1044 2.89794E-15 6.73446E-02-1.04828E-02
 -1      1045 2.95185E-15 6.71950E-02-1.45021E-02
 -1      1046-6.50053E-05 6.73496E-02-1.04815E-02
 -1      1047-8.49202E-05 6.72000E-02-1.45016E-02
 -1      1048 2.92995E-15 6.52421E-02-1.06774E-02
 -1      1049 2.92444E-15 6.72748E-02-1.24636E-02
 -1      1050 2.96779E-15 6.51100E-02-1.47562E-02
 -1      1051 2.88163E-15 7.14505E-02-1.00219E-02
 -1      1052 2.87617E-15 7.12659E-02-1.38985E-02
 -1      1053-8.00937E-05 7.14566E-02-1.00207E-02
 -1      1054-1.04959E-04 7.12721E-02-1.38980E-02
 -1      1055 2.88384E-15 6.94154E-02-1.02643E-02
 -1      1056 2.87197E-15 7.13644E-02-1.19314E-02
 -1      1057 2.91390E-15 6.92483E-02-1.42162E-02
 -1      1058 2.77904E-15 7.53980E-02-9.46529E-03
 -1      1059 2.72903E-15 7.51782E-02-1.31674E-02
 -1      1060-9.52385E-05 7.54053E-02-9.46412E-03
 -1      1061-1.25014E-04 7.51856E-02-1.31670E-02
 -1      1062 2.83024E-15 7.34460E-02-9.75562E-03
 -1      1063 2.76569E-15 7.52956E-02-1.12874E-02
 -1      1064 2.80379E-15 7.32438E-02-1.35488E-02
 -1      1065 2.65442E-15 7.91556E-02-8.81244E-03
 -1      1066 2.61276E-15 7.89005E-02-1.23083E-02
 -1      1067-1.10420E-04 7.91641E-02-8.81141E-03
 -1      1068-1.45024E-04 7.89091E-02-1.23080E-02
 -1      1069 2.73861E-15 7.73025E-02-9.15095E-03
 -1      1070 2.63985E-15 7.90368E-02-1.05314E-02
 -1      1071 2.65613E-15 7.70651E-02-1.27538E-02
 -1      1072 2.50322E-15 8.26920E-02-8.06270E-03
 -1      1073 2.41181E-15 8.24011E-02-1.13206E-02
 -1      1074-1.25535E-04 8.27016E-02-8.06190E-03
 -1      1075-1.64805E-04 8.24108E-02-1.13205E-02
 -1      1076 2.57788E-15 8.09534E-02-8.44976E-03
 -1      1077 2.44381E-15 8.25566E-02-9.66256E-03
 -1      1078 2.54291E-15 8.06805E-02-1.18305E-02
 -1      1079 2.21240E-15 8.59764E-02-7.21517E-03
 -1      1080 2.16138E-15 8.56487E-02-1.02037E-02
 -1      1081-1.40281E-04 8.59869E-02-7.21475E-03
 -1      1082-1.83902E-04 8.56595E-02-1.02039E-02
 -1      1083 2.35491E-15 8.43676E-02-7.65126E-03
 -1      1084 2.17950E-15 8.58239E-02-8.68014E-03
 -1      1085 2.30820E-15 8.40585E-02-1.07783E-02
 -1      1086 1.88702E-15 8.89783E-02-6.26884E-03
 -1      1087 1.79321E-15 8.86123E-02-8.95704E-03
 -1      1088-1.53913E-04 8.89895E-02-6.26895E-03
 -1      1089-2.01279E-04 8.86239E-02-8.95769E-03
 -1      1090 2.04917E-15 8.75145E-02-6.75445E-03
 -1      1091 1.84423E-15 8.88079E-02-7.58339E-03
 -1      1092 1.99922E-15 8.71679E-02-9.59650E-03
 -1      1093 1.50761E-15 9.16686E-02-5.22313E-03
 -1      1094 1.46107E-15 9.12616E-02-7.58163E-03
 -1      1095-1.64777E-04 9.16801E-02-5.22392E-03
 -1      1096-2.14756E-04 9.12737E-02-7.58272E-03
 -1      1097 1.67733E-15 9.03640E-02-5.75843E-03
 -1      1098 1.47019E-15 9.14790E-02-6.37255E-03
 -1      1099 1.67427E-15 8.99781E-02-8.28520E-03
 -1      1100 1.08821E-15 9.40215E-02-4.07900E-03
 -1      1101 1.03964E-15 9.35697E-02-6.08326E-03
 -1      1102-1.69494E-04 9.40327E-02-4.08039E-03
 -1      1103-2.19997E-04 9.35819E-02-6.08450E-03
 -1      1104 1.27898E-15 9.28885E-02-4.66323E-03
 -1      1105 1.11557E-15 9.38102E-02-5.05065E-03
 -1      1106 1.29311E-15 9.24598E-02-6.84707E-03
 -1      1107 7.51151E-16 9.60176E-02-2.84309E-03
 -1      1108 7.48510E-16 9.55129E-02-4.47334E-03
 -1      1109-1.62081E-04 9.60276E-02-2.84467E-03
 -1      1110-2.09473E-04 9.55243E-02-4.47404E-03
 -1      1111 9.16975E-16 9.50643E-02-3.47192E-03
 -1      1112 7.32107E-16 9.57835E-02-3.62662E-03
 -1      1113 9.06068E-16 9.45880E-02-5.29113E-03
 -1      1114 4.62104E-16 9.76670E-02-1.52064E-03
 -1      1115 3.89337E-16 9.71068E-02-2.79210E-03
 -1      1116-1.34338E-04 9.76744E-02-1.52157E-03
 -1      1117-1.72966E-04 9.71159E-02-2.79116E-03
 -1      1118 6.24841E-16 9.68835E-02-2.19213E-03
 -1      1119 4.47668E-16 9.73949E-02-2.11722E-03
 -1      1120 5.72063E-16 9.63518E-02-3.63916E-03
 -1      1121 2.34800E-16 9.89883E-02-1.94006E-04
 -1      1122 1.98031E-16 9.84136E-02-1.05940E-03
 -1      1123-7.94841E-05 9.89924E-02-1.93812E-04
 -1      1124-1.02346E-04 9.84187E-02-1.05689E-03
 -1      1125 3.36105E-16 9.83673E-02-8.50775E-04
 -1      1126 2.05221E-16 9.87698E-02-5.16347E-04
 -1      1127 2.96918E-16 9.77717E-02-1.94645E-03
 -1      1128 0.00000E+00 1.00000E-01 1.00000E-03
 -1      1129 0.00000E+00 1.00000E-01 1.00000E-03
 -1      1130 0.00000E+00 1.00000E-01 1.00000E-03
 -1      1131 0.00000E+00 1.00000E-01 1.00000E-03
 -1      1132 1.05228E-16 9.95898E-02 4.67961E-04
 -1      1133 0.00000E+00 1.00000E-01 1.00000E-03
 -1      1134 9.79589E-17 9.90736E-02-5.54810E-05
 -1      1135 0.00000E+00 0.00000E+00 0.00000E+00
 -1      1136 0.00000E+00 0.00000E+00 0.00000E+00
 -1      1137-1.54273E-04 9.63683E-04-1.14335E-03
 -1      1138-2.00998E-04 1.51520E-03-1.98382E-03
 -1      1139 0.00000E+00 0.00000E+00 0.00000E+00
 -1      1140 0.00000E+00 0.00000E+00 0.00000E+00
 -1      1141-7.55921E-05 9.75725E-04-1.14321E-03
 -1      1142-9.83496E-05 1.53004E-03-1.99072E-03
 -1      1143 0.00000E+00 0.00000E+00 0.00000E+00
 -1      1144-8.15610E-05 3.87357E-04-5.08164E-04
 -1      1145-1.78673E-04 1.17302E-03-1.45922E-03
 -1      1146-1.08256E-04 8.82419E-04-1.01317E-03
 -1      1147-2.58424E-04 2.25235E-03-2.41547E-03
 -1      1148-3.36923E-04 2.78714E-03-3.66865E-03
 -1      1149-1.27325E-04 2.27589E-03-2.41211E-03
 -1      1150-1.65772E-04 2.81423E-03-3.67081E-03
 -1      1151-2.12960E-04 1.56661E-03-1.77305E-03
 -1      1152-2.98782E-04 2.51122E-03-3.00430E-03
 -1      1153-2.77114E-04 2.13565E-03-2.84499E-03
 -1      1154-3.08598E-04 3.88377E-03-3.67709E-03
 -1      1155-4.04227E-04 4.36403E-03-5.29827E-03
 -1      1156-1.53146E-04 3.91454E-03-3.67257E-03
 -1      1157-2.00346E-04 4.39802E-03-5.29623E-03
 -1      1158-2.89286E-04 3.02525E-03-3.05690E-03
 -1      1159-3.57368E-04 4.10561E-03-4.45645E-03
 -1      1160-3.77962E-04 3.53190E-03-4.49055E-03
 -1      1161-3.20281E-04 5.87230E-03-4.84850E-03
 -1      1162-4.21760E-04 6.30113E-03-6.84932E-03
 -1      1163-1.59618E-04 5.90648E-03-4.84489E-03
 -1      1164-2.09964E-04 6.33771E-03-6.84606E-03
 -1      1165-3.18291E-04 4.83232E-03-4.27413E-03
 -1      1166-3.71827E-04 6.07200E-03-5.81835E-03
 -1      1167-4.18006E-04 5.28500E-03-6.08741E-03
 -1      1168-3.09425E-04 8.22350E-03-5.92614E-03
 -1      1169-4.09626E-04 8.60863E-03-8.28449E-03
 -1      1170-1.54553E-04 8.25842E-03-5.92458E-03
 -1      1171-2.04424E-04 8.64512E-03-8.28203E-03
 -1      1172-3.16842E-04 7.00386E-03-5.39960E-03
 -1      1173-3.60137E-04 8.40204E-03-7.07520E-03
 -1      1174-4.18356E-04 7.41023E-03-7.58191E-03
 -1      1175-2.87279E-04 1.09153E-02-6.90519E-03
 -1      1176-3.82137E-04 1.12602E-02-9.59494E-03
 -1      1177-1.43629E-04 1.09491E-02-6.90567E-03
 -1      1178-1.90927E-04 1.12950E-02-9.59387E-03
 -1      1179-2.99297E-04 9.52847E-03-6.42806E-03
 -1      1180-3.35131E-04 1.10751E-02-8.22015E-03
 -1      1181-3.97201E-04 9.89304E-03-8.95567E-03
 -1      1182-2.60024E-04 1.39204E-02-7.78556E-03
 -1      1183-3.47333E-04 1.42274E-02-1.07764E-02
 -1      1184-1.30045E-04 1.39521E-02-7.78758E-03
 -1      1185-1.73627E-04 1.42597E-02-1.07766E-02
 -1      1186-2.74058E-04 1.23805E-02-7.35773E-03
 -1      1187-3.03950E-04 1.40626E-02-9.25131E-03
 -1      1188-3.65343E-04 1.27063E-02-1.02018E-02
 -1      1189-2.30665E-04 1.72089E-02-8.56787E-03
 -1      1190-3.09244E-04 1.74795E-02-1.18286E-02
 -1      1191-1.15370E-04 1.72377E-02-8.57092E-03
 -1      1192-1.54621E-04 1.75087E-02-1.18295E-02
 -1      1193-2.45497E-04 1.55311E-02-8.18895E-03
 -1      1194-2.70118E-04 1.73341E-02-1.01687E-02
 -1      1195-3.28548E-04 1.58198E-02-1.13186E-02
 -1      1196-2.00578E-04 2.07499E-02-9.25301E-03
 -1      1197-2.69809E-04 2.09848E-02-1.27518E-02
 -1      1198-1.00319E-04 2.07755E-02-9.25670E-03
 -1      1199-1.34914E-04 2.10106E-02-1.27533E-02
 -1      1200-2.15665E-04 1.89498E-02-8.92257E-03
 -1      1201-2.35287E-04 2.08586E-02-1.09730E-02
 -1      1202-2.89626E-04 1.92025E-02-1.23062E-02
 -1      1203-1.70327E-04 2.45123E-02-9.84167E-03
 -1      1204-2.29891E-04 2.47120E-02-1.35468E-02
 -1      1205-8.51835E-05 2.45345E-02-9.84574E-03
 -1      1206-1.14956E-04 2.47342E-02-1.35486E-02
 -1      1207-1.85455E-04 2.26054E-02-9.55938E-03
 -1      1208-2.00161E-04 2.46047E-02-1.16649E-02
 -1      1209-2.49880E-04 2.28227E-02-1.31652E-02
 -1      1210-1.40112E-04 2.84647E-02-1.03344E-02
 -1      1211-1.89850E-04 2.86293E-02-1.42140E-02
 -1      1212-7.00685E-05 2.84833E-02-1.03387E-02
 -1      1213-9.49328E-05 2.86479E-02-1.42161E-02
 -1      1214-1.55209E-04 2.64668E-02-1.01000E-02
 -1      1215-1.65008E-04 2.85408E-02-1.22449E-02
 -1      1216-2.09875E-04 2.66489E-02-1.38963E-02
 -1      1217-1.09981E-04 3.25755E-02-1.07314E-02
 -1      1218-1.49816E-04 3.27052E-02-1.47539E-02
 -1      1219-5.49979E-05 3.25904E-02-1.07358E-02
 -1      1220-7.49129E-05 3.27201E-02-1.47560E-02
 -1      1221-1.25035E-04 3.05023E-02-1.05449E-02
 -1      1222-1.29912E-04 3.26354E-02-1.27134E-02
 -1      1223-1.69829E-04 3.06494E-02-1.44998E-02
 -1      1224-7.99272E-05 3.68132E-02-1.10331E-02
 -1      1225-1.09820E-04 3.69079E-02-1.51666E-02
 -1      1226-3.99677E-05 3.68244E-02-1.10375E-02
 -1      1227-5.49132E-05 3.69191E-02-1.51688E-02
 -1      1228-9.49456E-05 3.46805E-02-1.08942E-02
 -1      1229-9.48804E-05 3.68568E-02-1.30706E-02
 -1      1230-1.29813E-04 3.47926E-02-1.49761E-02
 -1      1231-4.99280E-05 4.11459E-02-1.12394E-02
 -1      1232-6.98626E-05 4.12057E-02-1.54522E-02
 -1      1233-2.49661E-05 4.11534E-02-1.12439E-02
 -1      1234-3.49330E-05 4.12132E-02-1.54544E-02
 -1      1235-6.49220E-05 3.89696E-02-1.11482E-02
 -1      1236-5.98983E-05 4.11733E-02-1.33166E-02
 -1      1237-8.98373E-05 3.90469E-02-1.53252E-02
 -1      1238-1.99619E-05 4.55421E-02-1.13505E-02
 -1      1239-2.99307E-05 4.55670E-02-1.56109E-02
 -1      1240-9.98181E-06 4.55459E-02-1.13549E-02
 -1      1241-1.49661E-05 4.55708E-02-1.56131E-02
 -1      1242-3.49419E-05 4.33381E-02-1.13069E-02
 -1      1243-2.49474E-05 4.55533E-02-1.34514E-02
 -1      1244-4.98943E-05 4.33804E-02-1.55474E-02
 -1      1245 9.98943E-06 4.99700E-02-1.13663E-02
 -1      1246 9.98903E-06 4.99600E-02-1.56425E-02
 -1      1247 4.99471E-06 4.99700E-02-1.13708E-02
 -1      1248 4.99449E-06 4.99600E-02-1.56448E-02
 -1      1249-4.98536E-06 4.77541E-02-1.13703E-02
 -1      1250 9.98934E-06 4.99650E-02-1.34752E-02
 -1      1251-9.97015E-06 4.77615E-02-1.56425E-02
 -1      1252 3.99420E-05 5.43979E-02-1.12869E-02
 -1      1253 4.99100E-05 5.43531E-02-1.55473E-02
 -1      1254 1.99719E-05 5.43942E-02-1.12914E-02
 -1      1255 2.49557E-05 5.43493E-02-1.55495E-02
 -1      1256 2.49645E-05 5.21860E-02-1.13385E-02
 -1      1257 4.49273E-05 5.43767E-02-1.33878E-02
 -1      1258 2.99485E-05 5.21585E-02-1.56107E-02
 -1      1259 6.99125E-05 5.87941E-02-1.11122E-02
 -1      1260 8.98463E-05 5.87144E-02-1.53250E-02
 -1      1261 3.49585E-05 5.87867E-02-1.11167E-02
 -1      1262 4.49249E-05 5.87069E-02-1.53272E-02
 -1      1263 5.49237E-05 5.66020E-02-1.12115E-02
 -1      1264 7.98827E-05 5.87567E-02-1.31894E-02
 -1      1265 6.98752E-05 5.65397E-02-1.54520E-02
 -1      1266 9.99214E-05 6.31269E-02-1.08423E-02
 -1      1267 1.29814E-04 6.30122E-02-1.49758E-02
 -1      1268 4.99651E-05 6.31157E-02-1.08468E-02
 -1      1269 6.49102E-05 6.30010E-02-1.49780E-02
 -1      1270 8.49105E-05 6.09704E-02-1.09892E-02
 -1      1271 1.14875E-04 6.30733E-02-1.28798E-02
 -1      1272 1.09825E-04 6.08732E-02-1.51662E-02
 -1      1273 1.29994E-04 6.73645E-02-1.04771E-02
 -1      1274 1.69829E-04 6.72149E-02-1.44995E-02
 -1      1275 6.50053E-05 6.73496E-02-1.04815E-02
 -1      1276 8.49202E-05 6.72000E-02-1.45016E-02
 -1      1277 1.14948E-04 6.52595E-02-1.06716E-02
 -1      1278 1.49925E-04 6.72946E-02-1.24590E-02
 -1      1279 1.49814E-04 6.51274E-02-1.47535E-02
 -1      1280 1.60159E-04 7.14752E-02-1.00164E-02
 -1      1281 2.09899E-04 7.12907E-02-1.38960E-02
 -1      1282 8.00937E-05 7.14566E-02-1.00207E-02
 -1      1283 1.04959E-04 7.12721E-02-1.38980E-02
 -1      1284 1.45063E-04 6.94377E-02-1.02587E-02
 -1      1285 1.85056E-04 7.13892E-02-1.19269E-02
 -1      1286 1.89857E-04 6.92706E-02-1.42136E-02
 -1      1287 1.90430E-04 7.54275E-02-9.46008E-03
 -1      1288 2.50002E-04 7.52079E-02-1.31651E-02
 -1      1289 9.52385E-05 7.54053E-02-9.46412E-03
 -1      1290 1.25014E-04 7.51856E-02-1.31670E-02
 -1      1291 1.75281E-04 7.34731E-02-9.75024E-03
 -1      1292 2.20267E-04 7.53252E-02-1.12833E-02
 -1      1293 2.29951E-04 7.32711E-02-1.35465E-02
 -1      1294 2.20769E-04 7.91898E-02-8.80777E-03
 -1      1295 2.90017E-04 7.89349E-02-1.23065E-02
 -1      1296 1.10420E-04 7.91641E-02-8.81141E-03
 -1      1297 1.45024E-04 7.89091E-02-1.23080E-02
 -1      1298 2.05598E-04 7.73344E-02-9.14597E-03
 -1      1299 2.55484E-04 7.90711E-02-1.05278E-02
 -1      1300 2.70035E-04 7.70972E-02-1.27518E-02
 -1      1301 2.50977E-04 8.27305E-02-8.05896E-03
 -1      1302 3.29593E-04 8.24401E-02-1.13197E-02
 -1      1303 1.25535E-04 8.27016E-02-8.06190E-03
 -1      1304 1.64805E-04 8.24108E-02-1.13205E-02
 -1      1305 2.35914E-04 8.09898E-02-8.44550E-03
 -1      1306 2.90441E-04 8.25953E-02-9.65985E-03
 -1      1307 3.09899E-04 8.07172E-02-1.18291E-02
 -1      1308 2.80473E-04 8.60187E-02-7.21292E-03
 -1      1309 3.67853E-04 8.56918E-02-1.02040E-02
 -1      1310 1.40281E-04 8.59869E-02-7.21475E-03
 -1      1311 1.83902E-04 8.56595E-02-1.02039E-02
 -1      1312 2.65879E-04 8.44081E-02-7.64818E-03
 -1      1313 3.24417E-04 8.58666E-02-8.67886E-03
 -1      1314 3.48981E-04 8.40996E-02-1.07779E-02
 -1      1315 3.07819E-04 8.90234E-02-6.26879E-03
 -1      1316 4.02801E-04 8.86589E-02-8.95911E-03
 -1      1317 1.53913E-04 8.89895E-02-6.26895E-03
 -1      1318 2.01279E-04 8.86239E-02-8.95769E-03
 -1      1319 2.94566E-04 8.75584E-02-6.75321E-03
 -1      1320 3.55702E-04 8.88537E-02-7.58419E-03
 -1      1321 3.85945E-04 8.72128E-02-9.59764E-03
 -1      1322 3.29850E-04 9.17151E-02-5.22595E-03
 -1      1323 4.30252E-04 9.13104E-02-7.58569E-03
 -1      1324 1.64777E-04 9.16801E-02-5.22392E-03
 -1      1325 2.14756E-04 9.12737E-02-7.58272E-03
 -1      1326 3.19823E-04 9.04101E-02-5.75976E-03
 -1      1327 3.80608E-04 9.15267E-02-6.37594E-03
 -1      1328 4.17886E-04 9.00259E-02-8.28828E-03
 -1      1329 3.40044E-04 9.40671E-02-4.08461E-03
 -1      1330 4.41815E-04 9.36187E-02-6.08842E-03
 -1      1331 1.69494E-04 9.40327E-02-4.08039E-03
 -1      1332 2.19997E-04 9.35819E-02-6.08450E-03
 -1      1333 3.37036E-04 9.29350E-02-4.66755E-03
 -1      1334 3.91651E-04 9.38575E-02-5.05623E-03
 -1      1335 4.38796E-04 9.25091E-02-6.85192E-03
 -1      1336 3.26547E-04 9.60586E-02-2.84986E-03
 -1      1337 4.22534E-04 9.55586E-02-4.47676E-03
 -1      1338 1.62081E-04 9.60276E-02-2.84467E-03
 -1      1339 2.09473E-04 9.55243E-02-4.47404E-03
 -1      1340 3.37344E-04 9.51081E-02-3.47852E-03
 -1      1341 3.75386E-04 9.58268E-02-3.63230E-03
 -1      1342 4.37390E-04 9.46359E-02-5.29598E-03
 -1      1343 2.72613E-04 9.76982E-02-1.52547E-03
 -1      1344 3.51456E-04 9.71433E-02-2.78950E-03
 -1      1345 1.34338E-04 9.76744E-02-1.52157E-03
 -1      1346 1.72966E-04 9.71159E-02-2.79116E-03
 -1      1347 3.05638E-04 9.69203E-02-2.19820E-03
 -1      1348 3.13033E-04 9.74287E-02-2.11942E-03
 -1      1349 3.94678E-04 9.63938E-02-3.63981E-03
 -1      1350 1.62197E-04 9.90046E-02-1.94159E-04
 -1      1351 2.09118E-04 9.84337E-02-1.05012E-03
 -1      1352 7.94841E-05 9.89924E-02-1.93812E-04
 -1      1353 1.02346E-04 9.84187E-02-1.05689E-03
 -1      1354 2.24289E-04 9.83914E-02-8.52745E-04
 -1      1355 1.86639E-04 9.87872E-02-5.14054E-04
 -1      1356 2.88724E-04 9.78015E-02-1.93883E-03
 -1      1357 0.00000E+00 1.00000E-01 1.00000E-03
 -1      1358 0.00000E+00 1.00000E-01 1.00000E-03
 -1      1359 0.00000E+00 1.00000E-01 1.00000E-03
 -1      1360 0.00000E+00 1.00000E-01 1.00000E-03
 -1      1361 8.55975E-05 9.95968E-02 4.69245E-04
 -1      1362 0.00000E+00 1.00000E-01 1.00000E-03
 -1      1363 1.12406E-04 9.90846E-02-4.76997E-05
 -1      1364 0.00000E+00 0.00000E+00 0.00000E+00
 -1      1365 0.00000E+00 0.00000E+00 0.00000E+00
 -1      1366-3.31773E-04 9.10694E-04-1.14668E-03
 -1      1367-4.35139E-04 1.44599E-03-1.95730E-03
 -1      1368 0.00000E+00 0.00000E+00 0.00000E+00
 -1      1369 0.00000E+00 0.00000E+00 0.00000E+00
 -1      1370-2.37767E-04 9.42919E-04-1.14299E-03
 -1      1371-3.10670E-04 1.48698E-03-1.97105E-03
 -1      1372 0.00000E+00 0.00000E+00 0.00000E+00
 -1      1373-1.75571E-04 3.62160E-04-5.10857E-04
 -1      1374-3.84826E-04 1.11467E-03-1.45517E-03
 -1      1375-2.35195E-04 8.49567E-04-9.96457E-04
 -1      1376-5.44708E-04 2.15148E-03-2.43450E-03
 -1      1377-7.14276E-04 2.66852E-03-3.66606E-03
 -1      1378-3.95729E-04 2.21214E-03-2.42159E-03
 -1      1379-5.17393E-04 2.73950E-03-3.66536E-03
 -1      1380-4.58139E-04 1.48759E-03-1.78594E-03
 -1      1381-6.30552E-04 2.40166E-03-3.01608E-03
 -1      1382-6.00064E-04 2.03883E-03-2.83055E-03
 -1      1383-6.35353E-04 3.75472E-03-3.69890E-03
 -1      1384-8.36720E-04 4.22054E-03-5.31208E-03
 -1      1385-4.69018E-04 3.83142E-03-3.68531E-03
 -1      1386-6.15852E-04 4.30561E-03-5.30268E-03
 -1      1387-6.02329E-04 2.90793E-03-3.07881E-03
 -1      1388-7.36924E-04 3.96957E-03-4.47582E-03
 -1      1389-7.91662E-04 3.39805E-03-4.49803E-03
 -1      1390-6.48036E-04 5.73121E-03-4.86166E-03
 -1      1391-8.57183E-04 6.15009E-03-6.86213E-03
 -1      1392-4.83154E-04 5.81450E-03-4.85441E-03
 -1      1393-6.37534E-04 6.23910E-03-6.85492E-03
 -1      1394-6.48635E-04 4.69558E-03-4.29244E-03
 -1      1395-7.53574E-04 5.92606E-03-5.83174E-03
 -1      1396-8.56034E-04 5.13622E-03-6.10206E-03
 -1      1397-6.21148E-04 8.08093E-03-5.92908E-03
 -1      1398-8.25194E-04 8.45986E-03-8.29132E-03
 -1      1399-4.65027E-04 8.16475E-03-5.92812E-03
 -1      1400-6.16587E-04 8.54719E-03-8.28805E-03
 -1      1401-6.38074E-04 6.86096E-03-5.40765E-03
 -1      1402-7.23931E-04 8.25646E-03-7.07977E-03
 -1      1403-8.45879E-04 7.25944E-03-7.59205E-03
 -1      1404-5.74719E-04 1.07779E-02-6.89950E-03
 -1      1405-7.66505E-04 1.11192E-02-9.59534E-03
 -1      1406-4.31060E-04 1.08584E-02-6.90371E-03
 -1      1407-5.74075E-04 1.12017E-02-9.59607E-03
 -1      1408-5.99554E-04 9.38785E-03-6.42640E-03
 -1      1409-6.71157E-04 1.09360E-02-8.21672E-03
 -1      1410-7.98112E-04 9.74764E-03-8.95918E-03
 -1      1411-5.19562E-04 1.37924E-02-7.77376E-03
 -1      1412-6.95323E-04 1.40974E-02-1.07719E-02
 -1      1413-3.89917E-04 1.38673E-02-7.78152E-03
 -1      1414-5.21283E-04 1.41735E-02-1.07755E-02
 -1      1415-5.47838E-04 1.22475E-02-7.34867E-03
 -1      1416-6.07796E-04 1.39336E-02-9.24204E-03
 -1      1417-7.31950E-04 1.25705E-02-1.01995E-02
 -1      1418-4.60781E-04 1.70927E-02-8.55215E-03
 -1      1419-6.18553E-04 1.73622E-02-1.18207E-02
 -1      1420-3.45838E-04 1.71606E-02-8.56216E-03
 -1      1421-4.63925E-04 1.74307E-02-1.18263E-02
 -1      1422-4.90438E-04 1.54088E-02-8.17495E-03
 -1      1423-5.39882E-04 1.72174E-02-1.01556E-02
 -1      1424-6.57378E-04 1.56960E-02-1.13122E-02
 -1      1425-4.00723E-04 2.06470E-02-9.23493E-03
 -1      1426-5.39503E-04 2.08813E-02-1.27418E-02
 -1      1427-3.00734E-04 2.07071E-02-9.24627E-03
 -1      1428-4.04694E-04 2.09418E-02-1.27486E-02
 -1      1429-4.30831E-04 1.88401E-02-8.90550E-03
 -1      1430-4.70237E-04 2.07554E-02-1.09576E-02
 -1      1431-5.79195E-04 1.90920E-02-1.22971E-02
 -1      1432-3.40359E-04 2.44235E-02-9.82224E-03
 -1      1433-4.59648E-04 2.46228E-02-1.35356E-02
 -1      1434-2.55397E-04 2.44753E-02-9.83434E-03
 -1      1435-3.44802E-04 2.46749E-02-1.35431E-02
 -1      1436-3.70548E-04 2.25094E-02-9.54053E-03
 -1      1437-4.00072E-04 2.45157E-02-1.16482E-02
 -1      1438-4.99626E-04 2.27263E-02-1.31546E-02
 -1      1439-2.80040E-04 2.83904E-02-1.03142E-02
 -1      1440-3.79595E-04 2.85548E-02-1.42022E-02
 -1      1441-2.10109E-04 2.84338E-02-1.03267E-02
 -1      1442-2.84745E-04 2.85983E-02-1.42100E-02
 -1      1443-3.10184E-04 2.63851E-02-1.00802E-02
 -1      1444-3.29854E-04 2.84664E-02-1.22275E-02
 -1      1445-4.19627E-04 2.65670E-02-1.38848E-02
 -1      1446-2.19855E-04 3.25159E-02-1.07109E-02
 -1      1447-2.99560E-04 3.26455E-02-1.47417E-02
 -1      1448-1.64937E-04 3.25507E-02-1.07236E-02
 -1      1449-2.24702E-04 3.26803E-02-1.47497E-02
 -1      1450-2.49930E-04 3.04353E-02-1.05245E-02
 -1      1451-2.59726E-04 3.25757E-02-1.26956E-02
 -1      1452-3.39569E-04 3.05823E-02-1.44878E-02
 -1      1453-1.59795E-04 3.67684E-02-1.10124E-02
 -1      1454-2.19597E-04 3.68631E-02-1.51543E-02
 -1      1455-1.19871E-04 3.67945E-02-1.10252E-02
 -1      1456-1.64717E-04 3.68892E-02-1.51623E-02
 -1      1457-1.89811E-04 3.46283E-02-1.08735E-02
 -1      1458-1.89705E-04 3.68120E-02-1.30526E-02
 -1      1459-2.59569E-04 3.47404E-02-1.49638E-02
 -1      1460-9.98256E-05 4.11160E-02-1.12186E-02
 -1      1461-1.39701E-04 4.11758E-02-1.54398E-02
 -1      1462-7.48820E-05 4.11335E-02-1.12314E-02
 -1      1463-1.04786E-04 4.11933E-02-1.54479E-02
 -1      1464-1.29801E-04 3.89323E-02-1.11274E-02
 -1      1465-1.19767E-04 4.11434E-02-1.32985E-02
 -1      1466-1.79642E-04 3.90095E-02-1.53129E-02
 -1      1467-3.99109E-05 4.55272E-02-1.13296E-02
 -1      1468-5.98508E-05 4.55521E-02-1.55984E-02
 -1      1469-2.99386E-05 4.55359E-02-1.13425E-02
 -1      1470-4.48927E-05 4.55608E-02-1.56066E-02
 -1      1471-6.98633E-05 4.33157E-02-1.12860E-02
 -1      1472-4.98823E-05 4.55384E-02-1.34333E-02
 -1      1473-9.97719E-05 4.33580E-02-1.55349E-02
 -1      1474 1.99790E-05 4.99700E-02-1.13454E-02
 -1      1475 1.99785E-05 4.99600E-02-1.56301E-02
 -1      1476 1.49842E-05 4.99700E-02-1.13583E-02
 -1      1477 1.49837E-05 4.99600E-02-1.56383E-02
 -1      1478-9.96454E-06 4.77466E-02-1.13494E-02
 -1      1479 1.99790E-05 4.99650E-02-1.34570E-02
 -1      1480-1.99349E-05 4.77541E-02-1.56301E-02
 -1      1481 7.98711E-05 5.44129E-02-1.12660E-02
 -1      1482 9.98098E-05 5.43680E-02-1.55348E-02
 -1      1483 5.99086E-05 5.44042E-02-1.12789E-02
 -1      1484 7.48617E-05 5.43593E-02-1.55430E-02
 -1      1485 4.99231E-05 5.21934E-02-1.13176E-02
 -1      1486 8.98422E-05 5.43917E-02-1.33697E-02
 -1      1487 5.98924E-05 5.21660E-02-1.55983E-02
 -1      1488 1.39793E-04 5.88240E-02-1.10914E-02
 -1      1489 1.79668E-04 5.87442E-02-1.53126E-02
 -1      1490 1.04858E-04 5.88066E-02-1.11043E-02
 -1      1491 1.34761E-04 5.87268E-02-1.53208E-02
 -1      1492 1.09826E-04 5.66244E-02-1.11906E-02
 -1      1493 1.59735E-04 5.87866E-02-1.31713E-02
 -1      1494 1.39734E-04 5.65621E-02-1.54395E-02
 -1      1495 1.99778E-04 6.31717E-02-1.08216E-02
 -1      1496 2.59579E-04 6.30570E-02-1.49635E-02
 -1      1497 1.49861E-04 6.31455E-02-1.08344E-02
 -1      1498 1.94705E-04 6.30309E-02-1.49716E-02
 -1      1499 1.69775E-04 6.10077E-02-1.09684E-02
 -1      1500 2.29688E-04 6.31181E-02-1.28618E-02
 -1      1501 2.19615E-04 6.09105E-02-1.51539E-02
 -1      1502 2.59869E-04 6.74241E-02-1.04565E-02
 -1      1503 3.39573E-04 6.72746E-02-1.44874E-02
 -1      1504 1.94952E-04 6.73893E-02-1.04693E-02
 -1      1505 2.54717E-04 6.72397E-02-1.44953E-02
 -1      1506 2.29807E-04 6.53118E-02-1.06510E-02
 -1      1507 2.99740E-04 6.73543E-02-1.24412E-02
 -1      1508 2.99564E-04 6.51797E-02-1.47412E-02
 -1      1509 3.20109E-04 7.15496E-02-9.99628E-03
 -1      1510 4.19666E-04 7.13652E-02-1.38842E-02
 -1      1511 2.40171E-04 7.15062E-02-1.00088E-02
 -1      1512 3.14809E-04 7.13217E-02-1.38920E-02
 -1      1513 2.89968E-04 6.95047E-02-1.02383E-02
 -1      1514 3.69924E-04 7.14636E-02-1.19095E-02
 -1      1515 3.79608E-04 6.93377E-02-1.42016E-02
 -1      1516 3.80520E-04 7.55164E-02-9.44074E-03
 -1      1517 4.99817E-04 7.52971E-02-1.31541E-02
 -1      1518 2.85538E-04 7.54645E-02-9.45279E-03
 -1      1519 3.74950E-04 7.52450E-02-1.31615E-02
 -1      1520 3.50294E-04 7.35548E-02-9.73043E-03
 -1      1521 4.40236E-04 7.54142E-02-1.12667E-02
 -1      1522 4.59741E-04 7.33529E-02-1.35350E-02
 -1      1523 4.41027E-04 7.92927E-02-8.78987E-03
 -1      1524 5.79827E-04 7.90384E-02-1.22968E-02
 -1      1525 3.30995E-04 7.92326E-02-8.80112E-03
 -1      1526 4.34975E-04 7.89780E-02-1.23034E-02
 -1      1527 4.10774E-04 7.74303E-02-9.12724E-03
 -1      1528 5.10547E-04 7.91743E-02-1.05126E-02
 -1      1529 5.39865E-04 7.71936E-02-1.27413E-02
 -1      1530 5.01280E-04 8.28468E-02-8.04360E-03
 -1      1531 6.59095E-04 8.25574E-02-1.13122E-02
 -1      1532 3.76265E-04 8.27788E-02-8.05341E-03
 -1      1533 4.94396E-04 8.24889E-02-1.13175E-02
 -1      1534 4.71227E-04 8.10995E-02-8.42869E-03
 -1      1535 5.80392E-04 8.27121E-02-9.64714E-03
 -1      1536 6.19621E-04 8.08277E-02-1.18203E-02
 -1      1537 5.60283E-04 8.61468E-02-7.20178E-03
 -1      1538 7.36130E-04 8.58220E-02-1.02001E-02
 -1      1539 4.20533E-04 8.60718E-02-7.20918E-03
 -1      1540 5.51986E-04 8.57459E-02-1.02034E-02
 -1      1541 5.31049E-04 8.45305E-02-7.63467E-03
 -1      1542 6.48535E-04 8.59957E-02-8.67027E-03
 -1      1543 6.98052E-04 8.42235E-02-1.07720E-02
 -1      1544 6.15586E-04 8.91610E-02-6.26421E-03
 -1      1545 8.07527E-04 8.88002E-02-8.96072E-03
 -1      1546 4.61803E-04 8.90804E-02-6.26780E-03
 -1      1547 6.04972E-04 8.87174E-02-8.96077E-03
 -1      1548 5.88654E-04 8.76916E-02-6.74502E-03
 -1      1549 7.12050E-04 8.89931E-02-7.58190E-03
 -1      1550 7.72883E-04 8.73489E-02-9.59628E-03
 -1      1551 6.61824E-04 9.18581E-02-5.23062E-03
 -1      1552 8.66128E-04 9.14598E-02-7.59438E-03
 -1      1553 4.95613E-04 9.17741E-02-5.22868E-03
 -1      1554 6.47426E-04 9.13721E-02-7.59007E-03
 -1      1555 6.40396E-04 9.05511E-02-5.75951E-03
 -1      1556 7.64643E-04 9.16728E-02-6.38227E-03
 -1      1557 8.39157E-04 9.01718E-02-8.29331E-03
 -1      1558 6.87609E-04 9.42089E-02-4.10018E-03
 -1      1559 8.97145E-04 9.37707E-02-6.10377E-03
 -1      1560 5.12829E-04 9.41252E-02-4.09155E-03
 -1      1561 6.67585E-04 9.36812E-02-6.09510E-03
 -1      1562 6.78368E-04 9.30785E-02-4.67767E-03
 -1      1563 7.93189E-04 9.40043E-02-5.07205E-03
 -1      1564 8.86495E-04 9.26606E-02-6.86428E-03
 -1      1565 6.71855E-04 9.61886E-02-2.87454E-03
 -1      1566 8.73736E-04 9.57033E-02-4.49352E-03
 -1      1567 4.96148E-04 9.61113E-02-2.85924E-03
 -1      1568 6.43461E-04 9.56176E-02-4.48236E-03
 -1      1569 6.87019E-04 9.52457E-02-3.49953E-03
 -1      1570 7.73457E-04 9.59639E-02-3.65453E-03
 -1      1571 8.94875E-04 9.47858E-02-5.31347E-03
 -1      1572 5.74272E-04 9.78000E-02-1.54695E-03
 -1      1573 7.44349E-04 9.72632E-02-2.78922E-03
 -1      1574 4.17350E-04 9.77388E-02-1.53252E-03
 -1      1575 5.39484E-04 9.71914E-02-2.78708E-03
 -1      1576 6.35961E-04 9.70386E-02-2.22289E-03
 -1      1577 6.60123E-04 9.75394E-02-2.13361E-03
 -1      1578 8.25832E-04 9.65289E-02-3.65005E-03
 -1      1579 3.48685E-04 9.90582E-02-1.98517E-04
 -1      1580 4.52362E-04 9.85036E-02-1.02436E-03
 -1      1581 2.49936E-04 9.90256E-02-1.94154E-04
 -1      1582 3.23110E-04 9.84622E-02-1.03758E-03
 -1      1583 4.82255E-04 9.84712E-02-8.67490E-04
 -1      1584 4.01757E-04 9.88462E-02-5.11011E-04
 -1      1585 6.24624E-04 9.78994E-02-1.92604E-03
 -1      1586 0.00000E+00 1.00000E-01 1.00000E-03
 -1      1587 0.00000E+00 1.00000E-01 1.00000E-03
 -1      1588 0.00000E+00 1.00000E-01 1.00000E-03
 -1      1589 0.00000E+00 1.00000E-01 1.00000E-03
 -1      1590 1.84219E-04 9.96222E-02 4.66014E-04
 -1      1591 0.00000E+00 1.00000E-01 1.00000E-03
 -1      1592 2.44033E-04 9.91177E-02-3.13312E-05
 -1      1593 0.00000E+00 0.00000E+00 0.00000E+00
 -1      1594 0.00000E+00 0.00000E+00 0.00000E+00
 -1      1595-6.00647E-04 7.93849E-04-1.20606E-03
 -1      1596-7.92623E-04 1.30965E-03-1.97716E-03
 -1      1597 0.00000E+00 0.00000E+00 0.00000E+00
 -1      1598 0.00000E+00 0.00000E+00 0.00000E+00
 -1      1599-4.48104E-04 8.62622E-04-1.15959E-03
 -1      1600-5.91115E-04 1.38985E-03-1.94886E-03
 -1      1601 0.00000E+00 0.00000E+00 0.00000E+00
 -1      1602-3.10490E-04 3.11718E-04-5.18030E-04
 -1      1603-6.94813E-04 9.91880E-04-1.51119E-03
 -1      1604-4.16325E-04 7.70479E-04-9.66812E-04
 -1      1605-8.85980E-04 1.95607E-03-2.49749E-03
 -1      1606-1.17018E-03 2.43797E-03-3.70292E-03
 -1      1607-7.09388E-04 2.06787E-03-2.46030E-03
 -1      1608-9.34092E-04 2.57064E-03-3.67895E-03
 -1      1609-7.73406E-04 1.32661E-03-1.85398E-03
 -1      1610-1.02644E-03 2.18769E-03-3.07311E-03
 -1      1611-1.01802E-03 1.84416E-03-2.86013E-03
 -1      1612-9.86033E-04 3.51722E-03-3.74114E-03
 -1      1613-1.30748E-03 3.95952E-03-5.34757E-03
 -1      1614-8.08080E-04 3.65123E-03-3.71698E-03
 -1      1615-1.06785E-03 4.10603E-03-5.32597E-03
 -1      1616-9.53978E-04 2.68708E-03-3.13536E-03
 -1      1617-1.14629E-03 3.72059E-03-4.51645E-03
 -1      1618-1.26240E-03 3.14723E-03-4.54023E-03
 -1      1619-9.83667E-04 5.48063E-03-4.87458E-03
 -1      1620-1.30907E-03 5.88474E-03-6.87678E-03
 -1      1621-8.15609E-04 5.62062E-03-4.86970E-03
 -1      1622-1.08202E-03 6.03283E-03-6.87083E-03
 -1      1623-9.93323E-04 4.44881E-03-4.31949E-03
 -1      1624-1.14643E-03 5.66811E-03-5.84526E-03
 -1      1625-1.31965E-03 4.87101E-03-6.12724E-03
 -1      1626-9.34084E-04 7.83329E-03-5.91919E-03
 -1      1627-1.24683E-03 8.20359E-03-8.28761E-03
 -1      1628-7.77760E-04 7.97092E-03-5.92732E-03
 -1      1629-1.03567E-03 8.34571E-03-8.29266E-03
 -1      1630-9.62995E-04 6.61027E-03-5.40817E-03
 -1      1631-1.09069E-03 8.00457E-03-7.07139E-03
 -1      1632-1.28359E-03 6.99741E-03-7.59699E-03
 -1      1633-8.61222E-04 1.05429E-02-6.87433E-03
 -1      1634-1.15262E-03 1.08792E-02-9.57850E-03
 -1      1635-7.18259E-04 1.06730E-02-6.89088E-03
 -1      1636-9.59594E-04 1.10119E-02-9.59105E-03
 -1      1637-8.99592E-04 9.14557E-03-6.40798E-03
 -1      1638-1.00715E-03 1.06985E-02-8.19338E-03
 -1      1639-1.20244E-03 9.49886E-03-8.94821E-03
 -1      1640-7.77788E-04 1.35754E-02-7.73909E-03
 -1      1641-1.04343E-03 1.38778E-02-1.07466E-02
 -1      1642-6.48914E-04 1.36953E-02-7.76069E-03
 -1      1643-8.69489E-04 1.39990E-02-1.07637E-02
 -1      1644-8.20368E-04 1.20209E-02-7.31812E-03
 -1      1645-9.10780E-04 1.37154E-02-9.20930E-03
 -1      1646-1.09928E-03 1.23403E-02-1.01779E-02
 -1      1647-6.89799E-04 1.68970E-02-8.51190E-03
 -1      1648-9.27503E-04 1.71652E-02-1.17904E-02
 -1      1649-5.75463E-04 1.70049E-02-8.53639E-03
 -1      1650-7.73137E-04 1.72737E-02-1.18102E-02
 -1      1651-7.34141E-04 1.52022E-02-8.13708E-03
 -1      1652-8.08763E-04 1.70211E-02-1.01173E-02
 -1      1653-9.86008E-04 1.54875E-02-1.12841E-02
 -1      1654-6.00097E-04 2.04743E-02-9.19155E-03
 -1      1655-8.08795E-04 2.07080E-02-1.27087E-02
 -1      1656-5.00521E-04 2.05694E-02-9.21763E-03
 -1      1657-6.74231E-04 2.08035E-02-1.27300E-02
 -1      1658-6.45065E-04 1.86557E-02-8.86344E-03
 -1      1659-7.04515E-04 2.05824E-02-1.09162E-02
 -1      1660-8.68358E-04 1.89067E-02-1.22652E-02
 -1      1661-5.09900E-04 2.42748E-02-9.77719E-03
 -1      1662-6.89090E-04 2.44738E-02-1.35010E-02
 -1      1663-4.25196E-04 2.43566E-02-9.80410E-03
 -1      1664-5.74423E-04 2.45558E-02-1.35230E-02
 -1      1665-5.55021E-04 2.23487E-02-9.49617E-03
 -1      1666-5.99535E-04 2.43668E-02-1.16051E-02
 -1      1667-7.49008E-04 2.25651E-02-1.31206E-02
 -1      1668-4.19676E-04 2.82661E-02-1.02683E-02
 -1      1669-5.69128E-04 2.84304E-02-1.41668E-02
 -1      1670-3.49896E-04 2.83345E-02-1.02956E-02
 -1      1671-4.74394E-04 2.84989E-02-1.41892E-02
 -1      1672-4.64778E-04 2.62486E-02-1.00346E-02
 -1      1673-4.94424E-04 2.83420E-02-1.21835E-02
 -1      1674-6.29119E-04 2.64303E-02-1.38496E-02
 -1      1675-3.29564E-04 3.24164E-02-1.06646E-02
 -1      1676-4.49174E-04 3.25459E-02-1.47059E-02
 -1      1677-2.74730E-04 3.24711E-02-1.06921E-02
 -1      1678-3.74386E-04 3.26007E-02-1.47285E-02
 -1      1679-3.74603E-04 3.03234E-02-1.04783E-02
 -1      1680-3.89381E-04 3.24761E-02-1.26512E-02
 -1      1681-5.09143E-04 3.04703E-02-1.44521E-02
 -1      1682-2.39575E-04 3.66937E-02-1.09658E-02
 -1      1683-3.29300E-04 3.67883E-02-1.51183E-02
 -1      1684-1.99696E-04 3.67348E-02-1.09934E-02
 -1      1685-2.74459E-04 3.68294E-02-1.51409E-02
 -1      1686-2.84555E-04 3.45411E-02-1.08271E-02
 -1      1687-2.84443E-04 3.67373E-02-1.30080E-02
 -1      1688-3.89227E-04 3.46532E-02-1.49279E-02
 -1      1689-1.49679E-04 4.10662E-02-1.11719E-02
 -1      1690-2.09501E-04 4.11260E-02-1.54037E-02
 -1      1691-1.24757E-04 4.10936E-02-1.11996E-02
 -1      1692-1.74606E-04 4.11534E-02-1.54264E-02
 -1      1693-1.94617E-04 3.88700E-02-1.10808E-02
 -1      1694-1.79593E-04 4.10936E-02-1.32538E-02
 -1      1695-2.69392E-04 3.89472E-02-1.52768E-02
 -1      1696-5.98416E-05 4.55023E-02-1.12829E-02
 -1      1697-8.97538E-05 4.55272E-02-1.55623E-02
 -1      1698-4.98784E-05 4.55160E-02-1.13106E-02
 -1      1699-7.48044E-05 4.55409E-02-1.55850E-02
 -1      1700-1.04755E-04 4.32783E-02-1.12393E-02
 -1      1701-7.47987E-05 4.55135E-02-1.33886E-02
 -1      1702-1.49623E-04 4.33206E-02-1.54988E-02
 -1      1703 2.99692E-05 4.99700E-02-1.12987E-02
 -1      1704 2.99690E-05 4.99600E-02-1.55940E-02
 -1      1705 2.49740E-05 4.99700E-02-1.13264E-02
 -1      1706 2.49736E-05 4.99600E-02-1.56167E-02
 -1      1707-1.49347E-05 4.77342E-02-1.13027E-02
 -1      1708 2.99693E-05 4.99650E-02-1.34123E-02
 -1      1709-2.98910E-05 4.77416E-02-1.55940E-02
 -1      1710 1.19782E-04 5.44378E-02-1.12193E-02
 -1      1711 1.49694E-04 5.43929E-02-1.54987E-02
 -1      1712 9.98286E-05 5.44241E-02-1.12470E-02
 -1      1713 1.24754E-04 5.43792E-02-1.55214E-02
 -1      1714 7.48736E-05 5.22059E-02-1.12709E-02
 -1      1715 1.34740E-04 5.44166E-02-1.33250E-02
 -1      1716 8.98296E-05 5.21785E-02-1.55622E-02
 -1      1717 2.09627E-04 5.88738E-02-1.10448E-02
 -1      1718 2.69449E-04 5.87941E-02-1.52766E-02
 -1      1719 1.74715E-04 5.88464E-02-1.10724E-02
 -1      1720 2.24563E-04 5.87667E-02-1.52992E-02
 -1      1721 1.64699E-04 5.66618E-02-1.11440E-02
 -1      1722 2.39542E-04 5.88364E-02-1.31266E-02
 -1      1723 2.09566E-04 5.65994E-02-1.54034E-02
 -1      1724 2.99540E-04 6.32464E-02-1.07750E-02
 -1      1725 3.89265E-04 6.31317E-02-1.49275E-02
 -1      1726 2.49671E-04 6.32053E-02-1.08027E-02
 -1      1727 3.24433E-04 6.30906E-02-1.49501E-02
 -1      1728 2.54573E-04 6.10700E-02-1.09218E-02
 -1      1729 3.44409E-04 6.31928E-02-1.28172E-02
 -1      1730 3.29348E-04 6.09728E-02-1.51178E-02
 -1      1731 3.89562E-04 6.75236E-02-1.04102E-02
 -1      1732 5.09173E-04 6.73741E-02-1.44515E-02
 -1      1733 3.24738E-04 6.74689E-02-1.04377E-02
 -1      1734 4.24393E-04 6.73194E-02-1.44741E-02
 -1      1735 3.44535E-04 6.53989E-02-1.06045E-02
 -1      1736 4.49380E-04 6.74539E-02-1.23968E-02
 -1      1737 4.49206E-04 6.52668E-02-1.47053E-02
 -1      1738 4.79732E-04 7.16738E-02-9.95037E-03
 -1      1739 6.29185E-04 7.14895E-02-1.38488E-02
 -1      1740 3.99963E-04 7.16055E-02-9.97770E-03
 -1      1741 5.24462E-04 7.14211E-02-1.38712E-02
 -1      1742 4.34627E-04 6.96166E-02-1.01922E-02
 -1      1743 5.54482E-04 7.15879E-02-1.18656E-02
 -1      1744 5.69167E-04 6.94497E-02-1.41660E-02
 -1      1745 5.70051E-04 7.56651E-02-9.39574E-03
 -1      1746 7.49246E-04 7.54461E-02-1.31195E-02
 -1      1747 4.75361E-04 7.55832E-02-9.42263E-03
 -1      1748 6.24593E-04 7.53641E-02-1.31415E-02
 -1      1749 5.24877E-04 7.36913E-02-9.68490E-03
 -1      1750 6.59689E-04 7.55631E-02-1.12236E-02
 -1      1751 6.89220E-04 7.34897E-02-1.34999E-02
 -1      1752 6.60392E-04 7.94654E-02-8.74666E-03
 -1      1753 8.69099E-04 7.92118E-02-1.22638E-02
 -1      1754 5.50835E-04 7.93703E-02-8.77267E-03
 -1      1755 7.24560E-04 7.91163E-02-1.22850E-02
 -1      1756 6.15238E-04 7.75911E-02-9.08299E-03
 -1      1757 7.64813E-04 7.93473E-02-1.04713E-02
 -1      1758 8.09231E-04 7.73548E-02-1.27074E-02
 -1      1759 7.50287E-04 8.30425E-02-8.00371E-03
 -1      1760 9.88007E-04 8.27545E-02-1.12823E-02
 -1      1761 6.25981E-04 8.29346E-02-8.02804E-03
 -1      1762 8.23688E-04 8.26459E-02-1.13019E-02
 -1      1763 7.05452E-04 8.12839E-02-8.38688E-03
 -1      1764 8.69251E-04 8.29085E-02-9.60924E-03
 -1      1765 9.28757E-04 8.10131E-02-1.17887E-02
 -1      1766 8.38482E-04 8.63639E-02-7.16783E-03
 -1      1767 1.10416E-03 8.60418E-02-1.01757E-02
 -1      1768 6.99661E-04 8.62440E-02-7.18909E-03
 -1      1769 9.20300E-04 8.59205E-02-1.01924E-02
 -1      1770 7.94737E-04 8.47372E-02-7.59732E-03
 -1      1771 9.71469E-04 8.62141E-02-8.63829E-03
 -1      1772 1.04663E-03 8.44321E-02-1.07445E-02
 -1      1773 9.22020E-04 8.93963E-02-6.24036E-03
 -1      1774 1.21347E-03 8.90405E-02-8.94533E-03
 -1      1775 7.69147E-04 8.92661E-02-6.25627E-03
 -1      1776 1.01060E-03 8.89076E-02-8.95717E-03
 -1      1777 8.81141E-04 8.79183E-02-6.71546E-03
 -1      1778 1.06793E-03 8.92309E-02-7.55993E-03
 -1      1779 1.16009E-03 8.75793E-02-9.57580E-03
 -1      1780 9.94595E-04 9.21062E-02-5.22300E-03
 -1      1781 1.30742E-03 9.17166E-02-7.59312E-03
 -1      1782 8.28419E-04 9.19684E-02-5.22998E-03
 -1      1783 1.08653E-03 9.15742E-02-7.59694E-03
 -1      1784 9.60327E-04 9.07937E-02-5.74284E-03
 -1      1785 1.15116E-03 9.19252E-02-6.37620E-03
 -1      1786 1.26324E-03 9.04210E-02-8.28424E-03
 -1      1787 1.04287E-03 9.44602E-02-4.11666E-03
 -1      1788 1.36839E-03 9.40371E-02-6.12219E-03
 -1      1789 8.65058E-04 9.43199E-02-4.10992E-03
 -1      1790 1.13177E-03 9.38885E-02-6.11428E-03
 -1      1791 1.02304E-03 9.33297E-02-4.68106E-03
 -1      1792 1.20553E-03 9.42631E-02-5.08918E-03
 -1      1793 1.34374E-03 9.29234E-02-6.87229E-03
 -1      1794 1.04171E-03 9.64271E-02-2.92181E-03
 -1      1795 1.36330E-03 9.59660E-02-4.53422E-03
 -1      1796 8.54115E-04 9.62926E-02-2.89484E-03
 -1      1797 1.11429E-03 9.58187E-02-4.50971E-03
 -1      1798 1.05116E-03 9.54934E-02-3.53088E-03
 -1      1799 1.20177E-03 9.62142E-02-3.70020E-03
 -1      1800 1.37762E-03 9.50523E-02-5.34315E-03
 -1      1801 9.33263E-04 9.79967E-02-1.61557E-03
 -1      1802 1.21761E-03 9.74958E-02-2.83166E-03
 -1      1803 7.47570E-04 9.78843E-02-1.57517E-03
 -1      1804 9.72722E-04 9.73620E-02-2.80451E-03
 -1      1805 1.00631E-03 9.72606E-02-2.28505E-03
 -1      1806 1.07337E-03 9.77551E-02-2.19623E-03
 -1      1807 1.31487E-03 9.67816E-02-3.69795E-03
 -1      1808 6.30953E-04 9.91758E-02-2.62349E-04
 -1      1809 8.23094E-04 9.86409E-02-1.04839E-03
 -1      1810 4.70821E-04 9.91066E-02-2.12771E-04
 -1      1811 6.14174E-04 9.85602E-02-1.01709E-03
 -1      1812 8.13536E-04 9.86333E-02-9.40959E-04
 -1      1813 7.24894E-04 9.89699E-02-5.71522E-04
 -1      1814 1.05822E-03 9.80959E-02-1.96076E-03
 -1      1815 0.00000E+00 1.00000E-01 1.00000E-03
 -1      1816 0.00000E+00 1.00000E-01 1.00000E-03
 -1      1817 0.00000E+00 1.00000E-01 1.00000E-03
 -1      1818 0.00000E+00 1.00000E-01 1.00000E-03
 -1      1819 3.25751E-04 9.96730E-02 4.57784E-04
 -1      1820 0.00000E+00 1.00000E-01 1.00000E-03
 -1      1821 4.31595E-04 9.91975E-02-2.58283E-06
 -1      1822 0.00000E+00 0.00000E+00 0.00000E+00
 -1      1823 0.00000E+00 0.00000E+00 0.00000E+00
 -1      1824-9.83533E-04 5.73886E-04-1.46702E-03
 -1      1825-1.27278E-03 1.01860E-03-2.23502E-03
 -1      1826 0.00000E+00 0.00000E+00 0.00000E+00
 -1      1827 0.00000E+00 0.00000E+00 0.00000E+00
 -1      1828-7.60009E-04 7.06392E-04-1.26809E-03
 -1      1829-9.91856E-04 1.18112E-03-2.01290E-03
 -1      1830 0.00000E+00 0.00000E+00 0.00000E+00
 -1      1831-6.46487E-04 1.77985E-04-7.36122E-04
 -1      1832-1.12328E-03 7.46989E-04-1.80864E-03
 -1      1833-8.71869E-04 6.43513E-04-1.18905E-03
 -1      1834-1.26117E-03 1.62774E-03-2.64445E-03
 -1      1835-1.67968E-03 2.06333E-03-3.86000E-03
 -1      1836-1.08281E-03 1.80889E-03-2.56785E-03
 -1      1837-1.43422E-03 2.27146E-03-3.76735E-03
 -1      1838-1.16963E-03 1.04099E-03-2.07260E-03
 -1      1839-1.46653E-03 1.83887E-03-3.23160E-03
 -1      1840-1.54031E-03 1.49567E-03-3.08463E-03
 -1      1841-1.34079E-03 3.14611E-03-3.78025E-03
 -1      1842-1.79292E-03 3.56214E-03-5.38774E-03
 -1      1843-1.16428E-03 3.34990E-03-3.76554E-03
 -1      1844-1.55006E-03 3.77798E-03-5.37148E-03
 -1      1845-1.31766E-03 2.33064E-03-3.22065E-03
 -1      1846-1.56393E-03 3.33814E-03-4.55821E-03
 -1      1847-1.76154E-03 2.75787E-03-4.63063E-03
 -1      1848-1.31560E-03 5.10415E-03-4.85610E-03
 -1      1849-1.76320E-03 5.49398E-03-6.85750E-03
 -1      1850-1.15148E-03 5.30877E-03-4.87266E-03
 -1      1851-1.53766E-03 5.70548E-03-6.87631E-03
 -1      1852-1.33629E-03 4.07176E-03-4.32632E-03
 -1      1853-1.53803E-03 5.28530E-03-5.82415E-03
 -1      1854-1.78908E-03 4.47428E-03-6.13420E-03
 -1      1855-1.24293E-03 7.47048E-03-5.86630E-03
 -1      1856-1.66743E-03 7.83315E-03-8.23199E-03
 -1      1857-1.08940E-03 7.66673E-03-5.90071E-03
 -1      1858-1.45783E-03 8.03277E-03-8.27152E-03
 -1      1859-1.28362E-03 6.23886E-03-5.36992E-03
 -1      1860-1.45453E-03 7.63841E-03-7.01299E-03
 -1      1861-1.72131E-03 6.61551E-03-7.55683E-03
 -1      1862-1.14446E-03 1.02041E-02-6.80276E-03
 -1      1863-1.53699E-03 1.05366E-02-9.50334E-03
 -1      1864-1.00342E-03 1.03867E-02-6.84636E-03
 -1      1865-1.34530E-03 1.07208E-02-9.55329E-03
 -1      1866-1.19579E-03 8.79385E-03-6.34431E-03
 -1      1867-1.34045E-03 1.03581E-02-8.11480E-03
 -1      1868-1.60506E-03 9.14166E-03-8.88130E-03
 -1      1869-1.03378E-03 1.32662E-02-7.65755E-03
 -1      1870-1.39002E-03 1.35667E-02-1.06611E-02
 -1      1871-9.06100E-04 1.34325E-02-7.70584E-03
 -1      1872-1.21701E-03 1.37337E-02-1.07163E-02
 -1      1873-1.09011E-03 1.16964E-02-7.24073E-03
 -1      1874-1.21180E-03 1.34053E-02-9.12001E-03
 -1      1875-1.46487E-03 1.20131E-02-1.00967E-02
 -1      1876-9.17407E-04 1.66200E-02-8.42529E-03
 -1      1877-1.23536E-03 1.68873E-02-1.16996E-02
 -1      1878-8.03777E-04 1.67687E-02-8.47584E-03
 -1      1879-1.08159E-03 1.70363E-02-1.17574E-02
 -1      1880-9.76021E-04 1.49088E-02-8.05255E-03
 -1      1881-1.07636E-03 1.67437E-02-1.00226E-02
 -1      1882-1.31329E-03 1.51928E-02-1.11954E-02
 -1      1883-7.98632E-04 2.02310E-02-9.10247E-03
 -1      1884-1.07738E-03 2.04643E-02-1.26153E-02
 -1      1885-6.99455E-04 2.03615E-02-9.15404E-03
 -1      1886-9.43173E-04 2.05950E-02-1.26743E-02
 -1      1887-8.58183E-04 1.83954E-02-8.77536E-03
 -1      1888-9.38006E-04 2.03389E-02-1.08189E-02
 -1      1889-1.15661E-03 1.86459E-02-1.21729E-02
 -1      1890-6.78966E-04 2.40658E-02-9.68698E-03
 -1      1891-9.18106E-04 2.42647E-02-1.34065E-02
 -1      1892-5.94479E-04 2.41778E-02-9.73898E-03
 -1      1893-8.03643E-04 2.43768E-02-1.34659E-02
 -1      1894-7.38848E-04 2.21224E-02-9.40641E-03
 -1      1895-7.98545E-04 2.41578E-02-1.15066E-02
 -1      1896-9.97825E-04 2.23386E-02-1.30265E-02
 -1      1897-5.59055E-04 2.80918E-02-1.01776E-02
 -1      1898-7.58420E-04 2.82561E-02-1.40718E-02
 -1      1899-4.89387E-04 2.81852E-02-1.02298E-02
 -1      1900-6.63795E-04 2.83495E-02-1.41314E-02
 -1      1901-6.19015E-04 2.60569E-02-9.94409E-03
 -1      1902-6.58746E-04 2.81677E-02-1.20845E-02
 -1      1903-8.38282E-04 2.62385E-02-1.37548E-02
 -1      1904-4.39140E-04 3.22768E-02-1.05737E-02
 -1      1905-5.98660E-04 3.24063E-02-1.46107E-02
 -1      1906-3.84362E-04 3.23516E-02-1.06259E-02
 -1      1907-5.23927E-04 3.24811E-02-1.46704E-02
 -1      1908-4.99088E-04 3.01664E-02-1.03875E-02
 -1      1909-5.18906E-04 3.23366E-02-1.25520E-02
 -1      1910-6.78537E-04 3.03133E-02-1.43570E-02
 -1      1911-3.19288E-04 3.65890E-02-1.08749E-02
 -1      1912-4.38937E-04 3.66836E-02-1.50230E-02
 -1      1913-2.79436E-04 3.66451E-02-1.09271E-02
 -1      1914-3.84123E-04 3.67397E-02-1.50827E-02
 -1      1915-3.79204E-04 3.44190E-02-1.07362E-02
 -1      1916-3.79117E-04 3.66326E-02-1.29087E-02
 -1      1917-5.18791E-04 3.45311E-02-1.48327E-02
 -1      1918-1.99502E-04 4.09964E-02-1.10810E-02
 -1      1919-2.79270E-04 4.10562E-02-1.53085E-02
 -1      1920-1.74592E-04 4.10338E-02-1.11332E-02
 -1      1921-2.44387E-04 4.10936E-02-1.53682E-02
 -1      1922-2.59387E-04 3.87828E-02-1.09899E-02
 -1      1923-2.39388E-04 4.10238E-02-1.31545E-02
 -1      1924-3.59096E-04 3.88600E-02-1.51816E-02
 -1      1925-7.97600E-05 4.54674E-02-1.11920E-02
 -1      1926-1.19644E-04 4.54923E-02-1.54671E-02
 -1      1927-6.98014E-05 4.54860E-02-1.12442E-02
 -1      1928-1.04700E-04 4.55110E-02-1.55267E-02
 -1      1929-1.39626E-04 4.32259E-02-1.11484E-02
 -1      1930-9.97030E-05 4.54786E-02-1.32893E-02
 -1      1931-1.99453E-04 4.32683E-02-1.54036E-02
 -1      1932 3.99603E-05 4.99700E-02-1.12078E-02
 -1      1933 3.99607E-05 4.99600E-02-1.54988E-02
 -1      1934 3.49646E-05 4.99700E-02-1.12600E-02
 -1      1935 3.49647E-05 4.99600E-02-1.55584E-02
 -1      1936-1.98986E-05 4.77167E-02-1.12118E-02
 -1      1937 3.99606E-05 4.99650E-02-1.33130E-02
 -1      1938-3.98405E-05 4.77242E-02-1.54987E-02
 -1      1939 1.59683E-04 5.44727E-02-1.11284E-02
 -1      1940 1.99568E-04 5.44278E-02-1.54035E-02
 -1      1941 1.39733E-04 5.44540E-02-1.11806E-02
 -1      1942 1.74631E-04 5.44091E-02-1.54631E-02
 -1      1943 9.98196E-05 5.22234E-02-1.11800E-02
 -1      1944 1.79627E-04 5.44515E-02-1.32257E-02
 -1      1945 1.19763E-04 5.21959E-02-1.54669E-02
 -1      1946 2.79432E-04 5.89436E-02-1.09538E-02
 -1      1947 3.59201E-04 5.88639E-02-1.51813E-02
 -1      1948 2.44531E-04 5.89062E-02-1.10060E-02
 -1      1949 3.14327E-04 5.88265E-02-1.52409E-02
 -1      1950 2.19552E-04 5.67141E-02-1.10530E-02
 -1      1951 3.19319E-04 5.89062E-02-1.30273E-02
 -1      1952 2.79380E-04 5.66518E-02-1.53082E-02
 -1      1953 3.99234E-04 6.33511E-02-1.06841E-02
 -1      1954 5.18885E-04 6.32364E-02-1.48322E-02
 -1      1955 3.49391E-04 6.32950E-02-1.07363E-02
 -1      1956 4.54079E-04 6.31803E-02-1.48919E-02
 -1      1957 3.39324E-04 6.11573E-02-1.08309E-02
 -1      1958 4.59064E-04 6.32975E-02-1.27179E-02
 -1      1959 4.39035E-04 6.10601E-02-1.50226E-02
 -1      1960 5.19114E-04 6.76632E-02-1.03193E-02
 -1      1961 6.78637E-04 6.75137E-02-1.43563E-02
 -1      1962 4.54348E-04 6.75884E-02-1.03715E-02
 -1      1963 5.93915E-04 6.74389E-02-1.44160E-02
 -1      1964 4.59162E-04 6.55210E-02-1.05136E-02
 -1      1965 5.98883E-04 6.75934E-02-1.22976E-02
 -1      1966 5.98751E-04 6.53889E-02-1.46101E-02
 -1      1967 6.39077E-04 7.18482E-02-9.85966E-03
 -1      1968 8.38445E-04 7.16639E-02-1.37538E-02
 -1      1969 5.59427E-04 7.17547E-02-9.91183E-03
 -1      1970 7.33838E-04 7.15705E-02-1.38134E-02
 -1      1971 5.79083E-04 6.97736E-02-1.01013E-02
 -1      1972 7.38770E-04 7.17623E-02-1.17665E-02
 -1      1973 7.58535E-04 6.96067E-02-1.40708E-02
 -1      1974 7.59062E-04 7.58741E-02-9.30551E-03
 -1      1975 9.98205E-04 7.56552E-02-1.30250E-02
 -1      1976 6.64605E-04 7.57620E-02-9.35753E-03
 -1      1977 8.73772E-04 7.55431E-02-1.30844E-02
 -1      1978 6.99070E-04 7.38830E-02-9.59437E-03
 -1      1979 8.78642E-04 7.57721E-02-1.11251E-02
 -1      1980 9.18341E-04 7.36814E-02-1.34051E-02
 -1      1981 8.78831E-04 7.97087E-02-8.65759E-03
 -1      1982 1.15757E-03 7.94555E-02-1.21705E-02
 -1      1983 7.69708E-04 7.95782E-02-8.70918E-03
 -1      1984 1.01343E-03 7.93248E-02-1.22295E-02
 -1      1985 8.18991E-04 7.78173E-02-8.99321E-03
 -1      1986 1.01820E-03 7.95908E-02-1.03740E-02
 -1      1987 1.07797E-03 7.75812E-02-1.26133E-02
 -1      1988 9.97723E-04 8.33195E-02-7.91720E-03
 -1      1989 1.31565E-03 8.30324E-02-1.11916E-02
 -1      1990 8.74191E-04 8.31708E-02-7.96775E-03
 -1      1991 1.15200E-03 8.28834E-02-1.12494E-02
 -1      1992 9.38440E-04 8.15442E-02-8.29884E-03
 -1      1993 1.15666E-03 8.31859E-02-9.51464E-03
 -1      1994 1.23685E-03 8.12739E-02-1.16964E-02
 -1      1995 1.11418E-03 8.66731E-02-7.08662E-03
 -1      1996 1.47037E-03 8.63529E-02-1.00905E-02
 -1      1997 9.76669E-04 8.65068E-02-7.13483E-03
 -1      1998 1.28757E-03 8.61859E-02-1.01457E-02
 -1      1999 1.05639E-03 8.50306E-02-7.51298E-03
 -1      2000 1.29216E-03 8.65242E-02-8.54935E-03
 -1      2001 1.39362E-03 8.47268E-02-1.06560E-02
 -1      2002 1.22477E-03 8.97350E-02-6.16959E-03
 -1      2003 1.61719E-03 8.93832E-02-8.87107E-03
 -1      2004 1.07401E-03 8.95525E-02-6.21291E-03
 -1      2005 1.41587E-03 8.91990E-02-8.92069E-03
 -1      2006 1.17050E-03 8.82428E-02-6.63859E-03
 -1      2007 1.42067E-03 8.95714E-02-7.48220E-03
 -1      2008 1.54518E-03 8.79066E-02-9.49515E-03
 -1      2009 1.32270E-03 9.24689E-02-5.17181E-03
 -1      2010 1.74696E-03 9.20873E-02-7.53934E-03
 -1      2011 1.15960E-03 9.22728E-02-5.20553E-03
 -1      2012 1.52796E-03 9.18876E-02-7.57810E-03
 -1      2013 1.27592E-03 9.11453E-02-5.68035E-03
 -1      2014 1.53411E-03 9.22915E-02-6.31958E-03
 -1      2015 1.68502E-03 9.07784E-02-8.21864E-03
 -1      2016 1.39375E-03 9.48365E-02-4.10152E-03
 -1      2017 1.84091E-03 9.44283E-02-6.10647E-03
 -1      2018 1.22028E-03 9.46321E-02-4.11658E-03
 -1      2019 1.60631E-03 9.42167E-02-6.12365E-03
 -1      2020 1.36277E-03 9.37010E-02-4.64521E-03
 -1      2021 1.61585E-03 9.46461E-02-5.07149E-03
 -1      2022 1.80013E-03 9.33057E-02-6.83472E-03
 -1      2023 1.41531E-03 9.67981E-02-2.96689E-03
 -1      2024 1.86663E-03 9.63641E-02-4.58056E-03
 -1      2025 1.22945E-03 9.65946E-02-2.94929E-03
 -1      2026 1.61492E-03 9.61481E-02-4.56129E-03
 -1      2027 1.41297E-03 9.58703E-02-3.54224E-03
 -1      2028 1.63784E-03 9.65970E-02-3.74801E-03
 -1      2029 1.86516E-03 9.54496E-02-5.35485E-03
 -1      2030 1.32744E-03 9.83248E-02-1.77319E-03
 -1      2031 1.74463E-03 9.78717E-02-2.99965E-03
 -1      2032 1.14004E-03 9.81442E-02-1.69098E-03
 -1      2033 1.49092E-03 9.76631E-02-2.90109E-03
 -1      2034 1.38880E-03 9.76169E-02-2.37837E-03
 -1      2035 1.53194E-03 9.81044E-02-2.36534E-03
 -1      2036 1.83173E-03 9.71719E-02-3.79662E-03
 -1      2037 1.03293E-03 9.93956E-02-5.38250E-04
 -1      2038 1.31999E-03 9.89342E-02-1.32031E-03
 -1      2039 7.98203E-04 9.92635E-02-3.28422E-04
 -1      2040 1.02920E-03 9.87709E-02-1.08801E-03
 -1      2041 1.22961E-03 9.89188E-02-1.17322E-03
 -1      2042 1.17125E-03 9.92157E-02-8.83757E-04
 -1      2043 1.59845E-03 9.84462E-02-2.19864E-03
 -1      2044 0.00000E+00 1.00000E-01 1.00000E-03
 -1      2045 0.00000E+00 1.00000E-01 1.00000E-03
 -1      2046 0.00000E+00 1.00000E-01 1.00000E-03
 -1      2047 0.00000E+00 1.00000E-01 1.00000E-03
 -1      2048 6.78469E-04 9.98067E-02 2.28108E-04
 -1      2049 0.00000E+00 1.00000E-01 1.00000E-03
 -1      2050 9.04348E-04 9.93240E-02-2.35846E-04
 -1      2051 0.00000E+00 0.00000E+00 0.00000E+00
 -1      2052 6.52550E-04 3.03154E-04-8.89738E-04
 -1      2053 0.00000E+00 0.00000E+00 0.00000E+00
 -1      2054 4.02904E-04 5.18971E-04-7.10921E-04
 -1      2055 0.00000E+00 0.00000E+00 0.00000E+00
 -1      2056 4.32896E-04 4.02054E-05-4.62139E-04
 -1      2057 8.20093E-04 4.09916E-04-1.15471E-03
 -1      2058 0.00000E+00 0.00000E+00 0.00000E+00
 -1      2059 5.07683E-04 4.38836E-04-7.54961E-04
 -1      2060 0.00000E+00 0.00000E+00 0.00000E+00
 -1      2061 2.06426E-04 1.74031E-04-3.18300E-04
 -1      2062 5.03340E-04 6.24874E-04-9.32427E-04
 -1      2063 8.44995E-04 1.31469E-03-1.63244E-03
 -1      2064 5.95732E-04 1.63483E-03-1.53136E-03
 -1      2065 7.83125E-04 7.41569E-04-1.26923E-03
 -1      2066 1.05668E-03 1.45525E-03-2.11966E-03
 -1      2067 7.27813E-04 1.49839E-03-1.58110E-03
 -1      2068 5.20375E-04 1.01856E-03-1.11742E-03
 -1      2069 7.43156E-04 1.77645E-03-1.99383E-03
 -1      2070 8.91431E-04 2.84197E-03-2.36813E-03
 -1      2071 6.59143E-04 3.20563E-03-2.34127E-03
 -1      2072 8.79617E-04 2.01819E-03-2.00260E-03
 -1      2073 1.11717E-03 2.97890E-03-3.05117E-03
 -1      2074 7.76605E-04 3.04530E-03-2.35947E-03
 -1      2075 6.39777E-04 2.36610E-03-1.94356E-03
 -1      2076 8.24178E-04 3.34446E-03-3.01731E-03
 -1      2077 8.69821E-04 4.82189E-03-3.07338E-03
 -1      2078 6.53461E-04 5.19381E-03-3.08663E-03
 -1      2079 8.85533E-04 3.77810E-03-2.72624E-03
 -1      2080 1.09359E-03 4.94947E-03-3.94204E-03
 -1      2081 7.63336E-04 5.02633E-03-3.08546E-03
 -1      2082 6.61833E-04 4.14916E-03-2.72173E-03
 -1      2083 8.19649E-04 5.32271E-03-3.95796E-03
 -1      2084 8.18660E-04 7.21137E-03-3.73484E-03
 -1      2085 6.17449E-04 7.57166E-03-3.77224E-03
 -1      2086 8.46908E-04 5.96811E-03-3.40999E-03
 -1      2087 1.03120E-03 7.32792E-03-4.77681E-03
 -1      2088 7.18907E-04 7.40754E-03-3.75882E-03
 -1      2089 6.38024E-04 6.33610E-03-3.43708E-03
 -1      2090 7.76481E-04 7.68894E-03-4.82252E-03
 -1      2091 7.51571E-04 9.96836E-03-4.34675E-03
 -1      2092 5.67009E-04 1.03059E-02-4.39735E-03
 -1      2093 7.86384E-04 8.54638E-03-4.04734E-03
 -1      2094 9.48303E-04 1.00742E-02-5.55031E-03
 -1      2095 6.59826E-04 1.01510E-02-4.37687E-03
 -1      2096 5.93396E-04 8.89632E-03-4.09233E-03
 -1      2097 7.14577E-04 1.04120E-02-5.61226E-03
 -1      2098 6.77014E-04 1.30540E-02-4.90442E-03
 -1      2099 5.10243E-04 1.33628E-02-4.96213E-03
 -1      2100 7.14889E-04 1.14724E-02-4.63258E-03
 -1      2101 8.55577E-04 1.31491E-02-6.25606E-03
 -1      2102 5.93923E-04 1.32205E-02-4.93771E-03
 -1      2103 5.39123E-04 1.17961E-02-4.68732E-03
 -1      2104 6.44306E-04 1.34580E-02-6.32672E-03
 -1      2105 5.98982E-04 1.64319E-02-5.40450E-03
 -1      2106 4.50891E-04 1.67087E-02-5.46586E-03
 -1      2107 6.38247E-04 1.47086E-02-5.16181E-03
 -1      2108 7.58311E-04 1.65160E-02-6.88969E-03
 -1      2109 5.25099E-04 1.65807E-02-5.43931E-03
 -1      2110 4.80753E-04 1.50017E-02-5.22167E-03
 -1      2111 5.70522E-04 1.67929E-02-6.96480E-03
 -1      2112 5.19529E-04 2.00672E-02-5.84463E-03
 -1      2113 3.90670E-04 2.03105E-02-5.90778E-03
 -1      2114 5.59344E-04 1.82194E-02-5.63215E-03
 -1      2115 6.59153E-04 2.01404E-02-7.44819E-03
 -1      2116 4.55185E-04 2.01978E-02-5.88013E-03
 -1      2117 4.20831E-04 1.84797E-02-5.69458E-03
 -1      2118 4.95488E-04 2.03837E-02-7.52548E-03
 -1      2119 4.39583E-04 2.39265E-02-6.22329E-03
 -1      2120 3.30287E-04 2.41356E-02-6.28726E-03
 -1      2121 4.79576E-04 2.19709E-02-6.04170E-03
 -1      2122 5.59318E-04 2.39887E-02-7.92969E-03
 -1      2123 3.84978E-04 2.40387E-02-6.25908E-03
 -1      2124 3.60477E-04 2.21972E-02-6.10535E-03
 -1      2125 4.20153E-04 2.41977E-02-8.00798E-03
 -1      2126 3.59536E-04 2.79773E-02-6.53956E-03
 -1      2127 2.69988E-04 2.81517E-02-6.60388E-03
 -1      2128 3.99555E-04 2.59300E-02-6.38925E-03
 -1      2129 4.59321E-04 2.80283E-02-8.33310E-03
 -1      2130 3.14783E-04 2.80708E-02-6.57545E-03
 -1      2131 3.00121E-04 2.61218E-02-6.45344E-03
 -1      2132 3.44865E-04 2.82027E-02-8.41182E-03
 -1      2133 2.79528E-04 3.21872E-02-6.79291E-03
 -1      2134 2.09826E-04 3.23268E-02-6.85737E-03
 -1      2135 3.19521E-04 3.00643E-02-6.67411E-03
 -1      2136 3.59348E-04 3.22270E-02-8.65781E-03
 -1      2137 2.44687E-04 3.22620E-02-6.82882E-03
 -1      2138 2.39890E-04 3.02213E-02-6.73852E-03
 -1      2139 2.69713E-04 3.23666E-02-8.73668E-03
 -1      2140 1.99588E-04 3.65242E-02-6.98306E-03
 -1      2141 1.49784E-04 3.66289E-02-7.04756E-03
 -1      2142 2.39548E-04 3.43418E-02-6.89589E-03
 -1      2143 2.59446E-04 3.65529E-02-8.90347E-03
 -1      2144 1.74691E-04 3.65803E-02-7.01897E-03
 -1      2145 1.79792E-04 3.44639E-02-6.96038E-03
 -1      2146 1.94688E-04 3.66576E-02-8.98239E-03
 -1      2147 1.19707E-04 4.09566E-02-7.10986E-03
 -1      2148 8.98254E-05 4.10264E-02-7.17437E-03
 -1      2149 1.59641E-04 3.87305E-02-7.05438E-03
 -1      2150 1.59608E-04 4.09740E-02-9.06994E-03
 -1      2151 1.04768E-04 4.09940E-02-7.14576E-03
 -1      2152 1.19796E-04 3.88177E-02-7.11889E-03
 -1      2153 1.19757E-04 4.10438E-02-9.14886E-03
 -1      2154 3.98651E-05 4.54524E-02-7.17325E-03
 -1      2155 2.99172E-05 4.54873E-02-7.23775E-03
 -1      2156 7.97823E-05 4.31985E-02-7.14948E-03
 -1      2157 5.98141E-05 4.54586E-02-9.15712E-03
 -1      2158 3.48918E-05 4.54711E-02-7.20914E-03
 -1      2159 5.98668E-05 4.32509E-02-7.21399E-03
 -1      2160 4.48811E-05 4.54935E-02-9.23604E-03
 -1      2161-3.99590E-05 4.99800E-02-7.17318E-03
 -1      2162-2.99683E-05 4.99800E-02-7.23768E-03
 -1      2163-4.80598E-08 4.77142E-02-7.18114E-03
 -1      2164-3.99597E-05 4.99750E-02-9.16498E-03
 -1      2165-3.49635E-05 4.99800E-02-7.20907E-03
 -1      2166-2.68201E-08 4.77317E-02-7.24564E-03
 -1      2167-2.99688E-05 4.99750E-02-9.24391E-03
 -1      2168-1.19785E-04 5.45076E-02-7.10965E-03
 -1      2169-8.98559E-05 5.44727E-02-7.17416E-03
 -1      2170-7.98704E-05 5.22458E-02-7.14934E-03
 -1      2171-1.39736E-04 5.44914E-02-9.09352E-03
 -1      2172-1.04821E-04 5.44889E-02-7.14555E-03
 -1      2173-5.99103E-05 5.22284E-02-7.21385E-03
 -1      2174-1.04821E-04 5.44565E-02-9.17245E-03
 -1      2175-1.99634E-04 5.90035E-02-6.98267E-03
 -1      2176-1.49771E-04 5.89337E-02-7.04719E-03
 -1      2177-1.59705E-04 5.67615E-02-7.05409E-03
 -1      2178-2.39537E-04 5.89760E-02-8.94274E-03
 -1      2179-1.74704E-04 5.89661E-02-7.01858E-03
 -1      2180-1.19808E-04 5.67091E-02-7.11860E-03
 -1      2181-1.79704E-04 5.89062E-02-9.02168E-03
 -1      2182-2.79530E-04 6.34358E-02-6.79227E-03
 -1      2183-2.09746E-04 6.33311E-02-6.85679E-03
 -1      2184-2.39574E-04 6.12296E-02-6.89539E-03
 -1      2185-3.39390E-04 6.33972E-02-8.71268E-03
 -1      2186-2.44642E-04 6.33797E-02-6.82819E-03
 -1      2187-1.79749E-04 6.11423E-02-6.95991E-03
 -1      2188-2.54652E-04 6.32925E-02-8.79162E-03
 -1      2189-3.59498E-04 6.77728E-02-6.53852E-03
 -1      2190-2.69821E-04 6.76332E-02-6.60301E-03
 -1      2191-3.19502E-04 6.56182E-02-6.67330E-03
 -1      2192-4.39320E-04 6.77230E-02-8.40342E-03
 -1      2193-3.14669E-04 6.76980E-02-6.57445E-03
 -1      2194-2.39768E-04 6.54961E-02-6.73781E-03
 -1      2195-3.29709E-04 6.75834E-02-8.48232E-03
 -1      2196-4.39556E-04 7.19827E-02-6.22158E-03
 -1      2197-3.30041E-04 7.18083E-02-6.28594E-03
 -1      2198-3.99512E-04 6.98956E-02-6.38793E-03
 -1      2199-5.39341E-04 7.19216E-02-8.01514E-03
 -1      2200-3.84820E-04 7.18892E-02-6.25749E-03
 -1      2201-2.99910E-04 6.97386E-02-6.45237E-03
 -1      2202-4.04919E-04 7.17473E-02-8.09389E-03
 -1      2203-5.19683E-04 7.60333E-02-5.84174E-03
 -1      2204-3.90440E-04 7.58242E-02-5.90575E-03
 -1      2205-4.79610E-04 7.40299E-02-6.03948E-03
 -1      2206-6.39415E-04 7.59611E-02-7.54819E-03
 -1      2207-4.55107E-04 7.59212E-02-5.87756E-03
 -1      2208-3.60218E-04 7.38381E-02-6.10372E-03
 -1      2209-4.80304E-04 7.57521E-02-7.62651E-03
 -1      2210-5.99753E-04 7.98925E-02-5.39955E-03
 -1      2211-4.50981E-04 7.96492E-02-5.46273E-03
 -1      2212-5.59732E-04 7.79889E-02-5.62838E-03
 -1      2213-7.39361E-04 7.98093E-02-7.00322E-03
 -1      2214-5.25458E-04 7.97619E-02-5.43510E-03
 -1      2215-4.20701E-04 7.77626E-02-5.69206E-03
 -1      2216-5.55788E-04 7.95660E-02-7.08052E-03
 -1      2217-6.79372E-04 8.35276E-02-4.89600E-03
 -1      2218-5.11425E-04 8.32508E-02-4.95731E-03
 -1      2219-6.39646E-04 8.17401E-02-5.15535E-03
 -1      2220-8.38657E-04 8.34334E-02-6.38141E-03
 -1      2221-5.95572E-04 8.33787E-02-4.93084E-03
 -1      2222-4.81245E-04 8.14799E-02-5.21777E-03
 -1      2223-6.31027E-04 8.31566E-02-6.45645E-03
 -1      2224-7.57579E-04 8.69052E-02-4.33269E-03
 -1      2225-5.71046E-04 8.65965E-02-4.39016E-03
 -1      2226-7.18726E-04 8.52507E-02-4.62166E-03
 -1      2227-9.36048E-04 8.68001E-02-5.68475E-03
 -1      2228-6.64629E-04 8.67388E-02-4.36594E-03
 -1      2229-5.41420E-04 8.49577E-02-4.68139E-03
 -1      2230-7.05043E-04 8.64913E-02-5.75513E-03
 -1      2231-8.32220E-04 8.99906E-02-3.71214E-03
 -1      2232-6.28029E-04 8.96532E-02-3.76206E-03
 -1      2233-7.95516E-04 8.84866E-02-4.02935E-03
 -1      2234-1.02877E-03 8.98748E-02-4.91643E-03
 -1      2235-7.30702E-04 8.98081E-02-3.74206E-03
 -1      2236-6.00054E-04 8.81631E-02-4.08367E-03
 -1      2237-7.75466E-04 8.95371E-02-4.97765E-03
 -1      2238-8.99051E-04 9.27477E-02-3.03790E-03
 -1      2239-6.78374E-04 9.23877E-02-3.07378E-03
 -1      2240-8.66968E-04 9.14126E-02-3.38148E-03
 -1      2241-1.11126E-03 9.26212E-02-4.08108E-03
 -1      2242-7.89632E-04 9.25517E-02-3.06132E-03
 -1      2243-6.54437E-04 9.10628E-02-3.42544E-03
 -1      2244-8.37168E-04 9.22604E-02-4.12519E-03
 -1      2245-9.49032E-04 9.51381E-02-2.31503E-03
 -1      2246-7.13359E-04 9.47666E-02-2.32514E-03
 -1      2247-9.26874E-04 9.39913E-02-2.68221E-03
 -1      2248-1.17225E-03 9.50008E-02-3.18550E-03
 -1      2249-8.33019E-04 9.49341E-02-2.32577E-03
 -1      2250-6.98612E-04 9.36236E-02-2.70710E-03
 -1      2251-8.79154E-04 9.46278E-02-3.19819E-03
 -1      2252-9.67551E-04 9.71210E-02-1.54957E-03
 -1      2253-7.15853E-04 9.67579E-02-1.51691E-03
 -1      2254-9.63529E-04 9.61831E-02-1.93765E-03
 -1      2255-1.19246E-03 9.69747E-02-2.23491E-03
 -1      2256-8.43109E-04 9.69182E-02-1.53819E-03
 -1      2257-7.20539E-04 9.58125E-02-1.92881E-03
 -1      2258-8.80322E-04 9.66095E-02-2.19517E-03
 -1      2259-9.13303E-04 9.86552E-02-7.55609E-04
 -1      2260-6.44215E-04 9.83356E-02-6.43803E-04
 -1      2261-9.52640E-04 9.79476E-02-1.15462E-03
 -1      2262-1.12406E-03 9.85061E-02-1.24522E-03
 -1      2263-7.86732E-04 9.84720E-02-6.98621E-04
 -1      2264-6.93265E-04 9.76003E-02-1.08764E-03
 -1      2265-7.91010E-04 9.81854E-02-1.10869E-03
 -1      2266-7.02931E-04 9.96796E-02 4.32032E-05
 -1      2267-4.34048E-04 9.94641E-02 2.37239E-04
 -1      2268-8.44890E-04 9.92339E-02-3.64725E-04
 -1      2269-8.70040E-04 9.95670E-02-2.22939E-04
 -1      2270-5.46836E-04 9.95442E-02 1.89194E-04
 -1      2271-5.61617E-04 9.89573E-02-1.98967E-04
 -1      2272-5.34071E-04 9.93524E-02 1.43926E-05
 -1      2273 0.00000E+00 1.00000E-01 1.00000E-03
 -1      2274 0.00000E+00 1.00000E-01 1.00000E-03
 -1      2275-4.65672E-04 9.99510E-02 5.02987E-04
 -1      2276 0.00000E+00 1.00000E-01 1.00000E-03
 -1      2277 0.00000E+00 1.00000E-01 1.00000E-03
 -1      2278-2.22019E-04 9.98173E-02 6.58571E-04
 -1      2279 0.00000E+00 1.00000E-01 1.00000E-03
 -1      2280 0.00000E+00 0.00000E+00 0.00000E+00
 -1      2281 2.21609E-04 6.20508E-04-6.64435E-04
 -1      2282 0.00000E+00 0.00000E+00 0.00000E+00
 -1      2283 3.00094E-04 5.79302E-04-6.76789E-04
 -1      2284 0.00000E+00 0.00000E+00 0.00000E+00
 -1      2285 1.16977E-04 2.22911E-04-3.11590E-04
 -1      2286 2.77111E-04 7.32144E-04-8.76308E-04
 -1      2287 3.66235E-04 1.80932E-03-1.48118E-03
 -1      2288 4.77115E-04 1.73548E-03-1.50249E-03
 -1      2289 3.07648E-04 1.16018E-03-1.06504E-03
 -1      2290 4.56969E-04 1.95937E-03-1.93460E-03
 -1      2291 4.25621E-04 3.42587E-03-2.30720E-03
 -1      2292 5.40979E-04 3.33084E-03-2.32222E-03
 -1      2293 4.04539E-04 2.56724E-03-1.89776E-03
 -1      2294 5.31796E-04 3.57222E-03-2.97730E-03
 -1      2295 4.31695E-04 5.43318E-03-3.07634E-03
 -1      2296 5.42695E-04 5.32822E-03-3.08264E-03
 -1      2297 4.33297E-04 4.38177E-03-2.69996E-03
 -1      2298 5.40896E-04 5.56708E-03-3.94603E-03
 -1      2299 4.11621E-04 7.81257E-03-3.78042E-03
 -1      2300 5.14837E-04 7.70598E-03-3.77852E-03
 -1      2301 4.23906E-04 6.57805E-03-3.43683E-03
 -1      2302 5.17097E-04 7.93288E-03-4.83206E-03
 -1      2303 3.79120E-04 1.05372E-02-4.41790E-03
 -1      2304 4.73385E-04 1.04342E-02-4.41031E-03
 -1      2305 3.96373E-04 9.13352E-03-4.10743E-03
 -1      2306 4.77393E-04 1.06450E-02-5.63616E-03
 -1      2307 3.41326E-04 1.35777E-02-4.99033E-03
 -1      2308 4.26023E-04 1.34817E-02-4.97909E-03
 -1      2309 3.60631E-04 1.20199E-02-4.71220E-03
 -1      2310 4.30742E-04 1.36738E-02-6.35950E-03
 -1      2311 3.01490E-04 1.69033E-02-5.49853E-03
 -1      2312 3.76351E-04 1.68161E-02-5.48510E-03
 -1      2313 3.21547E-04 1.52068E-02-5.25243E-03
 -1      2314 3.81317E-04 1.69880E-02-7.00278E-03
 -1      2315 2.61051E-04 2.04827E-02-5.94295E-03
 -1      2316 3.25960E-04 2.04054E-02-5.92827E-03
 -1      2317 2.81299E-04 1.86633E-02-5.72870E-03
 -1      2318 3.30993E-04 2.05561E-02-7.56636E-03
 -1      2319 2.20567E-04 2.42840E-02-6.32379E-03
 -1      2320 2.75486E-04 2.42173E-02-6.30842E-03
 -1      2321 2.40798E-04 2.23576E-02-6.14131E-03
 -1      2322 2.80523E-04 2.43463E-02-8.05043E-03
 -1      2323 1.80213E-04 2.82758E-02-6.64110E-03
 -1      2324 2.25133E-04 2.82200E-02-6.62538E-03
 -1      2325 2.00371E-04 2.62581E-02-6.49038E-03
 -1      2326 2.30160E-04 2.83269E-02-8.45507E-03
 -1      2327 1.40008E-04 3.24263E-02-6.89493E-03
 -1      2328 1.74935E-04 3.23815E-02-6.87903E-03
 -1      2329 1.60093E-04 3.03332E-02-6.77595E-03
 -1      2330 1.79949E-04 3.24661E-02-8.78033E-03
 -1      2331 9.99221E-05 3.67036E-02-7.08529E-03
 -1      2332 1.24862E-04 3.66700E-02-7.06929E-03
 -1      2333 1.19952E-04 3.45511E-02-6.99804E-03
 -1      2334 1.29867E-04 3.67323E-02-9.02623E-03
 -1      2335 5.99167E-05 4.10762E-02-7.21217E-03
 -1      2336 7.48754E-05 4.10538E-02-7.19613E-03
 -1      2337 7.99114E-05 3.88800E-02-7.15666E-03
 -1      2338 7.98753E-05 4.10936E-02-9.19278E-03
 -1      2339 1.99586E-05 4.55122E-02-7.27558E-03
 -1      2340 2.49397E-05 4.55010E-02-7.25953E-03
 -1      2341 3.99334E-05 4.32883E-02-7.25180E-03
 -1      2342 2.99364E-05 4.55185E-02-9.27999E-03
 -1      2343-1.99786E-05 4.99800E-02-7.27552E-03
 -1      2344-2.49734E-05 4.99800E-02-7.25946E-03
 -1      2345-1.11759E-08 4.77442E-02-7.28348E-03
 -1      2346-1.99789E-05 4.99750E-02-9.28787E-03
 -1      2347-5.99176E-05 5.44478E-02-7.21199E-03
 -1      2348-7.48885E-05 5.44590E-02-7.19594E-03
 -1      2349-3.99464E-05 5.22159E-02-7.25168E-03
 -1      2350-6.98961E-05 5.44316E-02-9.21641E-03
 -1      2351-9.98825E-05 5.88838E-02-7.08499E-03
 -1      2352-1.24831E-04 5.89062E-02-7.06895E-03
 -1      2353-7.98951E-05 5.66718E-02-7.15642E-03
 -1      2354-1.19842E-04 5.88564E-02-9.06560E-03
 -1      2355-1.39903E-04 6.32564E-02-6.89452E-03
 -1      2356-1.74834E-04 6.32900E-02-6.87853E-03
 -1      2357-1.19884E-04 6.10800E-02-6.99769E-03
 -1      2358-1.69850E-04 6.32178E-02-8.83546E-03
 -1      2359-1.80020E-04 6.75337E-02-6.64058E-03
 -1      2360-2.24940E-04 6.75785E-02-6.62467E-03
 -1      2361-1.59946E-04 6.54090E-02-6.77548E-03
 -1      2362-2.19962E-04 6.74839E-02-8.52598E-03
 -1      2363-2.20280E-04 7.16841E-02-6.32315E-03
 -1      2364-2.75197E-04 7.17399E-02-6.30744E-03
 -1      2365-2.00128E-04 6.96268E-02-6.48980E-03
 -1      2366-2.70227E-04 7.16231E-02-8.13713E-03
 -1      2367-2.60729E-04 7.56758E-02-5.94222E-03
 -1      2368-3.25651E-04 7.57425E-02-5.92689E-03
 -1      2369-2.40479E-04 7.37018E-02-6.14062E-03
 -1      2370-3.20684E-04 7.56036E-02-7.66890E-03
 -1      2371-3.01362E-04 7.94770E-02-5.49775E-03
 -1      2372-3.76285E-04 7.95543E-02-5.48316E-03
 -1      2373-2.81027E-04 7.76022E-02-5.72793E-03
 -1      2374-3.71298E-04 7.93936E-02-7.12124E-03
 -1      2375-3.42012E-04 8.30561E-02-4.98963E-03
 -1      2376-4.26903E-04 8.31434E-02-4.97640E-03
 -1      2377-3.21708E-04 8.12963E-02-5.25166E-03
 -1      2378-4.21822E-04 8.29614E-02-6.49407E-03
 -1      2379-3.82103E-04 8.63815E-02-4.41765E-03
 -1      2380-4.76850E-04 8.64776E-02-4.40678E-03
 -1      2381-3.62194E-04 8.47525E-02-4.71166E-03
 -1      2382-4.71481E-04 8.62754E-02-5.78719E-03
 -1      2383-4.20103E-04 8.94219E-02-3.78130E-03
 -1      2384-5.24441E-04 8.95249E-02-3.77439E-03
 -1      2385-4.01528E-04 8.79392E-02-4.10759E-03
 -1      2386-5.18299E-04 8.93039E-02-5.00024E-03
 -1      2387-4.52513E-04 9.21465E-02-3.07971E-03
 -1      2388-5.65807E-04 9.22533E-02-3.07893E-03
 -1      2389-4.37375E-04 9.08255E-02-3.43881E-03
 -1      2390-5.57850E-04 9.20161E-02-4.13247E-03
 -1      2391-4.71623E-04 9.45269E-02-2.31127E-03
 -1      2392-5.92660E-04 9.46321E-02-2.31930E-03
 -1      2393-4.64481E-04 9.33814E-02-2.70397E-03
 -1      2394-5.80602E-04 9.43830E-02-3.18269E-03
 -1      2395-4.62623E-04 9.65371E-02-1.47774E-03
 -1      2396-5.87766E-04 9.66325E-02-1.49501E-03
 -1      2397-4.72113E-04 9.55794E-02-1.90269E-03
 -1      2398-5.68495E-04 9.63810E-02-2.15010E-03
 -1      2399-3.96340E-04 9.81606E-02-5.87962E-04
 -1      2400-5.16130E-04 9.82347E-02-6.11700E-04
 -1      2401-4.38721E-04 9.73986E-02-1.03614E-03
 -1      2402-4.86758E-04 9.80016E-02-1.04381E-03
 -1      2403-2.38860E-04 9.93622E-02 2.88151E-04
 -1      2404-3.23377E-04 9.94036E-02 2.74473E-04
 -1      2405-3.32248E-04 9.88152E-02-1.41226E-04
 -1      2406-2.94160E-04 9.92446E-02 7.49549E-05
 -1      2407 0.00000E+00 1.00000E-01 1.00000E-03
 -1      2408 0.00000E+00 1.00000E-01 1.00000E-03
 -1      2409-1.25829E-04 9.97682E-02 6.66268E-04
 -1      2410 0.00000E+00 1.00000E-01 1.00000E-03
 -1      2411 0.00000E+00 0.00000E+00 0.00000E+00
 -1      2412 1.02870E-04 6.66791E-04-6.58360E-04
 -1      2413 0.00000E+00 0.00000E+00 0.00000E+00
 -1      2414 1.58454E-04 6.48664E-04-6.59986E-04
 -1      2415 0.00000E+00 0.00000E+00 0.00000E+00
 -1      2416 5.39271E-05 2.46250E-04-3.08548E-04
 -1      2417 1.28742E-04 7.81255E-04-8.70000E-04
 -1      2418 1.73595E-04 1.89774E-03-1.46294E-03
 -1      2419 2.65850E-04 1.86242E-03-1.46937E-03
 -1      2420 1.42731E-04 1.22896E-03-1.05131E-03
 -1      2421 2.16701E-04 2.05330E-03-1.91441E-03
 -1      2422 2.06858E-04 3.54336E-03-2.28818E-03
 -1      2423 3.14285E-04 3.49577E-03-2.29558E-03
 -1      2424 1.94253E-04 2.67184E-03-1.87772E-03
 -1      2425 2.58441E-04 3.69501E-03-2.95576E-03
 -1      2426 2.13651E-04 5.56600E-03-3.06578E-03
 -1      2427 3.22121E-04 5.51172E-03-3.07051E-03
 -1      2428 2.12870E-04 4.50851E-03-2.68454E-03
 -1      2429 2.67563E-04 5.70378E-03-3.93378E-03
 -1      2430 2.05347E-04 7.94989E-03-3.77911E-03
 -1      2431 3.08415E-04 7.89340E-03-3.78019E-03
 -1      2432 2.10805E-04 6.71429E-03-3.43097E-03
 -1      2433 2.57819E-04 8.07267E-03-4.83009E-03
 -1      2434 1.89740E-04 1.06714E-02-4.42404E-03
 -1      2435 2.84550E-04 1.06159E-02-4.42208E-03
 -1      2436 1.98140E-04 9.27007E-03-4.11012E-03
 -1      2437 2.38802E-04 1.07807E-02-5.64259E-03
 -1      2438 1.70982E-04 1.37039E-02-5.00162E-03
 -1      2439 2.56288E-04 1.36516E-02-4.99748E-03
 -1      2440 1.80602E-04 1.21506E-02-4.72120E-03
 -1      2441 2.15690E-04 1.38008E-02-6.37178E-03
 -1      2442 1.51026E-04 1.70186E-02-5.51308E-03
 -1      2443 2.26367E-04 1.69707E-02-5.50754E-03
 -1      2444 1.61085E-04 1.53279E-02-5.26556E-03
 -1      2445 1.90960E-04 1.71037E-02-7.01878E-03
 -1      2446 1.30728E-04 2.05851E-02-5.95945E-03
 -1      2447 1.95964E-04 2.05425E-02-5.95306E-03
 -1      2448 1.40892E-04 1.87723E-02-5.74436E-03
 -1      2449 1.65720E-04 2.06587E-02-7.58460E-03
 -1      2450 1.10415E-04 2.43727E-02-6.34139E-03
 -1      2451 1.65538E-04 2.43358E-02-6.33451E-03
 -1      2452 1.20564E-04 2.24532E-02-6.15845E-03
 -1      2453 1.40409E-04 2.44350E-02-8.06993E-03
 -1      2454 9.01861E-05 2.83501E-02-6.65931E-03
 -1      2455 1.35227E-04 2.83192E-02-6.65216E-03
 -1      2456 1.00288E-04 2.63396E-02-6.50833E-03
 -1      2457 1.15170E-04 2.84012E-02-8.47526E-03
 -1      2458 7.00496E-05 3.24858E-02-6.91345E-03
 -1      2459 1.05045E-04 3.24610E-02-6.90616E-03
 -1      2460 8.01071E-05 3.04001E-02-6.79434E-03
 -1      2461 9.00263E-05 3.25257E-02-8.80088E-03
 -1      2462 4.99859E-05 3.67484E-02-7.10397E-03
 -1      2463 7.49624E-05 3.67297E-02-7.09660E-03
 -1      2464 6.00100E-05 3.46032E-02-7.01666E-03
 -1      2465 6.49620E-05 3.67770E-02-9.04697E-03
 -1      2466 2.99709E-05 4.11061E-02-7.23092E-03
 -1      2467 4.49480E-05 4.10936E-02-7.22352E-03
 -1      2468 3.99736E-05 3.89173E-02-7.17538E-03
 -1      2469 3.99521E-05 4.11235E-02-9.21360E-03
 -1      2470 9.98456E-06 4.55272E-02-7.29437E-03
 -1      2471 1.49733E-05 4.55210E-02-7.28695E-03
 -1      2472 1.99752E-05 4.33107E-02-7.27058E-03
 -1      2473 1.49742E-05 4.55334E-02-9.30085E-03
 -1      2474-9.98924E-06 4.99800E-02-7.29432E-03
 -1      2475-1.49839E-05 4.99800E-02-7.28690E-03
 -1      2476-3.04517E-09 4.77516E-02-7.30227E-03
 -1      2477-9.98938E-06 4.99750E-02-9.30874E-03
 -1      2478-2.99642E-05 5.44329E-02-7.23078E-03
 -1      2479-4.49427E-05 5.44391E-02-7.22336E-03
 -1      2480-1.99757E-05 5.22084E-02-7.27048E-03
 -1      2481-3.49542E-05 5.44166E-02-9.23727E-03
 -1      2482-4.99549E-05 5.88540E-02-7.10375E-03
 -1      2483-7.49232E-05 5.88664E-02-7.09635E-03
 -1      2484-3.99565E-05 5.66494E-02-7.17520E-03
 -1      2485-5.99364E-05 5.88265E-02-9.08643E-03
 -1      2486-6.99792E-05 6.32116E-02-6.91321E-03
 -1      2487-1.04951E-04 6.32303E-02-6.90584E-03
 -1      2488-5.99614E-05 6.10427E-02-7.01642E-03
 -1      2489-8.49559E-05 6.31730E-02-8.85620E-03
 -1      2490-9.00616E-05 6.74741E-02-6.65909E-03
 -1      2491-1.35058E-04 6.74990E-02-6.65180E-03
 -1      2492-8.00112E-05 6.53568E-02-6.79410E-03
 -1      2493-1.10039E-04 6.74243E-02-8.54652E-03
 -1      2494-1.10232E-04 7.16099E-02-6.34133E-03
 -1      2495-1.65288E-04 7.16408E-02-6.33419E-03
 -1      2496-1.00134E-04 6.95598E-02-6.50818E-03
 -1      2497-1.35216E-04 7.15488E-02-8.15729E-03
 -1      2498-1.30519E-04 7.55872E-02-5.95975E-03
 -1      2499-1.95678E-04 7.56240E-02-5.95290E-03
 -1      2500-1.20359E-04 7.36203E-02-6.15853E-03
 -1      2501-1.60512E-04 7.55148E-02-7.68832E-03
 -1      2502-1.50922E-04 7.93746E-02-5.51407E-03
 -1      2503-2.26229E-04 7.94172E-02-5.50776E-03
 -1      2504-1.40708E-04 7.75066E-02-5.74495E-03
 -1      2505-1.85911E-04 7.92909E-02-7.13930E-03
 -1      2506-1.71347E-04 8.29409E-02-5.00383E-03
 -1      2507-2.56808E-04 8.29887E-02-4.99845E-03
 -1      2508-1.61145E-04 8.11873E-02-5.26707E-03
 -1      2509-2.11273E-04 8.28457E-02-6.50972E-03
 -1      2510-1.91453E-04 8.62552E-02-4.42829E-03
 -1      2511-2.86941E-04 8.63076E-02-4.42444E-03
 -1      2512-1.81480E-04 8.46314E-02-4.72430E-03
 -1      2513-2.36143E-04 8.61482E-02-5.79883E-03
 -1      2514-2.10324E-04 8.92875E-02-3.78634E-03
 -1      2515-3.15370E-04 8.93430E-02-3.78487E-03
 -1      2516-2.01141E-04 8.78084E-02-4.11573E-03
 -1      2517-2.59353E-04 8.91680E-02-5.00557E-03
 -1      2518-2.25854E-04 9.20089E-02-3.07666E-03
 -1      2519-3.39143E-04 9.20656E-02-3.07849E-03
 -1      2520-2.18726E-04 9.06887E-02-3.44010E-03
 -1      2521-2.78267E-04 9.18760E-02-4.12878E-03
 -1      2522-2.33547E-04 9.43936E-02-2.29828E-03
 -1      2523-3.52026E-04 9.44481E-02-2.30405E-03
 -1      2524-2.31106E-04 9.32448E-02-2.69602E-03
 -1      2525-2.87366E-04 9.42457E-02-3.16803E-03
 -1      2526-2.24985E-04 9.64191E-02-1.45581E-03
 -1      2527-3.41729E-04 9.64669E-02-1.46437E-03
 -1      2528-2.32081E-04 9.54522E-02-1.88453E-03
 -1      2529-2.76447E-04 9.62575E-02-2.12567E-03
 -1      2530-1.87967E-04 9.80716E-02-5.67277E-04
 -1      2531-2.87797E-04 9.81072E-02-5.74640E-04
 -1      2532-2.10795E-04 9.72934E-02-1.01329E-03
 -1      2533-2.30950E-04 9.79069E-02-1.02117E-03
 -1      2534-1.10909E-04 9.93156E-02 2.95198E-04
 -1      2535-1.70819E-04 9.93339E-02 2.93236E-04
 -1      2536-1.54217E-04 9.87460E-02-1.25669E-04
 -1      2537-1.36701E-04 9.91950E-02 8.22723E-05
 -1      2538 0.00000E+00 1.00000E-01 1.00000E-03
 -1      2539 0.00000E+00 1.00000E-01 1.00000E-03
 -1      2540-5.80199E-05 9.97447E-02 6.69805E-04
 -1      2541 0.00000E+00 1.00000E-01 1.00000E-03
 -1      2542 0.00000E+00 0.00000E+00 0.00000E+00
 -1      2543 7.84255E-17 6.80601E-04-6.56985E-04
 -1      2544 0.00000E+00 0.00000E+00 0.00000E+00
 -1      2545 5.03816E-05 6.77236E-04-6.57337E-04
 -1      2546 0.00000E+00 0.00000E+00 0.00000E+00
 -1      2547 3.48024E-17 2.52907E-04-3.08891E-04
 -1      2548 8.59915E-17 7.95974E-04-8.68868E-04
 -1      2549 1.89455E-16 1.92478E-03-1.45827E-03
 -1      2550 8.54937E-05 1.91821E-03-1.45929E-03
 -1      2551 1.30157E-16 1.24956E-03-1.04865E-03
 -1      2552 2.03162E-16 2.08206E-03-1.90950E-03
 -1      2553 3.26677E-16 3.58019E-03-2.28269E-03
 -1      2554 1.02661E-04 3.57118E-03-2.28400E-03
 -1      2555 2.54628E-16 2.70430E-03-1.87235E-03
 -1      2556 3.47605E-16 3.73362E-03-2.94967E-03
 -1      2557 4.81657E-16 5.60845E-03-3.06189E-03
 -1      2558 1.06509E-04 5.59800E-03-3.06286E-03
 -1      2559 4.00709E-16 4.54865E-03-2.67958E-03
 -1      2560 5.13597E-16 5.74758E-03-3.92928E-03
 -1      2561 6.55349E-16 7.99439E-03-3.77778E-03
 -1      2562 1.02604E-04 7.98338E-03-3.77817E-03
 -1      2563 5.67265E-16 6.75816E-03-3.42832E-03
 -1      2564 6.91925E-16 8.11807E-03-4.82835E-03
 -1      2565 8.31679E-16 1.07153E-02-4.42511E-03
 -1      2566 9.48916E-05 1.07044E-02-4.42493E-03
 -1      2567 7.43843E-16 9.31456E-03-4.11006E-03
 -1      2568 8.83004E-16 1.08252E-02-5.64351E-03
 -1      2569 1.02611E-15 1.37455E-02-5.00444E-03
 -1      2570 8.55328E-05 1.37352E-02-5.00382E-03
 -1      2571 9.28424E-16 1.21935E-02-4.72322E-03
 -1      2572 1.07913E-15 1.38427E-02-6.37467E-03
 -1      2573 1.23261E-15 1.70567E-02-5.51707E-03
 -1      2574 7.55508E-05 1.70472E-02-5.51616E-03
 -1      2575 1.12814E-15 1.53678E-02-5.26903E-03
 -1      2576 1.28643E-15 1.71420E-02-7.02300E-03
 -1      2577 1.41925E-15 2.06191E-02-5.96415E-03
 -1      2578 6.53913E-05 2.06106E-02-5.96306E-03
 -1      2579 1.32646E-15 1.88084E-02-5.74875E-03
 -1      2580 1.49436E-15 2.06928E-02-7.58962E-03
 -1      2581 1.61859E-15 2.44021E-02-6.34650E-03
 -1      2582 5.52253E-05 2.43948E-02-6.34531E-03
 -1      2583 1.52152E-15 2.24849E-02-6.16338E-03
 -1      2584 1.69442E-15 2.44645E-02-8.07543E-03
 -1      2585 1.80764E-15 2.83748E-02-6.66465E-03
 -1      2586 4.51038E-05 2.83686E-02-6.66340E-03
 -1      2587 1.71594E-15 2.63667E-02-6.51358E-03
 -1      2588 1.88416E-15 2.84259E-02-8.48103E-03
 -1      2589 1.97451E-15 3.25057E-02-6.91892E-03
 -1      2590 3.50310E-05 3.25007E-02-6.91763E-03
 -1      2591 1.89628E-15 3.04224E-02-6.79976E-03
 -1      2592 2.04796E-15 3.25456E-02-8.80679E-03
 -1      2593 2.12656E-15 3.67633E-02-7.10950E-03
 -1      2594 2.49963E-05 3.67596E-02-7.10819E-03
 -1      2595 2.05764E-15 3.46206E-02-7.02216E-03
 -1      2596 2.20514E-15 3.67920E-02-9.05295E-03
 -1      2597 2.30371E-15 4.11160E-02-7.23648E-03
 -1      2598 1.49872E-05 4.11135E-02-7.23517E-03
 -1      2599 2.21586E-15 3.89298E-02-7.18093E-03
 -1      2600 2.38426E-15 4.11335E-02-9.21962E-03
 -1      2601 2.46632E-15 4.55322E-02-7.29994E-03
 -1      2602 4.99300E-06 4.55309E-02-7.29863E-03
 -1      2603 2.38733E-15 4.33181E-02-7.27615E-03
 -1      2604 2.53195E-15 4.55384E-02-9.30689E-03
 -1      2605 2.59226E-15 4.99800E-02-7.29990E-03
 -1      2606-4.99462E-06 4.99800E-02-7.29858E-03
 -1      2607 2.53550E-15 4.77541E-02-7.30785E-03
 -1      2608 2.69202E-15 4.99750E-02-9.31478E-03
 -1      2609 2.71544E-15 5.44279E-02-7.23636E-03
 -1      2610-1.49829E-05 5.44291E-02-7.23504E-03
 -1      2611 2.66387E-15 5.22059E-02-7.27606E-03
 -1      2612 2.77569E-15 5.44117E-02-9.24330E-03
 -1      2613 2.80370E-15 5.88440E-02-7.10931E-03
 -1      2614-2.49793E-05 5.88465E-02-7.10800E-03
 -1      2615 2.75812E-15 5.66419E-02-7.18077E-03
 -1      2616 2.83211E-15 5.88166E-02-9.09245E-03
 -1      2617 2.86824E-15 6.31967E-02-6.91874E-03
 -1      2618-3.49934E-05 6.32004E-02-6.91743E-03
 -1      2619 2.83976E-15 6.10303E-02-7.02197E-03
 -1      2620 2.89213E-15 6.31581E-02-8.86218E-03
 -1      2621 2.88185E-15 6.74543E-02-6.66456E-03
 -1      2622-4.50378E-05 6.74593E-02-6.66327E-03
 -1      2623 2.86576E-15 6.53394E-02-6.79960E-03
 -1      2624 2.88283E-15 6.74044E-02-8.55243E-03
 -1      2625 2.86540E-15 7.15852E-02-6.34666E-03
 -1      2626-5.51284E-05 7.15913E-02-6.34541E-03
 -1      2627 2.88262E-15 6.95376E-02-6.51358E-03
 -1      2628 2.87313E-15 7.15241E-02-8.16305E-03
 -1      2629 2.80965E-15 7.55577E-02-5.96482E-03
 -1      2630-6.52801E-05 7.55651E-02-5.96364E-03
 -1      2631 2.83924E-15 7.35932E-02-6.16375E-03
 -1      2632 2.79644E-15 7.54853E-02-7.69379E-03
 -1      2633 2.68039E-15 7.93406E-02-5.51869E-03
 -1      2634-7.54932E-05 7.93491E-02-5.51762E-03
 -1      2635 2.74175E-15 7.74748E-02-5.74983E-03
 -1      2636 2.65199E-15 7.92568E-02-7.14425E-03
 -1      2637 2.51145E-15 8.29028E-02-5.00767E-03
 -1      2638-8.57188E-05 8.29123E-02-5.00680E-03
 -1      2639 2.60501E-15 8.11512E-02-5.27135E-03
 -1      2640 2.50020E-15 8.28074E-02-6.51379E-03
 -1      2641 2.22711E-15 8.62136E-02-4.43086E-03
 -1      2642-9.57786E-05 8.62239E-02-4.43031E-03
 -1      2643 2.37347E-15 8.45914E-02-4.72758E-03
 -1      2644 2.22237E-15 8.61063E-02-5.80146E-03
 -1      2645 1.92216E-15 8.92435E-02-3.78698E-03
 -1      2646-1.05196E-04 8.92544E-02-3.78691E-03
 -1      2647 2.07247E-15 8.77654E-02-4.11741E-03
 -1      2648 1.90092E-15 8.91235E-02-5.00606E-03
 -1      2649 1.52737E-15 9.19643E-02-3.07470E-03
 -1      2650-1.12865E-04 9.19754E-02-3.07525E-03
 -1      2651 1.71747E-15 9.06441E-02-3.43950E-03
 -1      2652 1.53540E-15 9.18304E-02-4.12641E-03
 -1      2653 1.15926E-15 9.43510E-02-2.29356E-03
 -1      2654-1.16445E-04 9.43615E-02-2.29473E-03
 -1      2655 1.35135E-15 9.32008E-02-2.69263E-03
 -1      2656 1.13870E-15 9.42017E-02-3.16271E-03
 -1      2657 7.99964E-16 9.63820E-02-1.44942E-03
 -1      2658-1.11676E-04 9.63911E-02-1.45095E-03
 -1      2659 9.76773E-16 9.54118E-02-1.87867E-03
 -1      2660 7.71452E-16 9.62186E-02-2.11869E-03
 -1      2661 5.26883E-16 9.80443E-02-5.61912E-04
 -1      2662-9.25856E-05 9.80510E-02-5.63092E-04
 -1      2663 6.42189E-16 9.72607E-02-1.00709E-03
 -1      2664 4.91118E-16 9.78779E-02-1.01557E-03
 -1      2665 2.34167E-16 9.93017E-02 2.96842E-04
 -1      2666-5.43232E-05 9.93051E-02 2.96421E-04
 -1      2667 3.84132E-16 9.87252E-02-1.22548E-04
 -1      2668 2.44775E-16 9.91801E-02 8.36811E-05
 -1      2669 0.00000E+00 1.00000E-01 1.00000E-03
 -1      2670 0.00000E+00 1.00000E-01 1.00000E-03
 -1      2671 9.89733E-17 9.97380E-02 6.69522E-04
 -1      2672 0.00000E+00 1.00000E-01 1.00000E-03
 -1      2673 0.00000E+00 0.00000E+00 0.00000E+00
 -1      2674-1.02870E-04 6.66791E-04-6.58360E-04
 -1      2675 0.00000E+00 0.00000E+00 0.00000E+00
 -1      2676-5.03816E-05 6.77236E-04-6.57337E-04
 -1      2677 0.00000E+00 0.00000E+00 0.00000E+00
 -1      2678-5.39271E-05 2.46250E-04-3.08548E-04
 -1      2679-1.28742E-04 7.81255E-04-8.70000E-04
 -1      2680-1.73595E-04 1.89774E-03-1.46294E-03
 -1      2681-8.54937E-05 1.91821E-03-1.45929E-03
 -1      2682-1.42731E-04 1.22896E-03-1.05131E-03
 -1      2683-2.16701E-04 2.05330E-03-1.91441E-03
 -1      2684-2.06858E-04 3.54336E-03-2.28818E-03
 -1      2685-1.02661E-04 3.57118E-03-2.28400E-03
 -1      2686-1.94253E-04 2.67184E-03-1.87772E-03
 -1      2687-2.58441E-04 3.69501E-03-2.95576E-03
 -1      2688-2.13651E-04 5.56600E-03-3.06578E-03
 -1      2689-1.06509E-04 5.59800E-03-3.06286E-03
 -1      2690-2.12870E-04 4.50851E-03-2.68454E-03
 -1      2691-2.67563E-04 5.70378E-03-3.93378E-03
 -1      2692-2.05347E-04 7.94989E-03-3.77911E-03
 -1      2693-1.02604E-04 7.98338E-03-3.77817E-03
 -1      2694-2.10805E-04 6.71429E-03-3.43097E-03
 -1      2695-2.57819E-04 8.07267E-03-4.83009E-03
 -1      2696-1.89740E-04 1.06714E-02-4.42404E-03
 -1      2697-9.48916E-05 1.07044E-02-4.42493E-03
 -1      2698-1.98140E-04 9.27007E-03-4.11012E-03
 -1      2699-2.38802E-04 1.07807E-02-5.64259E-03
 -1      2700-1.70982E-04 1.37039E-02-5.00162E-03
 -1      2701-8.55328E-05 1.37352E-02-5.00382E-03
 -1      2702-1.80602E-04 1.21506E-02-4.72120E-03
 -1      2703-2.15690E-04 1.38008E-02-6.37178E-03
 -1      2704-1.51026E-04 1.70186E-02-5.51308E-03
 -1      2705-7.55508E-05 1.70472E-02-5.51616E-03
 -1      2706-1.61085E-04 1.53279E-02-5.26556E-03
 -1      2707-1.90960E-04 1.71037E-02-7.01878E-03
 -1      2708-1.30728E-04 2.05851E-02-5.95945E-03
 -1      2709-6.53913E-05 2.06106E-02-5.96306E-03
 -1      2710-1.40892E-04 1.87723E-02-5.74436E-03
 -1      2711-1.65720E-04 2.06587E-02-7.58460E-03
 -1      2712-1.10415E-04 2.43727E-02-6.34139E-03
 -1      2713-5.52253E-05 2.43948E-02-6.34531E-03
 -1      2714-1.20564E-04 2.24532E-02-6.15845E-03
 -1      2715-1.40409E-04 2.44350E-02-8.06993E-03
 -1      2716-9.01861E-05 2.83501E-02-6.65931E-03
 -1      2717-4.51038E-05 2.83686E-02-6.66340E-03
 -1      2718-1.00288E-04 2.63396E-02-6.50833E-03
 -1      2719-1.15170E-04 2.84012E-02-8.47526E-03
 -1      2720-7.00496E-05 3.24858E-02-6.91345E-03
 -1      2721-3.50310E-05 3.25007E-02-6.91763E-03
 -1      2722-8.01071E-05 3.04001E-02-6.79434E-03
 -1      2723-9.00263E-05 3.25257E-02-8.80088E-03
 -1      2724-4.99859E-05 3.67484E-02-7.10397E-03
 -1      2725-2.49963E-05 3.67596E-02-7.10819E-03
 -1      2726-6.00100E-05 3.46032E-02-7.01666E-03
 -1      2727-6.49620E-05 3.67770E-02-9.04697E-03
 -1      2728-2.99709E-05 4.11061E-02-7.23092E-03
 -1      2729-1.49872E-05 4.11135E-02-7.23517E-03
 -1      2730-3.99736E-05 3.89173E-02-7.17538E-03
 -1      2731-3.99521E-05 4.11235E-02-9.21360E-03
 -1      2732-9.98456E-06 4.55272E-02-7.29437E-03
 -1      2733-4.99300E-06 4.55309E-02-7.29863E-03
 -1      2734-1.99752E-05 4.33107E-02-7.27058E-03
 -1      2735-1.49742E-05 4.55334E-02-9.30085E-03
 -1      2736 9.98924E-06 4.99800E-02-7.29432E-03
 -1      2737 4.99462E-06 4.99800E-02-7.29858E-03
 -1      2738 3.04518E-09 4.77516E-02-7.30227E-03
 -1      2739 9.98938E-06 4.99750E-02-9.30874E-03
 -1      2740 2.99642E-05 5.44329E-02-7.23078E-03
 -1      2741 1.49829E-05 5.44291E-02-7.23504E-03
 -1      2742 1.99757E-05 5.22084E-02-7.27048E-03
 -1      2743 3.49542E-05 5.44166E-02-9.23727E-03
 -1      2744 4.99549E-05 5.88540E-02-7.10375E-03
 -1      2745 2.49793E-05 5.88465E-02-7.10800E-03
 -1      2746 3.99565E-05 5.66494E-02-7.17520E-03
 -1      2747 5.99364E-05 5.88265E-02-9.08643E-03
 -1      2748 6.99792E-05 6.32116E-02-6.91321E-03
 -1      2749 3.49934E-05 6.32004E-02-6.91743E-03
 -1      2750 5.99614E-05 6.10427E-02-7.01642E-03
 -1      2751 8.49559E-05 6.31730E-02-8.85620E-03
 -1      2752 9.00616E-05 6.74741E-02-6.65909E-03
 -1      2753 4.50378E-05 6.74593E-02-6.66327E-03
 -1      2754 8.00112E-05 6.53568E-02-6.79410E-03
 -1      2755 1.10039E-04 6.74243E-02-8.54652E-03
 -1      2756 1.10232E-04 7.16099E-02-6.34133E-03
 -1      2757 5.51284E-05 7.15913E-02-6.34541E-03
 -1      2758 1.00134E-04 6.95598E-02-6.50818E-03
 -1      2759 1.35216E-04 7.15488E-02-8.15729E-03
 -1      2760 1.30519E-04 7.55872E-02-5.95975E-03
 -1      2761 6.52801E-05 7.55651E-02-5.96364E-03
 -1      2762 1.20359E-04 7.36203E-02-6.15853E-03
 -1      2763 1.60512E-04 7.55148E-02-7.68832E-03
 -1      2764 1.50922E-04 7.93746E-02-5.51407E-03
 -1      2765 7.54932E-05 7.93491E-02-5.51762E-03
 -1      2766 1.40708E-04 7.75066E-02-5.74495E-03
 -1      2767 1.85911E-04 7.92909E-02-7.13930E-03
 -1      2768 1.71347E-04 8.29409E-02-5.00383E-03
 -1      2769 8.57188E-05 8.29123E-02-5.00680E-03
 -1      2770 1.61145E-04 8.11873E-02-5.26707E-03
 -1      2771 2.11273E-04 8.28457E-02-6.50972E-03
 -1      2772 1.91453E-04 8.62552E-02-4.42829E-03
 -1      2773 9.57786E-05 8.62239E-02-4.43031E-03
 -1      2774 1.81480E-04 8.46314E-02-4.72430E-03
 -1      2775 2.36143E-04 8.61482E-02-5.79883E-03
 -1      2776 2.10324E-04 8.92875E-02-3.78634E-03
 -1      2777 1.05196E-04 8.92544E-02-3.78691E-03
 -1      2778 2.01141E-04 8.78084E-02-4.11573E-03
 -1      2779 2.59353E-04 8.91680E-02-5.00557E-03
 -1      2780 2.25854E-04 9.20089E-02-3.07666E-03
 -1      2781 1.12865E-04 9.19754E-02-3.07525E-03
 -1      2782 2.18726E-04 9.06887E-02-3.44010E-03
 -1      2783 2.78267E-04 9.18760E-02-4.12878E-03
 -1      2784 2.33547E-04 9.43936E-02-2.29828E-03
 -1      2785 1.16445E-04 9.43615E-02-2.29473E-03
 -1      2786 2.31106E-04 9.32448E-02-2.69602E-03
 -1      2787 2.87366E-04 9.42457E-02-3.16803E-03
 -1      2788 2.24985E-04 9.64191E-02-1.45581E-03
 -1      2789 1.11676E-04 9.63911E-02-1.45095E-03
 -1      2790 2.32081E-04 9.54522E-02-1.88453E-03
 -1      2791 2.76447E-04 9.62575E-02-2.12567E-03
 -1      2792 1.87967E-04 9.80716E-02-5.67277E-04
 -1      2793 9.25856E-05 9.80510E-02-5.63092E-04
 -1      2794 2.10795E-04 9.72934E-02-1.01329E-03
 -1      2795 2.30950E-04 9.79069E-02-1.02117E-03
 -1      2796 1.10909E-04 9.93156E-02 2.95198E-04
 -1      2797 5.43232E-05 9.93051E-02 2.96421E-04
 -1      2798 1.54217E-04 9.87460E-02-1.25669E-04
 -1      2799 1.36701E-04 9.91950E-02 8.22723E-05
 -1      2800 0.00000E+00 1.00000E-01 1.00000E-03
 -1      2801 0.00000E+00 1.00000E-01 1.00000E-03
 -1      2802 5.80199E-05 9.97447E-02 6.69805E-04
 -1      2803 0.00000E+00 1.00000E-01 1.00000E-03
 -1      2804 0.00000E+00 0.00000E+00 0.00000E+00
 -1      2805-2.21609E-04 6.20508E-04-6.64435E-04
 -1      2806 0.00000E+00 0.00000E+00 0.00000E+00
 -1      2807-1.58454E-04 6.48664E-04-6.59986E-04
 -1      2808 0.00000E+00 0.00000E+00 0.00000E+00
 -1      2809-1.16977E-04 2.22911E-04-3.11590E-04
 -1      2810-2.77111E-04 7.32144E-04-8.76308E-04
 -1      2811-3.66235E-04 1.80932E-03-1.48118E-03
 -1      2812-2.65850E-04 1.86242E-03-1.46937E-03
 -1      2813-3.07648E-04 1.16018E-03-1.06504E-03
 -1      2814-4.56969E-04 1.95937E-03-1.93460E-03
 -1      2815-4.25621E-04 3.42587E-03-2.30720E-03
 -1      2816-3.14285E-04 3.49577E-03-2.29558E-03
 -1      2817-4.04539E-04 2.56724E-03-1.89776E-03
 -1      2818-5.31796E-04 3.57222E-03-2.97730E-03
 -1      2819-4.31695E-04 5.43318E-03-3.07634E-03
 -1      2820-3.22121E-04 5.51172E-03-3.07051E-03
 -1      2821-4.33297E-04 4.38177E-03-2.69996E-03
 -1      2822-5.40896E-04 5.56708E-03-3.94603E-03
 -1      2823-4.11621E-04 7.81257E-03-3.78042E-03
 -1      2824-3.08415E-04 7.89340E-03-3.78019E-03
 -1      2825-4.23906E-04 6.57805E-03-3.43683E-03
 -1      2826-5.17097E-04 7.93288E-03-4.83206E-03
 -1      2827-3.79120E-04 1.05372E-02-4.41790E-03
 -1      2828-2.84550E-04 1.06159E-02-4.42208E-03
 -1      2829-3.96373E-04 9.13352E-03-4.10743E-03
 -1      2830-4.77393E-04 1.06450E-02-5.63616E-03
 -1      2831-3.41326E-04 1.35777E-02-4.99033E-03
 -1      2832-2.56288E-04 1.36516E-02-4.99748E-03
 -1      2833-3.60631E-04 1.20199E-02-4.71220E-03
 -1      2834-4.30742E-04 1.36738E-02-6.35950E-03
 -1      2835-3.01490E-04 1.69033E-02-5.49853E-03
 -1      2836-2.26367E-04 1.69707E-02-5.50754E-03
 -1      2837-3.21547E-04 1.52068E-02-5.25243E-03
 -1      2838-3.81317E-04 1.69880E-02-7.00278E-03
 -1      2839-2.61051E-04 2.04827E-02-5.94295E-03
 -1      2840-1.95964E-04 2.05425E-02-5.95306E-03
 -1      2841-2.81299E-04 1.86633E-02-5.72870E-03
 -1      2842-3.30993E-04 2.05561E-02-7.56636E-03
 -1      2843-2.20567E-04 2.42840E-02-6.32379E-03
 -1      2844-1.65538E-04 2.43358E-02-6.33451E-03
 -1      2845-2.40798E-04 2.23576E-02-6.14131E-03
 -1      2846-2.80523E-04 2.43463E-02-8.05043E-03
 -1      2847-1.80213E-04 2.82758E-02-6.64110E-03
 -1      2848-1.35227E-04 2.83192E-02-6.65216E-03
 -1      2849-2.00371E-04 2.62581E-02-6.49038E-03
 -1      2850-2.30160E-04 2.83269E-02-8.45507E-03
 -1      2851-1.40008E-04 3.24263E-02-6.89493E-03
 -1      2852-1.05045E-04 3.24610E-02-6.90616E-03
 -1      2853-1.60093E-04 3.03332E-02-6.77595E-03
 -1      2854-1.79949E-04 3.24661E-02-8.78033E-03
 -1      2855-9.99221E-05 3.67036E-02-7.08529E-03
 -1      2856-7.49624E-05 3.67297E-02-7.09660E-03
 -1      2857-1.19952E-04 3.45511E-02-6.99804E-03
 -1      2858-1.29867E-04 3.67323E-02-9.02623E-03
 -1      2859-5.99167E-05 4.10762E-02-7.21217E-03
 -1      2860-4.49480E-05 4.10936E-02-7.22352E-03
 -1      2861-7.99114E-05 3.88800E-02-7.15666E-03
 -1      2862-7.98753E-05 4.10936E-02-9.19278E-03
 -1      2863-1.99586E-05 4.55122E-02-7.27558E-03
 -1      2864-1.49733E-05 4.55210E-02-7.28695E-03
 -1      2865-3.99334E-05 4.32883E-02-7.25180E-03
 -1      2866-2.99364E-05 4.55185E-02-9.27999E-03
 -1      2867 1.99786E-05 4.99800E-02-7.27552E-03
 -1      2868 1.49839E-05 4.99800E-02-7.28690E-03
 -1      2869 1.11759E-08 4.77442E-02-7.28348E-03
 -1      2870 1.99789E-05 4.99750E-02-9.28787E-03
 -1      2871 5.99176E-05 5.44478E-02-7.21199E-03
 -1      2872 4.49427E-05 5.44391E-02-7.22336E-03
 -1      2873 3.99464E-05 5.22159E-02-7.25168E-03
 -1      2874 6.98961E-05 5.44316E-02-9.21641E-03
 -1      2875 9.98825E-05 5.88838E-02-7.08499E-03
 -1      2876 7.49232E-05 5.88664E-02-7.09635E-03
 -1      2877 7.98951E-05 5.66718E-02-7.15642E-03
 -1      2878 1.19842E-04 5.88564E-02-9.06560E-03
 -1      2879 1.39903E-04 6.32564E-02-6.89452E-03
 -1      2880 1.04951E-04 6.32303E-02-6.90584E-03
 -1      2881 1.19884E-04 6.10800E-02-6.99769E-03
 -1      2882 1.69850E-04 6.32178E-02-8.83546E-03
 -1      2883 1.80020E-04 6.75337E-02-6.64058E-03
 -1      2884 1.35058E-04 6.74990E-02-6.65180E-03
 -1      2885 1.59946E-04 6.54090E-02-6.77548E-03
 -1      2886 2.19962E-04 6.74839E-02-8.52598E-03
 -1      2887 2.20280E-04 7.16841E-02-6.32315E-03
 -1      2888 1.65288E-04 7.16408E-02-6.33419E-03
 -1      2889 2.00128E-04 6.96268E-02-6.48980E-03
 -1      2890 2.70227E-04 7.16231E-02-8.13713E-03
 -1      2891 2.60729E-04 7.56758E-02-5.94222E-03
 -1      2892 1.95678E-04 7.56240E-02-5.95290E-03
 -1      2893 2.40479E-04 7.37018E-02-6.14062E-03
 -1      2894 3.20684E-04 7.56036E-02-7.66890E-03
 -1      2895 3.01362E-04 7.94770E-02-5.49775E-03
 -1      2896 2.26229E-04 7.94172E-02-5.50776E-03
 -1      2897 2.81027E-04 7.76022E-02-5.72793E-03
 -1      2898 3.71298E-04 7.93936E-02-7.12124E-03
 -1      2899 3.42012E-04 8.30561E-02-4.98963E-03
 -1      2900 2.56808E-04 8.29887E-02-4.99845E-03
 -1      2901 3.21708E-04 8.12963E-02-5.25166E-03
 -1      2902 4.21822E-04 8.29614E-02-6.49407E-03
 -1      2903 3.82103E-04 8.63815E-02-4.41765E-03
 -1      2904 2.86941E-04 8.63076E-02-4.42444E-03
 -1      2905 3.62194E-04 8.47525E-02-4.71166E-03
 -1      2906 4.71481E-04 8.62754E-02-5.78719E-03
 -1      2907 4.20103E-04 8.94219E-02-3.78130E-03
 -1      2908 3.15370E-04 8.93430E-02-3.78487E-03
 -1      2909 4.01528E-04 8.79392E-02-4.10759E-03
 -1      2910 5.18299E-04 8.93039E-02-5.00024E-03
 -1      2911 4.52513E-04 9.21465E-02-3.07971E-03
 -1      2912 3.39143E-04 9.20656E-02-3.07849E-03
 -1      2913 4.37375E-04 9.08255E-02-3.43881E-03
 -1      2914 5.57850E-04 9.20161E-02-4.13247E-03
 -1      2915 4.71623E-04 9.45269E-02-2.31127E-03
 -1      2916 3.52026E-04 9.44481E-02-2.30405E-03
 -1      2917 4.64481E-04 9.33814E-02-2.70397E-03
 -1      2918 5.80602E-04 9.43830E-02-3.18269E-03
 -1      2919 4.62623E-04 9.65371E-02-1.47774E-03
 -1      2920 3.41729E-04 9.64669E-02-1.46437E-03
 -1      2921 4.72113E-04 9.55794E-02-1.90269E-03
 -1      2922 5.68495E-04 9.63810E-02-2.15010E-03
 -1      2923 3.96340E-04 9.81606E-02-5.87962E-04
 -1      2924 2.87797E-04 9.81072E-02-5.74640E-04
 -1      2925 4.38721E-04 9.73986E-02-1.03614E-03
 -1      2926 4.86758E-04 9.80016E-02-1.04381E-03
 -1      2927 2.38860E-04 9.93622E-02 2.88151E-04
 -1      2928 1.70819E-04 9.93339E-02 2.93236E-04
 -1      2929 3.32248E-04 9.88152E-02-1.41226E-04
 -1      2930 2.94160E-04 9.92446E-02 7.49549E-05
 -1      2931 0.00000E+00 1.00000E-01 1.00000E-03
 -1      2932 0.00000E+00 1.00000E-01 1.00000E-03
 -1      2933 1.25829E-04 9.97682E-02 6.66268E-04
 -1      2934 0.00000E+00 1.00000E-01 1.00000E-03
 -1      2935 0.00000E+00 0.00000E+00 0.00000E+00
 -1      2936-4.02904E-04 5.18971E-04-7.10921E-04
 -1      2937 0.00000E+00 0.00000E+00 0.00000E+00
 -1      2938-3.00094E-04 5.79302E-04-6.76789E-04
 -1      2939 0.00000E+00 0.00000E+00 0.00000E+00
 -1      2940-2.06426E-04 1.74031E-04-3.18300E-04
 -1      2941-5.03340E-04 6.24874E-04-9.32427E-04
 -1      2942-5.95732E-04 1.63483E-03-1.53136E-03
 -1      2943-4.77115E-04 1.73548E-03-1.50249E-03
 -1      2944-5.20375E-04 1.01856E-03-1.11742E-03
 -1      2945-7.43156E-04 1.77645E-03-1.99383E-03
 -1      2946-6.59143E-04 3.20563E-03-2.34127E-03
 -1      2947-5.40979E-04 3.33084E-03-2.32222E-03
 -1      2948-6.39777E-04 2.36610E-03-1.94356E-03
 -1      2949-8.24178E-04 3.34446E-03-3.01731E-03
 -1      2950-6.53461E-04 5.19381E-03-3.08663E-03
 -1      2951-5.42695E-04 5.32822E-03-3.08264E-03
 -1      2952-6.61833E-04 4.14916E-03-2.72173E-03
 -1      2953-8.19649E-04 5.32271E-03-3.95796E-03
 -1      2954-6.17449E-04 7.57166E-03-3.77224E-03
 -1      2955-5.14837E-04 7.70598E-03-3.77852E-03
 -1      2956-6.38024E-04 6.33610E-03-3.43708E-03
 -1      2957-7.76481E-04 7.68894E-03-4.82252E-03
 -1      2958-5.67009E-04 1.03059E-02-4.39735E-03
 -1      2959-4.73385E-04 1.04342E-02-4.41031E-03
 -1      2960-5.93396E-04 8.89632E-03-4.09233E-03
 -1      2961-7.14577E-04 1.04120E-02-5.61226E-03
 -1      2962-5.10243E-04 1.33628E-02-4.96213E-03
 -1      2963-4.26023E-04 1.34817E-02-4.97909E-03
 -1      2964-5.39123E-04 1.17961E-02-4.68732E-03
 -1      2965-6.44306E-04 1.34580E-02-6.32672E-03
 -1      2966-4.50891E-04 1.67087E-02-5.46586E-03
 -1      2967-3.76351E-04 1.68161E-02-5.48510E-03
 -1      2968-4.80753E-04 1.50017E-02-5.22167E-03
 -1      2969-5.70522E-04 1.67929E-02-6.96480E-03
 -1      2970-3.90670E-04 2.03105E-02-5.90778E-03
 -1      2971-3.25960E-04 2.04054E-02-5.92827E-03
 -1      2972-4.20831E-04 1.84797E-02-5.69458E-03
 -1      2973-4.95488E-04 2.03837E-02-7.52548E-03
 -1      2974-3.30287E-04 2.41356E-02-6.28726E-03
 -1      2975-2.75486E-04 2.42173E-02-6.30842E-03
 -1      2976-3.60477E-04 2.21972E-02-6.10535E-03
 -1      2977-4.20153E-04 2.41977E-02-8.00798E-03
 -1      2978-2.69988E-04 2.81517E-02-6.60388E-03
 -1      2979-2.25133E-04 2.82200E-02-6.62538E-03
 -1      2980-3.00121E-04 2.61218E-02-6.45344E-03
 -1      2981-3.44865E-04 2.82027E-02-8.41182E-03
 -1      2982-2.09826E-04 3.23268E-02-6.85737E-03
 -1      2983-1.74935E-04 3.23815E-02-6.87903E-03
 -1      2984-2.39890E-04 3.02213E-02-6.73852E-03
 -1      2985-2.69713E-04 3.23666E-02-8.73668E-03
 -1      2986-1.49784E-04 3.66289E-02-7.04756E-03
 -1      2987-1.24862E-04 3.66700E-02-7.06929E-03
 -1      2988-1.79792E-04 3.44639E-02-6.96038E-03
 -1      2989-1.94688E-04 3.66576E-02-8.98239E-03
 -1      2990-8.98254E-05 4.10264E-02-7.17437E-03
 -1      2991-7.48754E-05 4.10538E-02-7.19613E-03
 -1      2992-1.19796E-04 3.88177E-02-7.11889E-03
 -1      2993-1.19757E-04 4.10438E-02-9.14886E-03
 -1      2994-2.99172E-05 4.54873E-02-7.23775E-03
 -1      2995-2.49397E-05 4.55010E-02-7.25953E-03
 -1      2996-5.98668E-05 4.32509E-02-7.21399E-03
 -1      2997-4.48811E-05 4.54935E-02-9.23604E-03
 -1      2998 2.99683E-05 4.99800E-02-7.23768E-03
 -1      2999 2.49734E-05 4.99800E-02-7.25946E-03
 -1      3000 2.68201E-08 4.77317E-02-7.24564E-03
 -1      3001 2.99688E-05 4.99750E-02-9.24391E-03
 -1      3002 8.98559E-05 5.44727E-02-7.17416E-03
 -1      3003 7.48885E-05 5.44590E-02-7.19594E-03
 -1      3004 5.99103E-05 5.22284E-02-7.21385E-03
 -1      3005 1.04821E-04 5.44565E-02-9.17245E-03
 -1      3006 1.49771E-04 5.89337E-02-7.04719E-03
 -1      3007 1.24831E-04 5.89062E-02-7.06895E-03
 -1      3008 1.19808E-04 5.67091E-02-7.11860E-03
 -1      3009 1.79704E-04 5.89062E-02-9.02168E-03
 -1      3010 2.09746E-04 6.33311E-02-6.85679E-03
 -1      3011 1.74834E-04 6.32900E-02-6.87853E-03
 -1      3012 1.79749E-04 6.11423E-02-6.95991E-03
 -1      3013 2.54652E-04 6.32925E-02-8.79162E-03
 -1      3014 2.69821E-04 6.76332E-02-6.60301E-03
 -1      3015 2.24940E-04 6.75785E-02-6.62467E-03
 -1      3016 2.39768E-04 6.54961E-02-6.73781E-03
 -1      3017 3.29709E-04 6.75834E-02-8.48232E-03
 -1      3018 3.30041E-04 7.18083E-02-6.28594E-03
 -1      3019 2.75197E-04 7.17399E-02-6.30744E-03
 -1      3020 2.99910E-04 6.97386E-02-6.45237E-03
 -1      3021 4.04919E-04 7.17473E-02-8.09389E-03
 -1      3022 3.90440E-04 7.58242E-02-5.90575E-03
 -1      3023 3.25651E-04 7.57425E-02-5.92689E-03
 -1      3024 3.60218E-04 7.38381E-02-6.10372E-03
 -1      3025 4.80304E-04 7.57521E-02-7.62651E-03
 -1      3026 4.50981E-04 7.96492E-02-5.46273E-03
 -1      3027 3.76285E-04 7.95543E-02-5.48316E-03
 -1      3028 4.20701E-04 7.77626E-02-5.69206E-03
 -1      3029 5.55788E-04 7.95660E-02-7.08052E-03
 -1      3030 5.11425E-04 8.32508E-02-4.95731E-03
 -1      3031 4.26903E-04 8.31434E-02-4.97640E-03
 -1      3032 4.81245E-04 8.14799E-02-5.21777E-03
 -1      3033 6.31027E-04 8.31566E-02-6.45645E-03
 -1      3034 5.71046E-04 8.65965E-02-4.39016E-03
 -1      3035 4.76850E-04 8.64776E-02-4.40678E-03
 -1      3036 5.41420E-04 8.49577E-02-4.68139E-03
 -1      3037 7.05043E-04 8.64913E-02-5.75513E-03
 -1      3038 6.28029E-04 8.96532E-02-3.76206E-03
 -1      3039 5.24441E-04 8.95249E-02-3.77439E-03
 -1      3040 6.00054E-04 8.81631E-02-4.08367E-03
 -1      3041 7.75466E-04 8.95371E-02-4.97765E-03
 -1      3042 6.78374E-04 9.23877E-02-3.07378E-03
 -1      3043 5.65807E-04 9.22533E-02-3.07893E-03
 -1      3044 6.54437E-04 9.10628E-02-3.42544E-03
 -1      3045 8.37168E-04 9.22604E-02-4.12519E-03
 -1      3046 7.13359E-04 9.47666E-02-2.32514E-03
 -1      3047 5.92660E-04 9.46321E-02-2.31930E-03
 -1      3048 6.98612E-04 9.36236E-02-2.70710E-03
 -1      3049 8.79154E-04 9.46278E-02-3.19819E-03
 -1      3050 7.15853E-04 9.67579E-02-1.51691E-03
 -1      3051 5.87766E-04 9.66325E-02-1.49501E-03
 -1      3052 7.20539E-04 9.58125E-02-1.92881E-03
 -1      3053 8.80322E-04 9.66095E-02-2.19517E-03
 -1      3054 6.44215E-04 9.83356E-02-6.43803E-04
 -1      3055 5.16130E-04 9.82347E-02-6.11700E-04
 -1      3056 6.93265E-04 9.76003E-02-1.08764E-03
 -1      3057 7.91010E-04 9.81854E-02-1.10869E-03
 -1      3058 4.34048E-04 9.94641E-02 2.37239E-04
 -1      3059 3.23377E-04 9.94036E-02 2.74473E-04
 -1      3060 5.61617E-04 9.89573E-02-1.98967E-04
 -1      3061 5.34071E-04 9.93524E-02 1.43926E-05
 -1      3062 0.00000E+00 1.00000E-01 1.00000E-03
 -1      3063 0.00000E+00 1.00000E-01 1.00000E-03
 -1      3064 2.22019E-04 9.98173E-02 6.58571E-04
 -1      3065 0.00000E+00 1.00000E-01 1.00000E-03
 -1      3066 0.00000E+00 0.00000E+00 0.00000E+00
 -1      3067-6.52550E-04 3.03154E-04-8.89738E-04
 -1      3068 0.00000E+00 0.00000E+00 0.00000E+00
 -1      3069-5.07683E-04 4.38836E-04-7.54961E-04
 -1      3070 0.00000E+00 0.00000E+00 0.00000E+00
 -1      3071-4.32896E-04 4.02054E-05-4.62139E-04
 -1      3072-8.20093E-04 4.09916E-04-1.15471E-03
 -1      3073-8.44995E-04 1.31469E-03-1.63244E-03
 -1      3074-7.27813E-04 1.49839E-03-1.58110E-03
 -1      3075-7.83125E-04 7.41569E-04-1.26923E-03
 -1      3076-1.05668E-03 1.45525E-03-2.11966E-03
 -1      3077-8.91431E-04 2.84197E-03-2.36813E-03
 -1      3078-7.76605E-04 3.04530E-03-2.35947E-03
 -1      3079-8.79617E-04 2.01819E-03-2.00260E-03
 -1      3080-1.11717E-03 2.97890E-03-3.05117E-03
 -1      3081-8.69821E-04 4.82189E-03-3.07338E-03
 -1      3082-7.63336E-04 5.02633E-03-3.08546E-03
 -1      3083-8.85533E-04 3.77810E-03-2.72624E-03
 -1      3084-1.09359E-03 4.94947E-03-3.94204E-03
 -1      3085-8.18660E-04 7.21137E-03-3.73484E-03
 -1      3086-7.18907E-04 7.40754E-03-3.75882E-03
 -1      3087-8.46908E-04 5.96811E-03-3.40999E-03
 -1      3088-1.03120E-03 7.32792E-03-4.77681E-03
 -1      3089-7.51571E-04 9.96836E-03-4.34675E-03
 -1      3090-6.59826E-04 1.01510E-02-4.37687E-03
 -1      3091-7.86384E-04 8.54638E-03-4.04734E-03
 -1      3092-9.48303E-04 1.00742E-02-5.55031E-03
 -1      3093-6.77014E-04 1.30540E-02-4.90442E-03
 -1      3094-5.93923E-04 1.32205E-02-4.93771E-03
 -1      3095-7.14889E-04 1.14724E-02-4.63258E-03
 -1      3096-8.55577E-04 1.31491E-02-6.25606E-03
 -1      3097-5.98982E-04 1.64319E-02-5.40450E-03
 -1      3098-5.25099E-04 1.65807E-02-5.43931E-03
 -1      3099-6.38247E-04 1.47086E-02-5.16181E-03
 -1      3100-7.58311E-04 1.65160E-02-6.88969E-03
 -1      3101-5.19529E-04 2.00672E-02-5.84463E-03
 -1      3102-4.55185E-04 2.01978E-02-5.88013E-03
 -1      3103-5.59344E-04 1.82194E-02-5.63215E-03
 -1      3104-6.59153E-04 2.01404E-02-7.44819E-03
 -1      3105-4.39583E-04 2.39265E-02-6.22329E-03
 -1      3106-3.84978E-04 2.40387E-02-6.25908E-03
 -1      3107-4.79576E-04 2.19709E-02-6.04170E-03
 -1      3108-5.59318E-04 2.39887E-02-7.92969E-03
 -1      3109-3.59536E-04 2.79773E-02-6.53956E-03
 -1      3110-3.14783E-04 2.80708E-02-6.57545E-03
 -1      3111-3.99555E-04 2.59300E-02-6.38925E-03
 -1      3112-4.59321E-04 2.80283E-02-8.33310E-03
 -1      3113-2.79528E-04 3.21872E-02-6.79291E-03
 -1      3114-2.44687E-04 3.22620E-02-6.82882E-03
 -1      3115-3.19521E-04 3.00643E-02-6.67411E-03
 -1      3116-3.59348E-04 3.22270E-02-8.65781E-03
 -1      3117-1.99588E-04 3.65242E-02-6.98306E-03
 -1      3118-1.74691E-04 3.65803E-02-7.01897E-03
 -1      3119-2.39548E-04 3.43418E-02-6.89589E-03
 -1      3120-2.59446E-04 3.65529E-02-8.90347E-03
 -1      3121-1.19707E-04 4.09566E-02-7.10986E-03
 -1      3122-1.04768E-04 4.09940E-02-7.14576E-03
 -1      3123-1.59641E-04 3.87305E-02-7.05438E-03
 -1      3124-1.59608E-04 4.09740E-02-9.06994E-03
 -1      3125-3.98651E-05 4.54524E-02-7.17325E-03
 -1      3126-3.48918E-05 4.54711E-02-7.20914E-03
 -1      3127-7.97823E-05 4.31985E-02-7.14948E-03
 -1      3128-5.98141E-05 4.54586E-02-9.15712E-03
 -1      3129 3.99590E-05 4.99800E-02-7.17318E-03
 -1      3130 3.49635E-05 4.99800E-02-7.20907E-03
 -1      3131 4.80598E-08 4.77142E-02-7.18114E-03
 -1      3132 3.99597E-05 4.99750E-02-9.16498E-03
 -1      3133 1.19785E-04 5.45076E-02-7.10965E-03
 -1      3134 1.04821E-04 5.44889E-02-7.14555E-03
 -1      3135 7.98704E-05 5.22458E-02-7.14934E-03
 -1      3136 1.39736E-04 5.44914E-02-9.09352E-03
 -1      3137 1.99634E-04 5.90035E-02-6.98267E-03
 -1      3138 1.74704E-04 5.89661E-02-7.01858E-03
 -1      3139 1.59705E-04 5.67615E-02-7.05409E-03
 -1      3140 2.39537E-04 5.89760E-02-8.94274E-03
 -1      3141 2.79530E-04 6.34358E-02-6.79227E-03
 -1      3142 2.44642E-04 6.33797E-02-6.82819E-03
 -1      3143 2.39574E-04 6.12296E-02-6.89539E-03
 -1      3144 3.39390E-04 6.33972E-02-8.71268E-03
 -1      3145 3.59498E-04 6.77728E-02-6.53852E-03
 -1      3146 3.14669E-04 6.76980E-02-6.57445E-03
 -1      3147 3.19502E-04 6.56182E-02-6.67330E-03
 -1      3148 4.39320E-04 6.77230E-02-8.40342E-03
 -1      3149 4.39556E-04 7.19827E-02-6.22158E-03
 -1      3150 3.84820E-04 7.18892E-02-6.25749E-03
 -1      3151 3.99512E-04 6.98956E-02-6.38793E-03
 -1      3152 5.39341E-04 7.19216E-02-8.01514E-03
 -1      3153 5.19683E-04 7.60333E-02-5.84174E-03
 -1      3154 4.55107E-04 7.59212E-02-5.87756E-03
 -1      3155 4.79610E-04 7.40299E-02-6.03948E-03
 -1      3156 6.39415E-04 7.59611E-02-7.54819E-03
 -1      3157 5.99753E-04 7.98925E-02-5.39955E-03
 -1      3158 5.25458E-04 7.97619E-02-5.43510E-03
 -1      3159 5.59732E-04 7.79889E-02-5.62838E-03
 -1      3160 7.39361E-04 7.98093E-02-7.00322E-03
 -1      3161 6.79372E-04 8.35276E-02-4.89600E-03
 -1      3162 5.95572E-04 8.33787E-02-4.93084E-03
 -1      3163 6.39646E-04 8.17401E-02-5.15535E-03
 -1      3164 8.38657E-04 8.34334E-02-6.38141E-03
 -1      3165 7.57579E-04 8.69052E-02-4.33269E-03
 -1      3166 6.64629E-04 8.67388E-02-4.36594E-03
 -1      3167 7.18726E-04 8.52507E-02-4.62166E-03
 -1      3168 9.36048E-04 8.68001E-02-5.68475E-03
 -1      3169 8.32220E-04 8.99906E-02-3.71214E-03
 -1      3170 7.30702E-04 8.98081E-02-3.74206E-03
 -1      3171 7.95516E-04 8.84866E-02-4.02935E-03
 -1      3172 1.02877E-03 8.98748E-02-4.91643E-03
 -1      3173 8.99051E-04 9.27477E-02-3.03790E-03
 -1      3174 7.89632E-04 9.25517E-02-3.06132E-03
 -1      3175 8.66968E-04 9.14126E-02-3.38148E-03
 -1      3176 1.11126E-03 9.26212E-02-4.08108E-03
 -1      3177 9.49032E-04 9.51381E-02-2.31503E-03
 -1      3178 8.33019E-04 9.49341E-02-2.32577E-03
 -1      3179 9.26874E-04 9.39913E-02-2.68221E-03
 -1      3180 1.17225E-03 9.50008E-02-3.18550E-03
 -1      3181 9.67551E-04 9.71210E-02-1.54957E-03
 -1      3182 8.43109E-04 9.69182E-02-1.53819E-03
 -1      3183 9.63529E-04 9.61831E-02-1.93765E-03
 -1      3184 1.19246E-03 9.69747E-02-2.23491E-03
 -1      3185 9.13303E-04 9.86552E-02-7.55609E-04
 -1      3186 7.86732E-04 9.84720E-02-6.98621E-04
 -1      3187 9.52640E-04 9.79476E-02-1.15462E-03
 -1      3188 1.12406E-03 9.85061E-02-1.24522E-03
 -1      3189 7.02931E-04 9.96796E-02 4.32032E-05
 -1      3190 5.46836E-04 9.95442E-02 1.89194E-04
 -1      3191 8.44890E-04 9.92339E-02-3.64725E-04
 -1      3192 8.70040E-04 9.95670E-02-2.22939E-04
 -1      3193 0.00000E+00 1.00000E-01 1.00000E-03
 -1      3194 0.00000E+00 1.00000E-01 1.00000E-03
 -1      3195 4.65672E-04 9.99510E-02 5.02987E-04
 -1      3196 0.00000E+00 1.00000E-01 1.00000E-03
 -1      3197 0.00000E+00 0.00000E+00 0.00000E+00
 -1      3198 3.15430E-04 1.95250E-04-4.15153E-04
 -1      3199 0.00000E+00 0.00000E+00 0.00000E+00
 -1      3200 1.95082E-04 4.12793E-04-3.28333E-04
 -1      3201 0.00000E+00 0.00000E+00 0.00000E+00
 -1      3202 2.06333E-04-1.40619E-05-2.15924E-04
 -1      3203 4.83851E-04 2.36205E-04-6.46267E-04
 -1      3204 0.00000E+00 0.00000E+00 0.00000E+00
 -1      3205 2.45656E-04 3.32591E-04-3.49367E-04
 -1      3206 0.00000E+00 0.00000E+00 0.00000E+00
 -1      3207 9.99046E-05 1.21024E-04-1.45645E-04
 -1      3208 2.99831E-04 4.53082E-04-5.13002E-04
 -1      3209 4.09450E-04 1.14533E-03-7.57167E-04
 -1      3210 2.89504E-04 1.46641E-03-7.08127E-04
 -1      3211 3.78912E-04 5.91414E-04-5.88302E-04
 -1      3212 6.28863E-04 1.21313E-03-1.18320E-03
 -1      3213 3.53146E-04 1.33212E-03-7.32248E-04
 -1      3214 2.52686E-04 8.69553E-04-5.14794E-04
 -1      3215 4.44313E-04 1.53316E-03-1.10757E-03
 -1      3216 4.30209E-04 2.66159E-03-1.10285E-03
 -1      3217 3.19042E-04 3.02591E-03-1.09060E-03
 -1      3218 4.25643E-04 1.83880E-03-9.30212E-04
 -1      3219 6.62289E-04 2.73586E-03-1.72134E-03
 -1      3220 3.75436E-04 2.86762E-03-1.09939E-03
 -1      3221 3.10514E-04 2.18768E-03-9.02011E-04
 -1      3222 4.90604E-04 3.09944E-03-1.70164E-03
 -1      3223 4.17322E-04 4.65319E-03-1.43942E-03
 -1      3224 3.14360E-04 5.02530E-03-1.44702E-03
 -1      3225 4.26098E-04 3.60246E-03-1.27353E-03
 -1      3226 6.44500E-04 4.72311E-03-2.24241E-03
 -1      3227 3.66759E-04 4.85916E-03-1.44611E-03
 -1      3228 3.19416E-04 3.97392E-03-1.27239E-03
 -1      3229 4.84923E-04 5.09482E-03-2.25290E-03
 -1      3230 3.90473E-04 7.05772E-03-1.75452E-03
 -1      3231 2.95140E-04 7.41810E-03-1.77400E-03
 -1      3232 4.05118E-04 5.80676E-03-1.59992E-03
 -1      3233 6.05085E-04 7.12115E-03-2.73049E-03
 -1      3234 3.43281E-04 7.25480E-03-1.76693E-03
 -1      3235 3.05954E-04 6.17488E-03-1.61433E-03
 -1      3236 4.56935E-04 7.48132E-03-2.75910E-03
 -1      3237 3.56335E-04 9.82996E-03-2.04452E-03
 -1      3238 2.69253E-04 1.01676E-02-2.07053E-03
 -1      3239 3.73981E-04 8.40039E-03-1.90283E-03
 -1      3240 5.54260E-04 9.88691E-03-3.18135E-03
 -1      3241 3.13088E-04 1.00132E-02-2.05989E-03
 -1      3242 2.82725E-04 8.75043E-03-1.92606E-03
 -1      3243 4.18521E-04 1.02244E-02-3.21991E-03
 -1      3244 3.18785E-04 1.29305E-02-2.30721E-03
 -1      3245 2.40527E-04 1.32394E-02-2.33676E-03
 -1      3246 3.37830E-04 1.13415E-02-2.17938E-03
 -1      3247 4.98075E-04 1.29812E-02-3.59138E-03
 -1      3248 2.79818E-04 1.30972E-02-2.32411E-03
 -1      3249 2.55108E-04 1.16653E-02-2.20745E-03
 -1      3250 3.75620E-04 1.32900E-02-3.63531E-03
 -1      3251 2.79651E-04 1.63229E-02-2.54106E-03
 -1      3252 2.10676E-04 1.65999E-02-2.57246E-03
 -1      3253 2.99331E-04 1.45924E-02-2.42781E-03
 -1      3254 4.39421E-04 1.63675E-02-3.95823E-03
 -1      3255 2.45253E-04 1.64720E-02-2.55871E-03
 -1      3256 2.25678E-04 1.48856E-02-2.45844E-03
 -1      3257 3.30923E-04 1.66444E-02-4.00493E-03
 -1      3258 2.39868E-04 1.99729E-02-2.74501E-03
 -1      3259 1.80474E-04 2.02164E-02-2.77731E-03
 -1      3260 2.59799E-04 1.81178E-02-2.64682E-03
 -1      3261 3.79760E-04 2.00114E-02-4.28019E-03
 -1      3262 2.10219E-04 2.01037E-02-2.76300E-03
 -1      3263 1.95592E-04 1.83782E-02-2.67876E-03
 -1      3264 2.85653E-04 2.02548E-02-4.32826E-03
 -1      3265 1.99864E-04 2.38470E-02-2.91829E-03
 -1      3266 1.50232E-04 2.40562E-02-2.95102E-03
 -1      3267 2.19874E-04 2.18840E-02-2.83551E-03
 -1      3268 3.19760E-04 2.38793E-02-4.55611E-03
 -1      3269 1.75073E-04 2.39593E-02-2.93643E-03
 -1      3270 1.65348E-04 2.21104E-02-2.86807E-03
 -1      3271 2.40306E-04 2.40884E-02-4.60482E-03
 -1      3272 1.59823E-04 2.79126E-02-3.06045E-03
 -1      3273 1.20054E-04 2.80871E-02-3.09336E-03
 -1      3274 1.79840E-04 2.58579E-02-2.99328E-03
 -1      3275 2.59701E-04 2.79387E-02-4.78530E-03
 -1      3276 1.39951E-04 2.80062E-02-3.07863E-03
 -1      3277 1.35133E-04 2.60497E-02-3.02612E-03
 -1      3278 1.95047E-04 2.81131E-02-4.83427E-03
 -1      3279 1.19807E-04 3.21374E-02-3.17118E-03
 -1      3280 8.99557E-05 3.22770E-02-3.20417E-03
 -1      3281 1.39809E-04 3.00071E-02-3.11975E-03
 -1      3282 1.99679E-04 3.21573E-02-4.96733E-03
 -1      3283 1.04887E-04 3.22122E-02-3.18938E-03
 -1      3284 1.04995E-04 3.01642E-02-3.15271E-03
 -1      3285 1.49905E-04 3.22969E-02-5.01641E-03
 -1      3286 7.98289E-05 3.64893E-02-3.25034E-03
 -1      3287 5.99238E-05 3.65941E-02-3.28335E-03
 -1      3288 9.98124E-05 3.42995E-02-3.21471E-03
 -1      3289 1.39715E-04 3.65030E-02-5.10198E-03
 -1      3290 6.98790E-05 3.65455E-02-3.26853E-03
 -1      3291 7.49326E-05 3.44216E-02-3.24771E-03
 -1      3292 1.04861E-04 3.66078E-02-5.15109E-03
 -1      3293 3.98828E-05 4.09366E-02-3.29783E-03
 -1      3294 2.99378E-05 4.10065E-02-3.33084E-03
 -1      3295 5.98520E-05 3.87031E-02-3.27805E-03
 -1      3296 7.97983E-05 4.09441E-02-5.18913E-03
 -1      3297 3.49114E-05 4.09741E-02-3.31602E-03
 -1      3298 4.49262E-05 3.87904E-02-3.31106E-03
 -1      3299 5.98852E-05 4.10139E-02-5.23824E-03
 -1      3300-4.22952E-08 4.54475E-02-3.31362E-03
 -1      3301-2.08208E-08 4.54824E-02-3.34664E-03
 -1      3302 1.99181E-05 4.31861E-02-3.30969E-03
 -1      3303 1.99128E-05 4.54487E-02-5.22871E-03
 -1      3304-3.10801E-08 4.54662E-02-3.33181E-03
 -1      3305 1.49560E-05 4.32385E-02-3.34271E-03
 -1      3306 1.49497E-05 4.54836E-02-5.27782E-03
 -1      3307-3.99578E-05 4.99900E-02-3.29769E-03
 -1      3308-2.99674E-05 4.99900E-02-3.33070E-03
 -1      3309-2.00006E-05 4.77167E-02-3.30962E-03
 -1      3310-3.99583E-05 4.99850E-02-5.22071E-03
 -1      3311-3.49625E-05 4.99900E-02-3.31588E-03
 -1      3312-1.49948E-05 4.77342E-02-3.34264E-03
 -1      3313-2.99678E-05 4.99850E-02-5.26982E-03
 -1      3314-7.98751E-05 5.45326E-02-3.25003E-03
 -1      3315-5.99158E-05 5.44977E-02-3.28305E-03
 -1      3316-5.99154E-05 5.22633E-02-3.27783E-03
 -1      3317-9.98313E-05 5.45213E-02-5.16512E-03
 -1      3318-6.98956E-05 5.45139E-02-3.26822E-03
 -1      3319-4.49405E-05 5.22458E-02-3.31084E-03
 -1      3320-7.48873E-05 5.44864E-02-5.21423E-03
 -1      3321-1.19806E-04 5.90434E-02-3.17064E-03
 -1      3322-8.98813E-05 5.89735E-02-3.20367E-03
 -1      3323-9.98379E-05 5.67939E-02-3.21430E-03
 -1      3324-1.59723E-04 5.90259E-02-5.06194E-03
 -1      3325-1.04845E-04 5.90060E-02-3.18884E-03
 -1      3326-7.48953E-05 5.67416E-02-3.24732E-03
 -1      3327-1.19830E-04 5.89561E-02-5.11106E-03
 -1      3328-1.59767E-04 6.34907E-02-3.05955E-03
 -1      3329-1.19883E-04 6.33859E-02-3.09258E-03
 -1      3330-1.39781E-04 6.12769E-02-3.11906E-03
 -1      3331-2.19654E-04 6.34670E-02-4.91119E-03
 -1      3332-1.39827E-04 6.34345E-02-3.07775E-03
 -1      3333-1.04876E-04 6.11897E-02-3.15208E-03
 -1      3334-1.64822E-04 6.33622E-02-4.96032E-03
 -1      3335-1.99773E-04 6.78426E-02-2.91678E-03
 -1      3336-1.49948E-04 6.77030E-02-2.94980E-03
 -1      3337-1.79762E-04 6.56805E-02-2.99212E-03
 -1      3338-2.79647E-04 6.78127E-02-4.71294E-03
 -1      3339-1.74866E-04 6.77678E-02-2.93500E-03
 -1      3340-1.34905E-04 6.55584E-02-3.02515E-03
 -1      3341-2.09898E-04 6.76731E-02-4.76205E-03
 -1      3342-2.39843E-04 7.20674E-02-2.74243E-03
 -1      3343-1.80107E-04 7.18929E-02-2.77539E-03
 -1      3344-2.19798E-04 6.99729E-02-2.83355E-03
 -1      3345-3.39720E-04 7.20312E-02-4.46730E-03
 -1      3346-2.09987E-04 7.19738E-02-2.76064E-03
 -1      3347-1.65013E-04 6.98158E-02-2.86654E-03
 -1      3348-2.55100E-04 7.18568E-02-4.51632E-03
 -1      3349-2.79976E-04 7.61329E-02-2.53665E-03
 -1      3350-2.10393E-04 7.59237E-02-2.56943E-03
 -1      3351-2.59900E-04 7.41220E-02-2.64345E-03
 -1      3352-3.99866E-04 7.60905E-02-4.17451E-03
 -1      3353-2.45211E-04 7.60206E-02-2.55482E-03
 -1      3354-1.95233E-04 7.39302E-02-2.67635E-03
 -1      3355-3.00463E-04 7.58814E-02-4.22326E-03
 -1      3356-3.20128E-04 8.00069E-02-2.29973E-03
 -1      3357-2.40811E-04 7.97634E-02-2.33208E-03
 -1      3358-3.00052E-04 7.80958E-02-2.42205E-03
 -1      3359-4.60003E-04 7.99584E-02-3.83500E-03
 -1      3360-2.80522E-04 7.98761E-02-2.31777E-03
 -1      3361-2.25588E-04 7.78695E-02-2.45467E-03
 -1      3362-3.45978E-04 7.97150E-02-3.88311E-03
 -1      3363-3.60126E-04 8.36567E-02-2.03216E-03
 -1      3364-2.71275E-04 8.33798E-02-2.06354E-03
 -1      3365-3.40157E-04 8.18619E-02-2.16973E-03
 -1      3366-5.19857E-04 8.36020E-02-3.44951E-03
 -1      3367-3.15802E-04 8.35076E-02-2.04986E-03
 -1      3368-2.56049E-04 8.16015E-02-2.20169E-03
 -1      3369-3.91491E-04 8.33252E-02-3.49619E-03
 -1      3370-3.99531E-04 8.70490E-02-1.73475E-03
 -1      3371-3.01467E-04 8.67402E-02-1.76413E-03
 -1      3372-3.79936E-04 8.53872E-02-1.88711E-03
 -1      3373-5.78738E-04 8.69881E-02-3.01924E-03
 -1      3374-3.50685E-04 8.68823E-02-1.75166E-03
 -1      3375-2.86441E-04 8.50940E-02-1.91767E-03
 -1      3376-4.36495E-04 8.66794E-02-3.06297E-03
 -1      3377-4.37325E-04 9.01494E-02-1.40869E-03
 -1      3378-3.30535E-04 8.98119E-02-1.43413E-03
 -1      3379-4.18708E-04 8.86379E-02-1.57520E-03
 -1      3380-6.35096E-04 9.00822E-02-2.54606E-03
 -1      3381-3.84270E-04 8.99663E-02-1.42393E-03
 -1      3382-3.16229E-04 8.83142E-02-1.60294E-03
 -1      3383-4.79680E-04 8.97448E-02-2.58400E-03
 -1      3384-4.71453E-04 9.29217E-02-1.05572E-03
 -1      3385-3.56516E-04 9.25615E-02-1.07381E-03
 -1      3386-4.55018E-04 9.15789E-02-1.23544E-03
 -1      3387-6.85803E-04 9.28480E-02-2.03250E-03
 -1      3388-4.14533E-04 9.27247E-02-1.06767E-03
 -1      3389-3.44113E-04 9.12290E-02-1.25777E-03
 -1      3390-5.18103E-04 9.24881E-02-2.05967E-03
 -1      3391-4.97454E-04 9.53268E-02-6.78512E-04
 -1      3392-3.74954E-04 9.49549E-02-6.83138E-04
 -1      3393-4.85828E-04 9.41728E-02-8.69924E-04
 -1      3394-7.24229E-04 9.52468E-02-1.48260E-03
 -1      3395-4.37265E-04 9.51210E-02-6.83991E-04
 -1      3396-3.67111E-04 9.38049E-02-8.82278E-04
 -1      3397-5.45202E-04 9.48755E-02-1.49004E-03
 -1      3398-5.07564E-04 9.73201E-02-2.81345E-04
 -1      3399-3.76676E-04 9.69561E-02-2.63375E-04
 -1      3400-5.05180E-04 9.63782E-02-4.82111E-04
 -1      3401-7.39116E-04 9.72365E-02-9.01014E-04
 -1      3402-4.43044E-04 9.71144E-02-2.75230E-04
 -1      3403-3.78947E-04 9.60070E-02-4.76777E-04
 -1      3404-5.47831E-04 9.68734E-02-8.75568E-04
 -1      3405-4.79037E-04 9.88401E-02 1.21983E-04
 -1      3406-3.38931E-04 9.85194E-02 1.81873E-04
 -1      3407-4.99984E-04 9.81445E-02-7.94674E-05
 -1      3408-6.97917E-04 9.87648E-02-3.04921E-04
 -1      3409-4.13199E-04 9.86536E-02 1.52635E-04
 -1      3410-3.64984E-04 9.77960E-02-4.33108E-05
 -1      3411-4.93338E-04 9.84452E-02-2.18505E-04
 -1      3412-3.66552E-04 9.97966E-02 5.18544E-04
 -1      3413-2.26770E-04 9.95793E-02 6.20859E-04
 -1      3414-4.41742E-04 9.93970E-02 3.17857E-04
 -1      3415-5.34641E-04 9.97514E-02 2.87199E-04
 -1      3416-2.85449E-04 9.96594E-02 5.95803E-04
 -1      3417-2.94723E-04 9.91191E-02 4.05511E-04
 -1      3418-3.31295E-04 9.95347E-02 4.35837E-04
 -1      3419 0.00000E+00 1.00000E-01 1.00000E-03
 -1      3420 0.00000E+00 1.00000E-01 1.00000E-03
 -1      3421-2.39285E-04 1.00010E-01 7.49546E-04
 -1      3422 0.00000E+00 1.00000E-01 1.00000E-03
 -1      3423 0.00000E+00 1.00000E-01 1.00000E-03
 -1      3424-1.15785E-04 9.98749E-02 8.31765E-04
 -1      3425 0.00000E+00 1.00000E-01 1.00000E-03
 -1      3426 0.00000E+00 0.00000E+00 0.00000E+00
 -1      3427 1.07605E-04 5.10566E-04-3.05977E-04
 -1      3428 0.00000E+00 0.00000E+00 0.00000E+00
 -1      3429 1.45678E-04 4.71325E-04-3.11932E-04
 -1      3430 0.00000E+00 0.00000E+00 0.00000E+00
 -1      3431 5.65380E-05 1.68259E-04-1.42270E-04
 -1      3432 1.64970E-04 5.51914E-04-4.78427E-04
 -1      3433 1.78084E-04 1.63234E-03-6.83107E-04
 -1      3434 2.31988E-04 1.56290E-03-6.93835E-04
 -1      3435 1.49537E-04 1.00387E-03-4.88908E-04
 -1      3436 2.73162E-04 1.70195E-03-1.06921E-03
 -1      3437 2.06249E-04 3.23760E-03-1.07336E-03
 -1      3438 2.62064E-04 3.14709E-03-1.08109E-03
 -1      3439 1.96455E-04 2.37963E-03-8.79014E-04
 -1      3440 3.17008E-04 3.31431E-03-1.67525E-03
 -1      3441 2.07968E-04 5.25858E-03-1.44206E-03
 -1      3442 2.61307E-04 5.15689E-03-1.44517E-03
 -1      3443 2.09389E-04 4.19917E-03-1.26141E-03
 -1      3444 3.20655E-04 5.33050E-03-2.24497E-03
 -1      3445 1.97014E-04 7.65520E-03-1.77875E-03
 -1      3446 2.46284E-04 7.55068E-03-1.77749E-03
 -1      3447 2.03560E-04 6.41196E-03-1.61463E-03
 -1      3448 3.04873E-04 7.71993E-03-2.76564E-03
 -1      3449 1.80224E-04 1.03967E-02-2.08182E-03
 -1      3450 2.24933E-04 1.02949E-02-2.07752E-03
 -1      3451 1.89081E-04 8.98471E-03-1.93446E-03
 -1      3452 2.80025E-04 1.04544E-02-3.23615E-03
 -1      3453 1.61030E-04 1.34530E-02-2.35209E-03
 -1      3454 2.00917E-04 1.33577E-02-2.34584E-03
 -1      3455 1.70807E-04 1.18874E-02-2.22103E-03
 -1      3456 2.51395E-04 1.35041E-02-3.65755E-03
 -1      3457 1.40954E-04 1.67939E-02-2.59016E-03
 -1      3458 1.75906E-04 1.67071E-02-2.58274E-03
 -1      3459 1.51049E-04 1.50899E-02-2.47513E-03
 -1      3460 2.21351E-04 1.68387E-02-4.03069E-03
 -1      3461 1.20649E-04 2.03882E-02-2.79635E-03
 -1      3462 1.50617E-04 2.03111E-02-2.78826E-03
 -1      3463 1.30809E-04 1.85614E-02-2.69723E-03
 -1      3464 1.90926E-04 2.04267E-02-4.35598E-03
 -1      3465 1.00360E-04 2.42045E-02-2.97078E-03
 -1      3466 1.25329E-04 2.41379E-02-2.96233E-03
 -1      3467 1.10496E-04 2.22706E-02-2.88753E-03
 -1      3468 1.60507E-04 2.42368E-02-4.63361E-03
 -1      3469 8.01562E-05 2.82111E-02-3.11349E-03
 -1      3470 1.00123E-04 2.81554E-02-3.10484E-03
 -1      3471 9.02464E-05 2.61860E-02-3.04610E-03
 -1      3472 1.30209E-04 2.82373E-02-4.86361E-03
 -1      3473 6.00379E-05 3.23765E-02-3.22448E-03
 -1      3474 7.50067E-05 3.23318E-02-3.21574E-03
 -1      3475 7.00871E-05 3.02760E-02-3.17295E-03
 -1      3476 1.00036E-04 3.23964E-02-5.04602E-03
 -1      3477 3.99854E-05 3.66688E-02-3.30375E-03
 -1      3478 4.99597E-05 3.66352E-02-3.29496E-03
 -1      3479 5.00046E-05 3.45087E-02-3.26808E-03
 -1      3480 6.99604E-05 3.66825E-02-5.18083E-03
 -1      3481 1.99768E-05 4.10563E-02-3.35129E-03
 -1      3482 2.49598E-05 4.10339E-02-3.34247E-03
 -1      3483 2.99768E-05 3.88526E-02-3.33149E-03
 -1      3484 3.99500E-05 4.10638E-02-5.26804E-03
 -1      3485-6.08747E-09 4.55073E-02-3.36710E-03
 -1      3486-1.23807E-08 4.54961E-02-3.35827E-03
 -1      3487 9.98309E-06 4.32758E-02-3.36316E-03
 -1      3488 9.97757E-06 4.55085E-02-5.30765E-03
 -1      3489-1.99780E-05 4.99900E-02-3.35117E-03
 -1      3490-2.49726E-05 4.99900E-02-3.34234E-03
 -1      3491-9.99261E-06 4.77467E-02-3.36311E-03
 -1      3492-1.99782E-05 4.99850E-02-5.29966E-03
 -1      3493-3.99516E-05 5.44727E-02-3.30352E-03
 -1      3494-4.99347E-05 5.44839E-02-3.29469E-03
 -1      3495-2.99637E-05 5.22334E-02-3.33131E-03
 -1      3496-4.99359E-05 5.44615E-02-5.24406E-03
 -1      3497-5.99411E-05 5.89237E-02-3.22412E-03
 -1      3498-7.49138E-05 5.89461E-02-3.21530E-03
 -1      3499-4.99433E-05 5.67042E-02-3.26779E-03
 -1      3500-7.99150E-05 5.89063E-02-5.14087E-03
 -1      3501-7.99646E-05 6.33112E-02-3.11299E-03
 -1      3502-9.99296E-05 6.33448E-02-3.10419E-03
 -1      3503-6.99471E-05 6.11274E-02-3.17252E-03
 -1      3504-1.09941E-04 6.32875E-02-4.99007E-03
 -1      3505-1.00048E-04 6.76035E-02-2.97012E-03
 -1      3506-1.25009E-04 6.76482E-02-2.96138E-03
 -1      3507-8.99966E-05 6.54712E-02-3.04553E-03
 -1      3508-1.40046E-04 6.75736E-02-4.79166E-03
 -1      3509-1.20223E-04 7.17688E-02-2.79551E-03
 -1      3510-1.50187E-04 7.18246E-02-2.78687E-03
 -1      3511-1.10121E-04 6.97040E-02-2.88679E-03
 -1      3512-1.70275E-04 7.17327E-02-4.54565E-03
 -1      3513-1.40527E-04 7.57754E-02-2.58914E-03
 -1      3514-1.75500E-04 7.58420E-02-2.58072E-03
 -1      3515-1.30357E-04 7.37939E-02-2.69630E-03
 -1      3516-2.00671E-04 7.57331E-02-4.25200E-03
 -1      3517-1.60977E-04 7.95916E-02-2.35097E-03
 -1      3518-2.00964E-04 7.96687E-02-2.34297E-03
 -1      3519-1.50734E-04 7.77093E-02-2.47403E-03
 -1      3520-2.31245E-04 7.95430E-02-3.91069E-03
 -1      3521-1.81518E-04 8.31858E-02-2.08091E-03
 -1      3522-2.26512E-04 8.32726E-02-2.07368E-03
 -1      3523-1.71245E-04 8.14184E-02-2.21994E-03
 -1      3524-2.61895E-04 8.31309E-02-3.52160E-03
 -1      3525-2.01896E-04 8.65265E-02-1.77876E-03
 -1      3526-2.51858E-04 8.66219E-02-1.77289E-03
 -1      3527-1.91758E-04 8.48897E-02-1.93388E-03
 -1      3528-2.92218E-04 8.64652E-02-3.08452E-03
 -1      3529-2.21375E-04 8.95828E-02-1.44411E-03
 -1      3530-2.76203E-04 8.96845E-02-1.44049E-03
 -1      3531-2.11828E-04 8.80921E-02-1.61556E-03
 -1      3532-3.21097E-04 8.95148E-02-2.59893E-03
 -1      3533-2.38192E-04 9.23243E-02-1.07630E-03
 -1      3534-2.97622E-04 9.24289E-02-1.07618E-03
 -1      3535-2.30305E-04 9.09947E-02-1.26444E-03
 -1      3536-3.45917E-04 9.22493E-02-2.06394E-03
 -1      3537-2.48331E-04 9.47215E-02-6.74563E-04
 -1      3538-3.11839E-04 9.48233E-02-6.79419E-04
 -1      3539-2.44494E-04 9.35677E-02-8.79686E-04
 -1      3540-3.60818E-04 9.46396E-02-1.47851E-03
 -1      3541-2.43813E-04 9.67443E-02-2.40988E-04
 -1      3542-3.09592E-04 9.68349E-02-2.51000E-04
 -1      3543-2.48712E-04 9.57816E-02-4.61396E-04
 -1      3544-3.54318E-04 9.66582E-02-8.44049E-04
 -1      3545-2.08749E-04 9.83533E-02 2.12555E-04
 -1      3546-2.71753E-04 9.84228E-02 1.99401E-04
 -1      3547-2.31220E-04 9.76038E-02-1.45840E-05
 -1      3548-3.03577E-04 9.82761E-02-1.74475E-04
 -1      3549-1.25210E-04 9.94814E-02 6.47581E-04
 -1      3550-1.69423E-04 9.95207E-02 6.40341E-04
 -1      3551-1.74619E-04 9.89846E-02 4.36738E-04
 -1      3552-1.82417E-04 9.94357E-02 4.74795E-04
 -1      3553 0.00000E+00 1.00000E-01 1.00000E-03
 -1      3554 0.00000E+00 1.00000E-01 1.00000E-03
 -1      3555-6.55763E-05 9.98276E-02 8.36083E-04
 -1      3556 0.00000E+00 1.00000E-01 1.00000E-03
 -1      3557 0.00000E+00 0.00000E+00 0.00000E+00
 -1      3558 4.98236E-05 5.53940E-04-3.02732E-04
 -1      3559 0.00000E+00 0.00000E+00 0.00000E+00
 -1      3560 7.68887E-05 5.37068E-04-3.03663E-04
 -1      3561 0.00000E+00 0.00000E+00 0.00000E+00
 -1      3562 2.60585E-05 1.90778E-04-1.40593E-04
 -1      3563 7.64926E-05 5.96539E-04-4.73536E-04
 -1      3564 8.43128E-05 1.71423E-03-6.73529E-04
 -1      3565 1.29214E-04 1.68165E-03-6.76985E-04
 -1      3566 6.92728E-05 1.06750E-03-4.81752E-04
 -1      3567 1.29402E-04 1.78640E-03-1.05476E-03
 -1      3568 1.00214E-04 3.34816E-03-1.06339E-03
 -1      3569 1.52292E-04 3.30355E-03-1.06731E-03
 -1      3570 9.42768E-05 2.47714E-03-8.68485E-04
 -1      3571 1.54060E-04 3.42770E-03-1.66022E-03
 -1      3572 1.02963E-04 5.38612E-03-1.43673E-03
 -1      3573 1.55222E-04 5.33414E-03-1.43913E-03
 -1      3574 1.02879E-04 4.31969E-03-1.25341E-03
 -1      3575 1.58743E-04 5.46025E-03-2.23676E-03
 -1      3576 9.83400E-05 7.78906E-03-1.77850E-03
 -1      3577 1.47670E-04 7.73410E-03-1.77887E-03
 -1      3578 1.01281E-04 6.54387E-03-1.61189E-03
 -1      3579 1.52154E-04 7.85526E-03-2.76486E-03
 -1      3580 9.02459E-05 1.05288E-02-2.08565E-03
 -1      3581 1.35313E-04 1.04743E-02-2.08433E-03
 -1      3582 9.45716E-05 9.11857E-03-1.93641E-03
 -1      3583 1.40196E-04 1.05874E-02-3.24135E-03
 -1      3584 8.07018E-05 1.35781E-02-2.35872E-03
 -1      3585 1.20944E-04 1.35263E-02-2.35621E-03
 -1      3586 8.55820E-05 1.20165E-02-2.22641E-03
 -1      3587 1.25969E-04 1.36297E-02-3.66686E-03
 -1      3588 7.06333E-05 1.69085E-02-2.59854E-03
 -1      3589 1.05854E-04 1.68609E-02-2.59528E-03
 -1      3590 7.57008E-05 1.52100E-02-2.48275E-03
 -1      3591 1.10907E-04 1.69535E-02-4.04258E-03
 -1      3592 6.04347E-05 2.04903E-02-2.80578E-03
 -1      3593 9.05826E-05 2.04479E-02-2.80206E-03
 -1      3594 6.55377E-05 1.86699E-02-2.70621E-03
 -1      3595 9.56264E-05 2.05289E-02-4.36942E-03
 -1      3596 5.02507E-05 2.42929E-02-2.98080E-03
 -1      3597 7.53309E-05 2.42561E-02-2.97682E-03
 -1      3598 5.53369E-05 2.23660E-02-2.89730E-03
 -1      3599 8.03585E-05 2.43253E-02-4.64791E-03
 -1      3600 4.01206E-05 2.82853E-02-3.12384E-03
 -1      3601 6.01534E-05 2.82544E-02-3.11971E-03
 -1      3602 4.51784E-05 2.62674E-02-3.05631E-03
 -1      3603 6.51675E-05 2.83115E-02-4.87840E-03
 -1      3604 3.00433E-05 3.24360E-02-3.23500E-03
 -1      3605 4.50490E-05 3.24112E-02-3.23080E-03
 -1      3606 3.50759E-05 3.03429E-02-3.18340E-03
 -1      3607 5.00541E-05 3.24560E-02-5.06106E-03
 -1      3608 2.00060E-05 3.67135E-02-3.31436E-03
 -1      3609 3.00003E-05 3.66949E-02-3.31011E-03
 -1      3610 2.50205E-05 3.45609E-02-3.27865E-03
 -1      3611 3.49999E-05 3.67272E-02-5.19599E-03
 -1      3612 9.99527E-06 4.10862E-02-3.36194E-03
 -1      3613 1.49884E-05 4.10737E-02-3.35768E-03
 -1      3614 1.49980E-05 3.88899E-02-3.34212E-03
 -1      3615 1.99850E-05 4.10936E-02-5.28326E-03
 -1      3616-1.27981E-10 4.55222E-02-3.37777E-03
 -1      3617-2.11958E-09 4.55160E-02-3.37350E-03
 -1      3618 4.99621E-06 4.32982E-02-3.37382E-03
 -1      3619 4.99300E-06 4.55235E-02-5.32290E-03
 -1      3620-9.98894E-06 4.99900E-02-3.36185E-03
 -1      3621-1.49834E-05 4.99900E-02-3.35757E-03
 -1      3622-4.99488E-06 4.77541E-02-3.37378E-03
 -1      3623-9.98908E-06 4.99850E-02-5.31491E-03
 -1      3624-1.99789E-05 5.44578E-02-3.31418E-03
 -1      3625-2.99663E-05 5.44640E-02-3.30991E-03
 -1      3626-1.49833E-05 5.22259E-02-3.34199E-03
 -1      3627-2.49723E-05 5.44466E-02-5.25932E-03
 -1      3628-2.99784E-05 5.88939E-02-3.23477E-03
 -1      3629-4.49623E-05 5.89063E-02-3.23051E-03
 -1      3630-2.49768E-05 5.66818E-02-3.27845E-03
 -1      3631-3.99685E-05 5.88764E-02-5.15609E-03
 -1      3632-3.99985E-05 6.32665E-02-3.12360E-03
 -1      3633-5.99870E-05 6.32851E-02-3.11936E-03
 -1      3634-3.49849E-05 6.10901E-02-3.18316E-03
 -1      3635-5.49928E-05 6.32428E-02-5.00523E-03
 -1      3636-5.00544E-05 6.75440E-02-2.98064E-03
 -1      3637-7.50614E-05 6.75687E-02-2.97644E-03
 -1      3638-4.50207E-05 6.54191E-02-3.05610E-03
 -1      3639-7.00656E-05 6.75140E-02-4.80669E-03
 -1      3640-6.01665E-05 7.16946E-02-2.80583E-03
 -1      3641-9.02138E-05 7.17255E-02-2.80172E-03
 -1      3642-5.51019E-05 6.96371E-02-2.89722E-03
 -1      3643-8.52133E-05 7.16585E-02-4.56041E-03
 -1      3644-7.03567E-05 7.56870E-02-2.59908E-03
 -1      3645-1.05475E-04 7.57238E-02-2.59514E-03
 -1      3646-6.52504E-05 7.37126E-02-2.70646E-03
 -1      3647-1.00463E-04 7.56445E-02-4.26623E-03
 -1      3648-8.06366E-05 7.94895E-02-2.36022E-03
 -1      3649-1.20860E-04 7.95319E-02-2.35658E-03
 -1      3650-7.54857E-05 7.76139E-02-2.48369E-03
 -1      3651-1.15824E-04 7.94408E-02-3.92395E-03
 -1      3652-9.09741E-05 8.30712E-02-2.08894E-03
 -1      3653-1.36327E-04 8.31187E-02-2.08584E-03
 -1      3654-8.58037E-05 8.13099E-02-2.22867E-03
 -1      3655-1.31237E-04 8.30160E-02-3.53314E-03
 -1      3656-1.01215E-04 8.64014E-02-1.78473E-03
 -1      3657-1.51663E-04 8.64532E-02-1.78253E-03
 -1      3658-9.61257E-05 8.47696E-02-1.94100E-03
 -1      3659-1.46461E-04 8.63396E-02-3.09317E-03
 -1      3660-1.10911E-04 8.94505E-02-1.44681E-03
 -1      3661-1.66256E-04 8.95051E-02-1.44600E-03
 -1      3662-1.06181E-04 8.79629E-02-1.62006E-03
 -1      3663-1.60823E-04 8.93817E-02-2.60301E-03
 -1      3664-1.18982E-04 9.21903E-02-1.07429E-03
 -1      3665-1.78607E-04 9.22453E-02-1.07542E-03
 -1      3666-1.15264E-04 9.08607E-02-1.26495E-03
 -1      3667-1.72732E-04 9.21138E-02-2.06141E-03
 -1      3668-1.23059E-04 9.45938E-02-6.66753E-04
 -1      3669-1.85441E-04 9.46459E-02-6.70207E-04
 -1      3670-1.21749E-04 9.34357E-02-8.74809E-04
 -1      3671-1.78745E-04 9.45095E-02-1.46784E-03
 -1      3672-1.18592E-04 9.66335E-02-2.28076E-04
 -1      3673-1.80133E-04 9.66782E-02-2.33180E-04
 -1      3674-1.22320E-04 9.56609E-02-4.50613E-04
 -1      3675-1.72321E-04 9.65445E-02-8.26096E-04
 -1      3676-9.89296E-05 9.82712E-02 2.24560E-04
 -1      3677-1.51552E-04 9.83038E-02 2.20183E-04
 -1      3678-1.11076E-04 9.75061E-02-1.23925E-06
 -1      3679-1.43906E-04 9.81913E-02-1.57594E-04
 -1      3680-5.80180E-05 9.94379E-02 6.51754E-04
 -1      3681-8.95071E-05 9.94548E-02 6.50505E-04
 -1      3682-8.09691E-05 9.89208E-02 4.45681E-04
 -1      3683-8.46157E-05 9.93908E-02 4.80633E-04
 -1      3684 0.00000E+00 1.00000E-01 1.00000E-03
 -1      3685 0.00000E+00 1.00000E-01 1.00000E-03
 -1      3686-3.02410E-05 9.98050E-02 8.38229E-04
 -1      3687 0.00000E+00 1.00000E-01 1.00000E-03
 -1      3688 0.00000E+00 0.00000E+00 0.00000E+00
 -1      3689 6.35862E-17 5.66925E-04-3.01977E-04
 -1      3690 0.00000E+00 0.00000E+00 0.00000E+00
 -1      3691 2.43818E-05 5.63778E-04-3.02165E-04
 -1      3692 0.00000E+00 0.00000E+00 0.00000E+00
 -1      3693 2.73716E-17 1.97088E-04-1.40697E-04
 -1      3694 7.10374E-17 6.09862E-04-4.72393E-04
 -1      3695 1.60956E-16 1.73914E-03-6.70992E-04
 -1      3696 4.15060E-05 1.73309E-03-6.71559E-04
 -1      3697 1.08495E-16 1.08647E-03-4.80235E-04
 -1      3698 1.75577E-16 1.81218E-03-1.05098E-03
 -1      3699 2.81862E-16 3.38259E-03-1.06045E-03
 -1      3700 4.97265E-05 3.37418E-03-1.06115E-03
 -1      3701 2.18339E-16 2.50719E-03-8.65584E-04
 -1      3702 3.04142E-16 3.46312E-03-1.65583E-03
 -1      3703 4.22675E-16 5.42666E-03-1.43475E-03
 -1      3704 5.13299E-05 5.41668E-03-1.43524E-03
 -1      3705 3.50277E-16 4.35762E-03-1.25080E-03
 -1      3706 4.52777E-16 5.50160E-03-2.23373E-03
 -1      3707 5.80543E-16 7.83227E-03-1.77798E-03
 -1      3708 4.91421E-05 7.82159E-03-1.77814E-03
 -1      3709 5.00122E-16 6.58614E-03-1.61062E-03
 -1      3710 6.18998E-16 7.89902E-03-2.76393E-03
 -1      3711 7.44136E-16 1.05719E-02-2.08645E-03
 -1      3712 4.51387E-05 1.05612E-02-2.08629E-03
 -1      3713 6.60511E-16 9.16204E-03-1.93659E-03
 -1      3714 7.92160E-16 1.06309E-02-3.24235E-03
 -1      3715 9.26780E-16 1.36192E-02-2.36048E-03
 -1      3716 4.03748E-05 1.36090E-02-2.36008E-03
 -1      3717 8.34941E-16 1.20589E-02-2.22773E-03
 -1      3718 9.77621E-16 1.36710E-02-3.66926E-03
 -1      3719 1.11161E-15 1.69464E-02-2.60093E-03
 -1      3720 3.53372E-05 1.69369E-02-2.60038E-03
 -1      3721 1.02286E-15 1.52496E-02-2.48486E-03
 -1      3722 1.16661E-15 1.69915E-02-4.04592E-03
 -1      3723 1.30022E-15 2.05241E-02-2.80855E-03
 -1      3724 3.02320E-05 2.05157E-02-2.80790E-03
 -1      3725 1.20679E-15 1.87058E-02-2.70882E-03
 -1      3726 1.35976E-15 2.05628E-02-4.37332E-03
 -1      3727 1.47678E-15 2.43223E-02-2.98381E-03
 -1      3728 2.51348E-05 2.43150E-02-2.98309E-03
 -1      3729 1.38695E-15 2.23976E-02-2.90021E-03
 -1      3730 1.54760E-15 2.43547E-02-4.65215E-03
 -1      3731 1.67262E-15 2.83100E-02-3.12697E-03
 -1      3732 2.00660E-05 2.83038E-02-3.12622E-03
 -1      3733 1.57492E-15 2.62944E-02-3.05939E-03
 -1      3734 1.74016E-15 2.83361E-02-4.88282E-03
 -1      3735 1.83668E-15 3.24559E-02-3.23820E-03
 -1      3736 1.50249E-05 3.24509E-02-3.23743E-03
 -1      3737 1.75402E-15 3.03651E-02-3.18657E-03
 -1      3738 1.89910E-15 3.24758E-02-5.06557E-03
 -1      3739 1.99677E-15 3.67284E-02-3.31759E-03
 -1      3740 1.00048E-05 3.67247E-02-3.31682E-03
 -1      3741 1.91850E-15 3.45783E-02-3.28187E-03
 -1      3742 2.07290E-15 3.67421E-02-5.20056E-03
 -1      3743 2.16458E-15 4.10961E-02-3.36519E-03
 -1      3744 4.99856E-06 4.10936E-02-3.36441E-03
 -1      3745 2.08487E-15 3.89024E-02-3.34536E-03
 -1      3746 2.23629E-15 4.11036E-02-5.28785E-03
 -1      3747 2.34811E-15 4.55272E-02-3.38102E-03
 -1      3748 3.28973E-10 4.55260E-02-3.38024E-03
 -1      3749 2.25806E-15 4.33057E-02-3.37708E-03
 -1      3750 2.40019E-15 4.55284E-02-5.32750E-03
 -1      3751 2.48910E-15 4.99900E-02-3.36511E-03
 -1      3752-4.99447E-06 4.99900E-02-3.36433E-03
 -1      3753 2.41924E-15 4.77566E-02-3.37703E-03
 -1      3754 2.53883E-15 4.99850E-02-5.31952E-03
 -1      3755 2.64814E-15 5.44528E-02-3.31744E-03
 -1      3756-9.98987E-06 5.44541E-02-3.31666E-03
 -1      3757 2.56735E-15 5.22234E-02-3.34524E-03
 -1      3758 2.66740E-15 5.44416E-02-5.26392E-03
 -1      3759 2.74074E-15 5.88839E-02-3.23802E-03
 -1      3760-1.49903E-05 5.88864E-02-3.23724E-03
 -1      3761 2.69631E-15 5.66743E-02-3.28170E-03
 -1      3762 2.77102E-15 5.88664E-02-5.16069E-03
 -1      3763 2.77367E-15 6.32516E-02-3.12683E-03
 -1      3764-2.00014E-05 6.32553E-02-3.12606E-03
 -1      3765 2.75991E-15 6.10776E-02-3.18640E-03
 -1      3766 2.82532E-15 6.32279E-02-5.00980E-03
 -1      3767 2.84687E-15 6.75241E-02-2.98383E-03
 -1      3768-2.50313E-05 6.75291E-02-2.98307E-03
 -1      3769 2.83012E-15 6.54017E-02-3.05931E-03
 -1      3770 2.85969E-15 6.74942E-02-4.81121E-03
 -1      3771 2.85984E-15 7.16700E-02-2.80895E-03
 -1      3772-3.00906E-05 7.16761E-02-2.80820E-03
 -1      3773 2.84935E-15 6.96149E-02-2.90038E-03
 -1      3774 2.85908E-15 7.16338E-02-4.56481E-03
 -1      3775 2.79397E-15 7.56576E-02-2.60205E-03
 -1      3776-3.51908E-05 7.56649E-02-2.60135E-03
 -1      3777 2.83197E-15 7.36855E-02-2.70952E-03
 -1      3778 2.81450E-15 7.56151E-02-4.27043E-03
 -1      3779 2.72750E-15 7.94557E-02-2.36293E-03
 -1      3780-4.03380E-05 7.94641E-02-2.36229E-03
 -1      3781 2.75706E-15 7.75822E-02-2.48654E-03
 -1      3782 2.70425E-15 7.94069E-02-3.92777E-03
 -1      3783 2.53640E-15 8.30333E-02-2.09118E-03
 -1      3784-4.55154E-05 8.30427E-02-2.09067E-03
 -1      3785 2.61326E-15 8.12739E-02-2.23117E-03
 -1      3786 2.51894E-15 8.29780E-02-3.53633E-03
 -1      3787 2.18407E-15 8.63602E-02-1.78623E-03
 -1      3788-5.06420E-05 8.63705E-02-1.78590E-03
 -1      3789 2.35459E-15 8.47299E-02-1.94292E-03
 -1      3790 2.21562E-15 8.62983E-02-3.09532E-03
 -1      3791 1.90793E-15 8.94074E-02-1.44718E-03
 -1      3792-5.54827E-05 8.94181E-02-1.44713E-03
 -1      3793 2.05895E-15 8.79205E-02-1.62105E-03
 -1      3794 1.91415E-15 8.93381E-02-2.60359E-03
 -1      3795 1.56514E-15 9.21470E-02-1.07311E-03
 -1      3796-5.94694E-05 9.21577E-02-1.07344E-03
 -1      3797 1.73811E-15 9.08172E-02-1.26459E-03
 -1      3798 1.55347E-15 9.20700E-02-2.05984E-03
 -1      3799 1.20089E-15 9.45532E-02-6.63925E-04
 -1      3800-6.13639E-05 9.45632E-02-6.64629E-04
 -1      3801 1.37176E-15 9.33933E-02-8.72777E-04
 -1      3802 1.16802E-15 9.44680E-02-1.46397E-03
 -1      3803 8.05179E-16 9.65989E-02-2.24230E-04
 -1      3804-5.88617E-05 9.66074E-02-2.25158E-04
 -1      3805 1.01602E-15 9.56228E-02-4.47094E-04
 -1      3806 8.49397E-16 9.65089E-02-8.20797E-04
 -1      3807 4.98503E-16 9.82461E-02 2.27791E-04
 -1      3808-4.87150E-05 9.82522E-02 2.27059E-04
 -1      3809 6.56722E-16 9.74759E-02 2.49273E-06
 -1      3810 5.13423E-16 9.81653E-02-1.53116E-04
 -1      3811 2.75689E-16 9.94248E-02 6.52763E-04
 -1      3812-2.83978E-05 9.94280E-02 6.52510E-04
 -1      3813 3.92023E-16 9.89017E-02 4.47646E-04
 -1      3814 2.49654E-16 9.93774E-02 4.82036E-04
 -1      3815 0.00000E+00 1.00000E-01 1.00000E-03
 -1      3816 0.00000E+00 1.00000E-01 1.00000E-03
 -1      3817 1.10476E-16 9.97987E-02 8.38174E-04
 -1      3818 0.00000E+00 1.00000E-01 1.00000E-03
 -1      3819 0.00000E+00 0.00000E+00 0.00000E+00
 -1      3820-4.98236E-05 5.53940E-04-3.02732E-04
 -1      3821 0.00000E+00 0.00000E+00 0.00000E+00
 -1      3822-2.43818E-05 5.63778E-04-3.02165E-04
 -1      3823 0.00000E+00 0.00000E+00 0.00000E+00
 -1      3824-2.60585E-05 1.90778E-04-1.40593E-04
 -1      3825-7.64926E-05 5.96539E-04-4.73536E-04
 -1      3826-8.43128E-05 1.71423E-03-6.73529E-04
 -1      3827-4.15060E-05 1.73309E-03-6.71559E-04
 -1      3828-6.92728E-05 1.06750E-03-4.81752E-04
 -1      3829-1.29402E-04 1.78640E-03-1.05476E-03
 -1      3830-1.00214E-04 3.34816E-03-1.06339E-03
 -1      3831-4.97265E-05 3.37418E-03-1.06115E-03
 -1      3832-9.42768E-05 2.47714E-03-8.68485E-04
 -1      3833-1.54060E-04 3.42770E-03-1.66022E-03
 -1      3834-1.02963E-04 5.38612E-03-1.43673E-03
 -1      3835-5.13299E-05 5.41668E-03-1.43524E-03
 -1      3836-1.02879E-04 4.31969E-03-1.25341E-03
 -1      3837-1.58743E-04 5.46025E-03-2.23676E-03
 -1      3838-9.83400E-05 7.78906E-03-1.77850E-03
 -1      3839-4.91421E-05 7.82159E-03-1.77814E-03
 -1      3840-1.01281E-04 6.54387E-03-1.61189E-03
 -1      3841-1.52154E-04 7.85526E-03-2.76486E-03
 -1      3842-9.02459E-05 1.05288E-02-2.08565E-03
 -1      3843-4.51387E-05 1.05612E-02-2.08629E-03
 -1      3844-9.45716E-05 9.11857E-03-1.93641E-03
 -1      3845-1.40196E-04 1.05874E-02-3.24135E-03
 -1      3846-8.07018E-05 1.35781E-02-2.35872E-03
 -1      3847-4.03748E-05 1.36090E-02-2.36008E-03
 -1      3848-8.55820E-05 1.20165E-02-2.22641E-03
 -1      3849-1.25969E-04 1.36297E-02-3.66686E-03
 -1      3850-7.06333E-05 1.69085E-02-2.59854E-03
 -1      3851-3.53372E-05 1.69369E-02-2.60038E-03
 -1      3852-7.57008E-05 1.52100E-02-2.48275E-03
 -1      3853-1.10907E-04 1.69535E-02-4.04258E-03
 -1      3854-6.04347E-05 2.04903E-02-2.80578E-03
 -1      3855-3.02320E-05 2.05157E-02-2.80790E-03
 -1      3856-6.55377E-05 1.86699E-02-2.70621E-03
 -1      3857-9.56264E-05 2.05289E-02-4.36942E-03
 -1      3858-5.02507E-05 2.42929E-02-2.98080E-03
 -1      3859-2.51348E-05 2.43150E-02-2.98309E-03
 -1      3860-5.53369E-05 2.23660E-02-2.89730E-03
 -1      3861-8.03585E-05 2.43253E-02-4.64791E-03
 -1      3862-4.01206E-05 2.82853E-02-3.12384E-03
 -1      3863-2.00660E-05 2.83038E-02-3.12622E-03
 -1      3864-4.51784E-05 2.62674E-02-3.05631E-03
 -1      3865-6.51675E-05 2.83115E-02-4.87840E-03
 -1      3866-3.00433E-05 3.24360E-02-3.23500E-03
 -1      3867-1.50249E-05 3.24509E-02-3.23743E-03
 -1      3868-3.50759E-05 3.03429E-02-3.18340E-03
 -1      3869-5.00541E-05 3.24560E-02-5.06106E-03
 -1      3870-2.00060E-05 3.67135E-02-3.31436E-03
 -1      3871-1.00048E-05 3.67247E-02-3.31682E-03
 -1      3872-2.50205E-05 3.45609E-02-3.27865E-03
 -1      3873-3.49999E-05 3.67272E-02-5.19599E-03
 -1      3874-9.99527E-06 4.10862E-02-3.36194E-03
 -1      3875-4.99856E-06 4.10936E-02-3.36441E-03
 -1      3876-1.49980E-05 3.88899E-02-3.34212E-03
 -1      3877-1.99850E-05 4.10936E-02-5.28326E-03
 -1      3878 1.27986E-10 4.55222E-02-3.37777E-03
 -1      3879-3.28969E-10 4.55260E-02-3.38024E-03
 -1      3880-4.99621E-06 4.32982E-02-3.37382E-03
 -1      3881-4.99300E-06 4.55235E-02-5.32290E-03
 -1      3882 9.98894E-06 4.99900E-02-3.36185E-03
 -1      3883 4.99447E-06 4.99900E-02-3.36433E-03
 -1      3884 4.99488E-06 4.77541E-02-3.37378E-03
 -1      3885 9.98908E-06 4.99850E-02-5.31491E-03
 -1      3886 1.99789E-05 5.44578E-02-3.31418E-03
 -1      3887 9.98987E-06 5.44541E-02-3.31666E-03
 -1      3888 1.49833E-05 5.22259E-02-3.34199E-03
 -1      3889 2.49723E-05 5.44466E-02-5.25932E-03
 -1      3890 2.99784E-05 5.88939E-02-3.23477E-03
 -1      3891 1.49903E-05 5.88864E-02-3.23724E-03
 -1      3892 2.49768E-05 5.66818E-02-3.27845E-03
 -1      3893 3.99685E-05 5.88764E-02-5.15609E-03
 -1      3894 3.99985E-05 6.32665E-02-3.12360E-03
 -1      3895 2.00014E-05 6.32553E-02-3.12606E-03
 -1      3896 3.49849E-05 6.10901E-02-3.18316E-03
 -1      3897 5.49928E-05 6.32428E-02-5.00523E-03
 -1      3898 5.00544E-05 6.75440E-02-2.98064E-03
 -1      3899 2.50313E-05 6.75291E-02-2.98307E-03
 -1      3900 4.50207E-05 6.54191E-02-3.05610E-03
 -1      3901 7.00656E-05 6.75140E-02-4.80669E-03
 -1      3902 6.01665E-05 7.16946E-02-2.80583E-03
 -1      3903 3.00906E-05 7.16761E-02-2.80820E-03
 -1      3904 5.51019E-05 6.96371E-02-2.89722E-03
 -1      3905 8.52133E-05 7.16585E-02-4.56041E-03
 -1      3906 7.03567E-05 7.56870E-02-2.59908E-03
 -1      3907 3.51908E-05 7.56649E-02-2.60135E-03
 -1      3908 6.52504E-05 7.37126E-02-2.70646E-03
 -1      3909 1.00463E-04 7.56445E-02-4.26623E-03
 -1      3910 8.06366E-05 7.94895E-02-2.36022E-03
 -1      3911 4.03380E-05 7.94641E-02-2.36229E-03
 -1      3912 7.54857E-05 7.76139E-02-2.48369E-03
 -1      3913 1.15824E-04 7.94408E-02-3.92395E-03
 -1      3914 9.09741E-05 8.30712E-02-2.08894E-03
 -1      3915 4.55154E-05 8.30427E-02-2.09067E-03
 -1      3916 8.58037E-05 8.13099E-02-2.22867E-03
 -1      3917 1.31237E-04 8.30160E-02-3.53314E-03
 -1      3918 1.01215E-04 8.64014E-02-1.78473E-03
 -1      3919 5.06420E-05 8.63705E-02-1.78590E-03
 -1      3920 9.61257E-05 8.47696E-02-1.94100E-03
 -1      3921 1.46461E-04 8.63396E-02-3.09317E-03
 -1      3922 1.10911E-04 8.94505E-02-1.44681E-03
 -1      3923 5.54827E-05 8.94181E-02-1.44713E-03
 -1      3924 1.06181E-04 8.79629E-02-1.62006E-03
 -1      3925 1.60823E-04 8.93817E-02-2.60301E-03
 -1      3926 1.18982E-04 9.21903E-02-1.07429E-03
 -1      3927 5.94694E-05 9.21577E-02-1.07344E-03
 -1      3928 1.15264E-04 9.08607E-02-1.26495E-03
 -1      3929 1.72732E-04 9.21138E-02-2.06141E-03
 -1      3930 1.23059E-04 9.45938E-02-6.66753E-04
 -1      3931 6.13639E-05 9.45632E-02-6.64629E-04
 -1      3932 1.21749E-04 9.34357E-02-8.74809E-04
 -1      3933 1.78745E-04 9.45095E-02-1.46784E-03
 -1      3934 1.18592E-04 9.66335E-02-2.28076E-04
 -1      3935 5.88617E-05 9.66074E-02-2.25158E-04
 -1      3936 1.22320E-04 9.56609E-02-4.50613E-04
 -1      3937 1.72321E-04 9.65445E-02-8.26096E-04
 -1      3938 9.89296E-05 9.82712E-02 2.24560E-04
 -1      3939 4.87150E-05 9.82522E-02 2.27059E-04
 -1      3940 1.11076E-04 9.75061E-02-1.23925E-06
 -1      3941 1.43906E-04 9.81913E-02-1.57594E-04
 -1      3942 5.80180E-05 9.94379E-02 6.51754E-04
 -1      3943 2.83978E-05 9.94280E-02 6.52510E-04
 -1      3944 8.09691E-05 9.89208E-02 4.45681E-04
 -1      3945 8.46157E-05 9.93908E-02 4.80633E-04
 -1      3946 0.00000E+00 1.00000E-01 1.00000E-03
 -1      3947 0.00000E+00 1.00000E-01 1.00000E-03
 -1      3948 3.02410E-05 9.98050E-02 8.38229E-04
 -1      3949 0.00000E+00 1.00000E-01 1.00000E-03
 -1      3950 0.00000E+00 0.00000E+00 0.00000E+00
 -1      3951-1.07605E-04 5.10566E-04-3.05977E-04
 -1      3952 0.00000E+00 0.00000E+00 0.00000E+00
 -1      3953-7.68887E-05 5.37068E-04-3.03663E-04
 -1      3954 0.00000E+00 0.00000E+00 0.00000E+00
 -1      3955-5.65380E-05 1.68259E-04-1.42270E-04
 -1      3956-1.64970E-04 5.51914E-04-4.78427E-04
 -1      3957-1.78084E-04 1.63234E-03-6.83107E-04
 -1      3958-1.29214E-04 1.68165E-03-6.76985E-04
 -1      3959-1.49537E-04 1.00387E-03-4.88908E-04
 -1      3960-2.73162E-04 1.70195E-03-1.06921E-03
 -1      3961-2.06249E-04 3.23760E-03-1.07336E-03
 -1      3962-1.52292E-04 3.30355E-03-1.06731E-03
 -1      3963-1.96455E-04 2.37963E-03-8.79014E-04
 -1      3964-3.17008E-04 3.31431E-03-1.67525E-03
 -1      3965-2.07968E-04 5.25858E-03-1.44206E-03
 -1      3966-1.55222E-04 5.33414E-03-1.43913E-03
 -1      3967-2.09389E-04 4.19917E-03-1.26141E-03
 -1      3968-3.20655E-04 5.33050E-03-2.24497E-03
 -1      3969-1.97014E-04 7.65520E-03-1.77875E-03
 -1      3970-1.47670E-04 7.73410E-03-1.77887E-03
 -1      3971-2.03560E-04 6.41196E-03-1.61463E-03
 -1      3972-3.04873E-04 7.71993E-03-2.76564E-03
 -1      3973-1.80224E-04 1.03967E-02-2.08182E-03
 -1      3974-1.35313E-04 1.04743E-02-2.08433E-03
 -1      3975-1.89081E-04 8.98471E-03-1.93446E-03
 -1      3976-2.80025E-04 1.04544E-02-3.23615E-03
 -1      3977-1.61030E-04 1.34530E-02-2.35209E-03
 -1      3978-1.20944E-04 1.35263E-02-2.35621E-03
 -1      3979-1.70807E-04 1.18874E-02-2.22103E-03
 -1      3980-2.51395E-04 1.35041E-02-3.65755E-03
 -1      3981-1.40954E-04 1.67939E-02-2.59016E-03
 -1      3982-1.05854E-04 1.68609E-02-2.59528E-03
 -1      3983-1.51049E-04 1.50899E-02-2.47513E-03
 -1      3984-2.21351E-04 1.68387E-02-4.03069E-03
 -1      3985-1.20649E-04 2.03882E-02-2.79635E-03
 -1      3986-9.05826E-05 2.04479E-02-2.80206E-03
 -1      3987-1.30809E-04 1.85614E-02-2.69723E-03
 -1      3988-1.90926E-04 2.04267E-02-4.35598E-03
 -1      3989-1.00360E-04 2.42045E-02-2.97078E-03
 -1      3990-7.53309E-05 2.42561E-02-2.97682E-03
 -1      3991-1.10496E-04 2.22706E-02-2.88753E-03
 -1      3992-1.60507E-04 2.42368E-02-4.63361E-03
 -1      3993-8.01562E-05 2.82111E-02-3.11349E-03
 -1      3994-6.01534E-05 2.82544E-02-3.11971E-03
 -1      3995-9.02464E-05 2.61860E-02-3.04610E-03
 -1      3996-1.30209E-04 2.82373E-02-4.86361E-03
 -1      3997-6.00379E-05 3.23765E-02-3.22448E-03
 -1      3998-4.50490E-05 3.24112E-02-3.23080E-03
 -1      3999-7.00871E-05 3.02760E-02-3.17295E-03
 -1      4000-1.00036E-04 3.23964E-02-5.04602E-03
 -1      4001-3.99854E-05 3.66688E-02-3.30375E-03
 -1      4002-3.00003E-05 3.66949E-02-3.31011E-03
 -1      4003-5.00046E-05 3.45087E-02-3.26808E-03
 -1      4004-6.99604E-05 3.66825E-02-5.18083E-03
 -1      4005-1.99768E-05 4.10563E-02-3.35129E-03
 -1      4006-1.49884E-05 4.10737E-02-3.35768E-03
 -1      4007-2.99768E-05 3.88526E-02-3.33149E-03
 -1      4008-3.99500E-05 4.10638E-02-5.26804E-03
 -1      4009 6.08748E-09 4.55073E-02-3.36710E-03
 -1      4010 2.11959E-09 4.55160E-02-3.37350E-03
 -1      4011-9.98309E-06 4.32758E-02-3.36316E-03
 -1      4012-9.97757E-06 4.55085E-02-5.30765E-03
 -1      4013 1.99780E-05 4.99900E-02-3.35117E-03
 -1      4014 1.49834E-05 4.99900E-02-3.35757E-03
 -1      4015 9.99261E-06 4.77467E-02-3.36311E-03
 -1      4016 1.99782E-05 4.99850E-02-5.29966E-03
 -1      4017 3.99516E-05 5.44727E-02-3.30352E-03
 -1      4018 2.99663E-05 5.44640E-02-3.30991E-03
 -1      4019 2.99637E-05 5.22334E-02-3.33131E-03
 -1      4020 4.99359E-05 5.44615E-02-5.24406E-03
 -1      4021 5.99411E-05 5.89237E-02-3.22412E-03
 -1      4022 4.49623E-05 5.89063E-02-3.23051E-03
 -1      4023 4.99433E-05 5.67042E-02-3.26779E-03
 -1      4024 7.99150E-05 5.89063E-02-5.14087E-03
 -1      4025 7.99646E-05 6.33112E-02-3.11299E-03
 -1      4026 5.99870E-05 6.32851E-02-3.11936E-03
 -1      4027 6.99471E-05 6.11274E-02-3.17252E-03
 -1      4028 1.09941E-04 6.32875E-02-4.99007E-03
 -1      4029 1.00048E-04 6.76035E-02-2.97012E-03
 -1      4030 7.50614E-05 6.75687E-02-2.97644E-03
 -1      4031 8.99966E-05 6.54712E-02-3.04553E-03
 -1      4032 1.40046E-04 6.75736E-02-4.79166E-03
 -1      4033 1.20223E-04 7.17688E-02-2.79551E-03
 -1      4034 9.02138E-05 7.17255E-02-2.80172E-03
 -1      4035 1.10121E-04 6.97040E-02-2.88679E-03
 -1      4036 1.70275E-04 7.17327E-02-4.54565E-03
 -1      4037 1.40527E-04 7.57754E-02-2.58914E-03
 -1      4038 1.05475E-04 7.57238E-02-2.59514E-03
 -1      4039 1.30357E-04 7.37939E-02-2.69630E-03
 -1      4040 2.00671E-04 7.57331E-02-4.25200E-03
 -1      4041 1.60977E-04 7.95916E-02-2.35097E-03
 -1      4042 1.20860E-04 7.95319E-02-2.35658E-03
 -1      4043 1.50734E-04 7.77093E-02-2.47403E-03
 -1      4044 2.31245E-04 7.95430E-02-3.91069E-03
 -1      4045 1.81518E-04 8.31858E-02-2.08091E-03
 -1      4046 1.36327E-04 8.31187E-02-2.08584E-03
 -1      4047 1.71245E-04 8.14184E-02-2.21994E-03
 -1      4048 2.61895E-04 8.31309E-02-3.52160E-03
 -1      4049 2.01896E-04 8.65265E-02-1.77876E-03
 -1      4050 1.51663E-04 8.64532E-02-1.78253E-03
 -1      4051 1.91758E-04 8.48897E-02-1.93388E-03
 -1      4052 2.92218E-04 8.64652E-02-3.08452E-03
 -1      4053 2.21375E-04 8.95828E-02-1.44411E-03
 -1      4054 1.66256E-04 8.95051E-02-1.44600E-03
 -1      4055 2.11828E-04 8.80921E-02-1.61556E-03
 -1      4056 3.21097E-04 8.95148E-02-2.59893E-03
 -1      4057 2.38192E-04 9.23243E-02-1.07630E-03
 -1      4058 1.78607E-04 9.22453E-02-1.07542E-03
 -1      4059 2.30305E-04 9.09947E-02-1.26444E-03
 -1      4060 3.45917E-04 9.22493E-02-2.06394E-03
 -1      4061 2.48331E-04 9.47215E-02-6.74563E-04
 -1      4062 1.85441E-04 9.46459E-02-6.70207E-04
 -1      4063 2.44494E-04 9.35677E-02-8.79686E-04
 -1      4064 3.60818E-04 9.46396E-02-1.47851E-03
 -1      4065 2.43813E-04 9.67443E-02-2.40988E-04
 -1      4066 1.80133E-04 9.66782E-02-2.33180E-04
 -1      4067 2.48712E-04 9.57816E-02-4.61396E-04
 -1      4068 3.54318E-04 9.66582E-02-8.44049E-04
 -1      4069 2.08749E-04 9.83533E-02 2.12555E-04
 -1      4070 1.51552E-04 9.83038E-02 2.20183E-04
 -1      4071 2.31220E-04 9.76038E-02-1.45840E-05
 -1      4072 3.03577E-04 9.82761E-02-1.74475E-04
 -1      4073 1.25210E-04 9.94814E-02 6.47581E-04
 -1      4074 8.95071E-05 9.94548E-02 6.50505E-04
 -1      4075 1.74619E-04 9.89846E-02 4.36738E-04
 -1      4076 1.82417E-04 9.94357E-02 4.74795E-04
 -1      4077 0.00000E+00 1.00000E-01 1.00000E-03
 -1      4078 0.00000E+00 1.00000E-01 1.00000E-03
 -1      4079 6.55763E-05 9.98276E-02 8.36083E-04
 -1      4080 0.00000E+00 1.00000E-01 1.00000E-03
 -1      4081 0.00000E+00 0.00000E+00 0.00000E+00
 -1      4082-1.95082E-04 4.12793E-04-3.28333E-04
 -1      4083 0.00000E+00 0.00000E+00 0.00000E+00
 -1      4084-1.45678E-04 4.71325E-04-3.11932E-04
 -1      4085 0.00000E+00 0.00000E+00 0.00000E+00
 -1      4086-9.99046E-05 1.21024E-04-1.45645E-04
 -1      4087-2.99831E-04 4.53082E-04-5.13002E-04
 -1      4088-2.89504E-04 1.46641E-03-7.08127E-04
 -1      4089-2.31988E-04 1.56290E-03-6.93835E-04
 -1      4090-2.52686E-04 8.69553E-04-5.14794E-04
 -1      4091-4.44313E-04 1.53316E-03-1.10757E-03
 -1      4092-3.19042E-04 3.02591E-03-1.09060E-03
 -1      4093-2.62064E-04 3.14709E-03-1.08109E-03
 -1      4094-3.10514E-04 2.18768E-03-9.02011E-04
 -1      4095-4.90604E-04 3.09944E-03-1.70164E-03
 -1      4096-3.14360E-04 5.02530E-03-1.44702E-03
 -1      4097-2.61307E-04 5.15689E-03-1.44517E-03
 -1      4098-3.19416E-04 3.97392E-03-1.27239E-03
 -1      4099-4.84923E-04 5.09482E-03-2.25290E-03
 -1      4100-2.95140E-04 7.41810E-03-1.77400E-03
 -1      4101-2.46284E-04 7.55068E-03-1.77749E-03
 -1      4102-3.05954E-04 6.17488E-03-1.61433E-03
 -1      4103-4.56935E-04 7.48132E-03-2.75910E-03
 -1      4104-2.69253E-04 1.01676E-02-2.07053E-03
 -1      4105-2.24933E-04 1.02949E-02-2.07752E-03
 -1      4106-2.82725E-04 8.75043E-03-1.92606E-03
 -1      4107-4.18521E-04 1.02244E-02-3.21991E-03
 -1      4108-2.40527E-04 1.32394E-02-2.33676E-03
 -1      4109-2.00917E-04 1.33577E-02-2.34584E-03
 -1      4110-2.55108E-04 1.16653E-02-2.20745E-03
 -1      4111-3.75620E-04 1.32900E-02-3.63531E-03
 -1      4112-2.10676E-04 1.65999E-02-2.57246E-03
 -1      4113-1.75906E-04 1.67071E-02-2.58274E-03
 -1      4114-2.25678E-04 1.48856E-02-2.45844E-03
 -1      4115-3.30923E-04 1.66444E-02-4.00493E-03
 -1      4116-1.80474E-04 2.02164E-02-2.77731E-03
 -1      4117-1.50617E-04 2.03111E-02-2.78826E-03
 -1      4118-1.95592E-04 1.83782E-02-2.67876E-03
 -1      4119-2.85653E-04 2.02548E-02-4.32826E-03
 -1      4120-1.50232E-04 2.40562E-02-2.95102E-03
 -1      4121-1.25329E-04 2.41379E-02-2.96233E-03
 -1      4122-1.65348E-04 2.21104E-02-2.86807E-03
 -1      4123-2.40306E-04 2.40884E-02-4.60482E-03
 -1      4124-1.20054E-04 2.80871E-02-3.09336E-03
 -1      4125-1.00123E-04 2.81554E-02-3.10484E-03
 -1      4126-1.35133E-04 2.60497E-02-3.02612E-03
 -1      4127-1.95047E-04 2.81131E-02-4.83427E-03
 -1      4128-8.99557E-05 3.22770E-02-3.20417E-03
 -1      4129-7.50067E-05 3.23318E-02-3.21574E-03
 -1      4130-1.04995E-04 3.01642E-02-3.15271E-03
 -1      4131-1.49905E-04 3.22969E-02-5.01641E-03
 -1      4132-5.99238E-05 3.65941E-02-3.28335E-03
 -1      4133-4.99597E-05 3.66352E-02-3.29496E-03
 -1      4134-7.49326E-05 3.44216E-02-3.24771E-03
 -1      4135-1.04861E-04 3.66078E-02-5.15109E-03
 -1      4136-2.99378E-05 4.10065E-02-3.33084E-03
 -1      4137-2.49598E-05 4.10339E-02-3.34247E-03
 -1      4138-4.49262E-05 3.87904E-02-3.31106E-03
 -1      4139-5.98852E-05 4.10139E-02-5.23824E-03
 -1      4140 2.08208E-08 4.54824E-02-3.34664E-03
 -1      4141 1.23807E-08 4.54961E-02-3.35827E-03
 -1      4142-1.49560E-05 4.32385E-02-3.34271E-03
 -1      4143-1.49497E-05 4.54836E-02-5.27782E-03
 -1      4144 2.99674E-05 4.99900E-02-3.33070E-03
 -1      4145 2.49726E-05 4.99900E-02-3.34234E-03
 -1      4146 1.49948E-05 4.77342E-02-3.34264E-03
 -1      4147 2.99678E-05 4.99850E-02-5.26982E-03
 -1      4148 5.99158E-05 5.44977E-02-3.28305E-03
 -1      4149 4.99347E-05 5.44839E-02-3.29469E-03
 -1      4150 4.49405E-05 5.22458E-02-3.31084E-03
 -1      4151 7.48873E-05 5.44864E-02-5.21423E-03
 -1      4152 8.98813E-05 5.89735E-02-3.20367E-03
 -1      4153 7.49138E-05 5.89461E-02-3.21530E-03
 -1      4154 7.48953E-05 5.67416E-02-3.24732E-03
 -1      4155 1.19830E-04 5.89561E-02-5.11106E-03
 -1      4156 1.19883E-04 6.33859E-02-3.09258E-03
 -1      4157 9.99296E-05 6.33448E-02-3.10419E-03
 -1      4158 1.04876E-04 6.11897E-02-3.15208E-03
 -1      4159 1.64822E-04 6.33622E-02-4.96032E-03
 -1      4160 1.49948E-04 6.77030E-02-2.94980E-03
 -1      4161 1.25009E-04 6.76482E-02-2.96138E-03
 -1      4162 1.34905E-04 6.55584E-02-3.02515E-03
 -1      4163 2.09898E-04 6.76731E-02-4.76205E-03
 -1      4164 1.80107E-04 7.18929E-02-2.77539E-03
 -1      4165 1.50187E-04 7.18246E-02-2.78687E-03
 -1      4166 1.65013E-04 6.98158E-02-2.86654E-03
 -1      4167 2.55100E-04 7.18568E-02-4.51632E-03
 -1      4168 2.10393E-04 7.59237E-02-2.56943E-03
 -1      4169 1.75500E-04 7.58420E-02-2.58072E-03
 -1      4170 1.95233E-04 7.39302E-02-2.67635E-03
 -1      4171 3.00463E-04 7.58814E-02-4.22326E-03
 -1      4172 2.40811E-04 7.97634E-02-2.33208E-03
 -1      4173 2.00964E-04 7.96687E-02-2.34297E-03
 -1      4174 2.25588E-04 7.78695E-02-2.45467E-03
 -1      4175 3.45978E-04 7.97150E-02-3.88311E-03
 -1      4176 2.71275E-04 8.33798E-02-2.06354E-03
 -1      4177 2.26512E-04 8.32726E-02-2.07368E-03
 -1      4178 2.56049E-04 8.16015E-02-2.20169E-03
 -1      4179 3.91491E-04 8.33252E-02-3.49619E-03
 -1      4180 3.01467E-04 8.67402E-02-1.76413E-03
 -1      4181 2.51858E-04 8.66219E-02-1.77289E-03
 -1      4182 2.86441E-04 8.50940E-02-1.91767E-03
 -1      4183 4.36495E-04 8.66794E-02-3.06297E-03
 -1      4184 3.30535E-04 8.98119E-02-1.43413E-03
 -1      4185 2.76203E-04 8.96845E-02-1.44049E-03
 -1      4186 3.16229E-04 8.83142E-02-1.60294E-03
 -1      4187 4.79680E-04 8.97448E-02-2.58400E-03
 -1      4188 3.56516E-04 9.25615E-02-1.07381E-03
 -1      4189 2.97622E-04 9.24289E-02-1.07618E-03
 -1      4190 3.44113E-04 9.12290E-02-1.25777E-03
 -1      4191 5.18103E-04 9.24881E-02-2.05967E-03
 -1      4192 3.74954E-04 9.49549E-02-6.83138E-04
 -1      4193 3.11839E-04 9.48233E-02-6.79419E-04
 -1      4194 3.67111E-04 9.38049E-02-8.82278E-04
 -1      4195 5.45202E-04 9.48755E-02-1.49004E-03
 -1      4196 3.76676E-04 9.69561E-02-2.63375E-04
 -1      4197 3.09592E-04 9.68349E-02-2.51000E-04
 -1      4198 3.78947E-04 9.60070E-02-4.76777E-04
 -1      4199 5.47831E-04 9.68734E-02-8.75568E-04
 -1      4200 3.38931E-04 9.85194E-02 1.81873E-04
 -1      4201 2.71753E-04 9.84228E-02 1.99401E-04
 -1      4202 3.64984E-04 9.77960E-02-4.33108E-05
 -1      4203 4.93338E-04 9.84452E-02-2.18505E-04
 -1      4204 2.26770E-04 9.95793E-02 6.20859E-04
 -1      4205 1.69423E-04 9.95207E-02 6.40341E-04
 -1      4206 2.94723E-04 9.91191E-02 4.05511E-04
 -1      4207 3.31295E-04 9.95347E-02 4.35837E-04
 -1      4208 0.00000E+00 1.00000E-01 1.00000E-03
 -1      4209 0.00000E+00 1.00000E-01 1.00000E-03
 -1      4210 1.15785E-04 9.98749E-02 8.31765E-04
 -1      4211 0.00000E+00 1.00000E-01 1.00000E-03
 -1      4212 0.00000E+00 0.00000E+00 0.00000E+00
 -1      4213-3.15430E-04 1.95250E-04-4.15153E-04
 -1      4214 0.00000E+00 0.00000E+00 0.00000E+00
 -1      4215-2.45656E-04 3.32591E-04-3.49367E-04
 -1      4216 0.00000E+00 0.00000E+00 0.00000E+00
 -1      4217-2.06333E-04-1.40619E-05-2.15924E-04
 -1      4218-4.83851E-04 2.36205E-04-6.46267E-04
 -1      4219-4.09450E-04 1.14533E-03-7.57167E-04
 -1      4220-3.53146E-04 1.33212E-03-7.32248E-04
 -1      4221-3.78912E-04 5.91414E-04-5.88302E-04
 -1      4222-6.28863E-04 1.21313E-03-1.18320E-03
 -1      4223-4.30209E-04 2.66159E-03-1.10285E-03
 -1      4224-3.75436E-04 2.86762E-03-1.09939E-03
 -1      4225-4.25643E-04 1.83880E-03-9.30212E-04
 -1      4226-6.62289E-04 2.73586E-03-1.72134E-03
 -1      4227-4.17322E-04 4.65319E-03-1.43942E-03
 -1      4228-3.66759E-04 4.85916E-03-1.44611E-03
 -1      4229-4.26098E-04 3.60246E-03-1.27353E-03
 -1      4230-6.44500E-04 4.72311E-03-2.24241E-03
 -1      4231-3.90473E-04 7.05772E-03-1.75452E-03
 -1      4232-3.43281E-04 7.25480E-03-1.76693E-03
 -1      4233-4.05118E-04 5.80676E-03-1.59992E-03
 -1      4234-6.05085E-04 7.12115E-03-2.73049E-03
 -1      4235-3.56335E-04 9.82996E-03-2.04452E-03
 -1      4236-3.13088E-04 1.00132E-02-2.05989E-03
 -1      4237-3.73981E-04 8.40039E-03-1.90283E-03
 -1      4238-5.54260E-04 9.88691E-03-3.18135E-03
 -1      4239-3.18785E-04 1.29305E-02-2.30721E-03
 -1      4240-2.79818E-04 1.30972E-02-2.32411E-03
 -1      4241-3.37830E-04 1.13415E-02-2.17938E-03
 -1      4242-4.98075E-04 1.29812E-02-3.59138E-03
 -1      4243-2.79651E-04 1.63229E-02-2.54106E-03
 -1      4244-2.45253E-04 1.64720E-02-2.55871E-03
 -1      4245-2.99331E-04 1.45924E-02-2.42781E-03
 -1      4246-4.39421E-04 1.63675E-02-3.95823E-03
 -1      4247-2.39868E-04 1.99729E-02-2.74501E-03
 -1      4248-2.10219E-04 2.01037E-02-2.76300E-03
 -1      4249-2.59799E-04 1.81178E-02-2.64682E-03
 -1      4250-3.79760E-04 2.00114E-02-4.28019E-03
 -1      4251-1.99864E-04 2.38470E-02-2.91829E-03
 -1      4252-1.75073E-04 2.39593E-02-2.93643E-03
 -1      4253-2.19874E-04 2.18840E-02-2.83551E-03
 -1      4254-3.19760E-04 2.38793E-02-4.55611E-03
 -1      4255-1.59823E-04 2.79126E-02-3.06045E-03
 -1      4256-1.39951E-04 2.80062E-02-3.07863E-03
 -1      4257-1.79840E-04 2.58579E-02-2.99328E-03
 -1      4258-2.59701E-04 2.79387E-02-4.78530E-03
 -1      4259-1.19807E-04 3.21374E-02-3.17118E-03
 -1      4260-1.04887E-04 3.22122E-02-3.18938E-03
 -1      4261-1.39809E-04 3.00071E-02-3.11975E-03
 -1      4262-1.99679E-04 3.21573E-02-4.96733E-03
 -1      4263-7.98289E-05 3.64893E-02-3.25034E-03
 -1      4264-6.98790E-05 3.65455E-02-3.26853E-03
 -1      4265-9.98124E-05 3.42995E-02-3.21471E-03
 -1      4266-1.39715E-04 3.65030E-02-5.10198E-03
 -1      4267-3.98828E-05 4.09366E-02-3.29783E-03
 -1      4268-3.49114E-05 4.09741E-02-3.31602E-03
 -1      4269-5.98520E-05 3.87031E-02-3.27805E-03
 -1      4270-7.97983E-05 4.09441E-02-5.18913E-03
 -1      4271 4.22952E-08 4.54475E-02-3.31362E-03
 -1      4272 3.10801E-08 4.54662E-02-3.33181E-03
 -1      4273-1.99181E-05 4.31861E-02-3.30969E-03
 -1      4274-1.99128E-05 4.54487E-02-5.22871E-03
 -1      4275 3.99578E-05 4.99900E-02-3.29769E-03
 -1      4276 3.49625E-05 4.99900E-02-3.31588E-03
 -1      4277 2.00006E-05 4.77167E-02-3.30962E-03
 -1      4278 3.99583E-05 4.99850E-02-5.22071E-03
 -1      4279 7.98751E-05 5.45326E-02-3.25003E-03
 -1      4280 6.98956E-05 5.45139E-02-3.26822E-03
 -1      4281 5.99154E-05 5.22633E-02-3.27783E-03
 -1      4282 9.98313E-05 5.45213E-02-5.16512E-03
 -1      4283 1.19806E-04 5.90434E-02-3.17064E-03
 -1      4284 1.04845E-04 5.90060E-02-3.18884E-03
 -1      4285 9.98379E-05 5.67939E-02-3.21430E-03
 -1      4286 1.59723E-04 5.90259E-02-5.06194E-03
 -1      4287 1.59767E-04 6.34907E-02-3.05955E-03
 -1      4288 1.39827E-04 6.34345E-02-3.07775E-03
 -1      4289 1.39781E-04 6.12769E-02-3.11906E-03
 -1      4290 2.19654E-04 6.34670E-02-4.91119E-03
 -1      4291 1.99773E-04 6.78426E-02-2.91678E-03
 -1      4292 1.74866E-04 6.77678E-02-2.93500E-03
 -1      4293 1.79762E-04 6.56805E-02-2.99212E-03
 -1      4294 2.79647E-04 6.78127E-02-4.71294E-03
 -1      4295 2.39843E-04 7.20674E-02-2.74243E-03
 -1      4296 2.09987E-04 7.19738E-02-2.76064E-03
 -1      4297 2.19798E-04 6.99729E-02-2.83355E-03
 -1      4298 3.39720E-04 7.20312E-02-4.46730E-03
 -1      4299 2.79976E-04 7.61329E-02-2.53665E-03
 -1      4300 2.45211E-04 7.60206E-02-2.55482E-03
 -1      4301 2.59900E-04 7.41220E-02-2.64345E-03
 -1      4302 3.99866E-04 7.60905E-02-4.17451E-03
 -1      4303 3.20128E-04 8.00069E-02-2.29973E-03
 -1      4304 2.80522E-04 7.98761E-02-2.31777E-03
 -1      4305 3.00052E-04 7.80958E-02-2.42205E-03
 -1      4306 4.60003E-04 7.99584E-02-3.83500E-03
 -1      4307 3.60126E-04 8.36567E-02-2.03216E-03
 -1      4308 3.15802E-04 8.35076E-02-2.04986E-03
 -1      4309 3.40157E-04 8.18619E-02-2.16973E-03
 -1      4310 5.19857E-04 8.36020E-02-3.44951E-03
 -1      4311 3.99531E-04 8.70490E-02-1.73475E-03
 -1      4312 3.50685E-04 8.68823E-02-1.75166E-03
 -1      4313 3.79936E-04 8.53872E-02-1.88711E-03
 -1      4314 5.78738E-04 8.69881E-02-3.01924E-03
 -1      4315 4.37325E-04 9.01494E-02-1.40869E-03
 -1      4316 3.84270E-04 8.99663E-02-1.42393E-03
 -1      4317 4.18708E-04 8.86379E-02-1.57520E-03
 -1      4318 6.35096E-04 9.00822E-02-2.54606E-03
 -1      4319 4.71453E-04 9.29217E-02-1.05572E-03
 -1      4320 4.14533E-04 9.27247E-02-1.06767E-03
 -1      4321 4.55018E-04 9.15789E-02-1.23544E-03
 -1      4322 6.85803E-04 9.28480E-02-2.03250E-03
 -1      4323 4.97454E-04 9.53268E-02-6.78512E-04
 -1      4324 4.37265E-04 9.51210E-02-6.83991E-04
 -1      4325 4.85828E-04 9.41728E-02-8.69924E-04
 -1      4326 7.24229E-04 9.52468E-02-1.48260E-03
 -1      4327 5.07564E-04 9.73201E-02-2.81345E-04
 -1      4328 4.43044E-04 9.71144E-02-2.75230E-04
 -1      4329 5.05180E-04 9.63782E-02-4.82111E-04
 -1      4330 7.39116E-04 9.72365E-02-9.01014E-04
 -1      4331 4.79037E-04 9.88401E-02 1.21983E-04
 -1      4332 4.13199E-04 9.86536E-02 1.52635E-04
 -1      4333 4.99984E-04 9.81445E-02-7.94674E-05
 -1      4334 6.97917E-04 9.87648E-02-3.04921E-04
 -1      4335 3.66552E-04 9.97966E-02 5.18544E-04
 -1      4336 2.85449E-04 9.96594E-02 5.95803E-04
 -1      4337 4.41742E-04 9.93970E-02 3.17857E-04
 -1      4338 5.34641E-04 9.97514E-02 2.87199E-04
 -1      4339 0.00000E+00 1.00000E-01 1.00000E-03
 -1      4340 0.00000E+00 1.00000E-01 1.00000E-03
 -1      4341 2.39285E-04 1.00010E-01 7.49546E-04
 -1      4342 0.00000E+00 1.00000E-01 1.00000E-03
 -1      4343 0.00000E+00 0.00000E+00 0.00000E+00
 -1      4344-2.56596E-05 1.66691E-04 3.30604E-05
 -1      4345 0.00000E+00 0.00000E+00 0.00000E+00
 -1      4346-1.59415E-05 3.84320E-04 2.52650E-05
 -1      4347 0.00000E+00 0.00000E+00 0.00000E+00
 -1      4348-1.65279E-05-2.77196E-05 1.72598E-05
 -1      4349 1.44687E-04 1.72480E-04-1.89492E-04
 -1      4350 0.00000E+00 0.00000E+00 0.00000E+00
 -1      4351-1.99941E-05 3.04066E-04 2.72815E-05
 -1      4352 0.00000E+00 0.00000E+00 0.00000E+00
 -1      4353-7.98276E-06 1.07433E-04 1.12611E-05
 -1      4354 8.97565E-05 3.90147E-04-1.49854E-04
 -1      4355-3.49984E-05 1.09628E-03 6.00965E-05
 -1      4356-2.48795E-05 1.41814E-03 5.46501E-05
 -1      4357-3.15918E-05 5.50998E-04 4.67276E-05
 -1      4358 1.87646E-04 1.10637E-03-3.45006E-04
 -1      4359-3.02163E-05 1.28413E-03 5.72147E-05
 -1      4360-2.11557E-05 8.29744E-04 3.96106E-05
 -1      4361 1.32819E-04 1.42800E-03-3.23071E-04
 -1      4362-3.88956E-05 2.60829E-03 8.87918E-05
 -1      4363-2.89889E-05 2.97334E-03 8.59416E-05
 -1      4364-3.73925E-05 1.78654E-03 7.42222E-05
 -1      4365 1.96116E-04 2.61931E-03-5.02609E-04
 -1      4366-3.40027E-05 2.81534E-03 8.74750E-05
 -1      4367-2.74107E-05 2.13618E-03 7.02391E-05
 -1      4368 1.45539E-04 2.98412E-03-4.97899E-04
 -1      4369-4.02387E-05 4.60317E-03 1.19111E-04
 -1      4370-3.04334E-05 4.97571E-03 1.17645E-04
 -1      4371-3.97402E-05 3.55023E-03 1.03826E-04
 -1      4372 1.88872E-04 4.61323E-03-6.55496E-04
 -1      4373-3.54104E-05 4.80983E-03 1.18521E-04
 -1      4374-2.99226E-05 3.92225E-03 1.01750E-04
 -1      4375 1.42326E-04 4.98562E-03-6.60058E-04
 -1      4376-4.06057E-05 7.01296E-03 1.50259E-04
 -1      4377-3.07794E-05 7.37357E-03 1.49593E-04
 -1      4378-4.04987E-05 5.75930E-03 1.34608E-04
 -1      4379 1.75129E-04 7.02166E-03-7.97432E-04
 -1      4380-3.57317E-05 7.21043E-03 1.50047E-04
 -1      4381-3.06925E-05 6.12772E-03 1.33607E-04
 -1      4382 1.32411E-04 7.38218E-03-8.07556E-04
 -1      4383-4.05640E-05 9.79050E-03 1.81850E-04
 -1      4384-3.06957E-05 1.01283E-02 1.81586E-04
 -1      4385-4.06087E-05 8.35832E-03 1.66020E-04
 -1      4386 1.57996E-04 9.79783E-03-9.26638E-04
 -1      4387-3.56535E-05 9.97393E-03 1.81802E-04
 -1      4388-3.07656E-05 8.70853E-03 1.65591E-04
 -1      4389 1.19417E-04 1.01356E-02-9.39840E-04
 -1      4390-4.04104E-05 1.28960E-02 2.13627E-04
 -1      4391-3.05000E-05 1.32050E-02 2.13552E-04
 -1      4392-4.04906E-05 1.13045E-02 1.97724E-04
 -1      4393 1.39249E-04 1.29021E-02-1.04205E-03
 -1      4394-3.54675E-05 1.30630E-02 2.13642E-04
 -1      4395-3.06015E-05 1.16285E-02 1.97575E-04
 -1      4396 1.05096E-04 1.32111E-02-1.05694E-03
 -1      4397-4.02563E-05 1.62934E-02 2.45467E-04
 -1      4398-3.03142E-05 1.65705E-02 2.45470E-04
 -1      4399-4.03293E-05 1.45604E-02 2.29543E-04
 -1      4400 1.19733E-04 1.62982E-02-1.14302E-03
 -1      4401-3.52913E-05 1.64426E-02 2.45499E-04
 -1      4402-3.04022E-05 1.48537E-02 2.29517E-04
 -1      4403 9.02297E-05 1.65753E-02-1.15880E-03
 -1      4404-4.01382E-05 1.99482E-02 2.77318E-04
 -1      4405-3.01749E-05 2.01918E-02 2.77344E-04
 -1      4406-4.01919E-05 1.80907E-02 2.61393E-04
 -1      4407 9.98861E-05 1.99519E-02-1.22904E-03
 -1      4408-3.51591E-05 2.00791E-02 2.77347E-04
 -1      4409-3.02381E-05 1.83512E-02 2.61412E-04
 -1      4410 7.51784E-05 2.01954E-02-1.24526E-03
 -1      4411-4.00589E-05 2.38272E-02 3.09158E-04
 -1      4412-3.00827E-05 2.40364E-02 3.09186E-04
 -1      4413-4.00940E-05 2.18618E-02 2.93239E-04
 -1      4414 7.99155E-05 2.38297E-02-1.29975E-03
 -1      4415-3.50717E-05 2.39395E-02 3.09180E-04
 -1      4416-3.01234E-05 2.20882E-02 2.93268E-04
 -1      4417 6.00914E-05 2.40389E-02-1.31618E-03
 -1      4418-4.00104E-05 2.78977E-02 3.40985E-04
 -1      4419-3.00269E-05 2.80722E-02 3.41007E-04
 -1      4420-4.00314E-05 2.58406E-02 3.25073E-04
 -1      4421 5.99139E-05 2.78989E-02-1.35490E-03
 -1      4422-3.50188E-05 2.79913E-02 3.40999E-04
 -1      4423-3.00509E-05 2.60324E-02 3.25098E-04
 -1      4424 4.50230E-05 2.80734E-02-1.37143E-03
 -1      4425-3.99828E-05 3.21275E-02 3.72799E-04
 -1      4426-2.99955E-05 3.22671E-02 3.72814E-04
 -1      4427-3.99945E-05 2.99947E-02 3.56893E-04
 -1      4428 3.99164E-05 3.21274E-02-1.39435E-03
 -1      4429-3.49890E-05 3.22023E-02 3.72808E-04
 -1      4430-3.00087E-05 3.01518E-02 3.56912E-04
 -1      4431 2.99854E-05 3.22671E-02-1.41092E-03
 -1      4432-3.99683E-05 3.64844E-02 4.04605E-04
 -1      4433-2.99791E-05 3.65891E-02 4.04615E-04
 -1      4434-3.99743E-05 3.42920E-02 3.88703E-04
 -1      4435 1.99328E-05 3.64831E-02-1.41803E-03
 -1      4436-3.49735E-05 3.65405E-02 4.04610E-04
 -1      4437-2.99859E-05 3.44142E-02 3.88715E-04
 -1      4438 1.49752E-05 3.65879E-02-1.43461E-03
 -1      4439-3.99612E-05 4.09367E-02 4.36406E-04
 -1      4440-2.99713E-05 4.10065E-02 4.36411E-04
 -1      4441-3.99641E-05 3.87006E-02 4.20506E-04
 -1      4442-3.78891E-08 4.09342E-02-1.42587E-03
 -1      4443-3.49661E-05 4.09741E-02 4.36409E-04
 -1      4444-2.99744E-05 3.87879E-02 4.20513E-04
 -1      4445-1.52902E-08 4.10040E-02-1.44246E-03
 -1      4446-3.99582E-05 4.54525E-02 4.68204E-04
 -1      4447-2.99679E-05 4.54874E-02 4.68206E-04
 -1      4448-3.99594E-05 4.31886E-02 4.52305E-04
 -1      4449-1.99996E-05 4.54487E-02-1.41787E-03
 -1      4450-3.49629E-05 4.54712E-02 4.68205E-04
 -1      4451-2.99692E-05 4.32410E-02 4.52309E-04
 -1      4452-1.49937E-05 4.54836E-02-1.43446E-03
 -1      4453-3.99573E-05 5.00000E-02 5.00000E-04
 -1      4454-2.99670E-05 5.00000E-02 5.00000E-04
 -1      4455-3.99576E-05 4.77242E-02 4.84102E-04
 -1      4456-3.99575E-05 4.99950E-02-1.39401E-03
 -1      4457-3.49620E-05 5.00000E-02 5.00000E-04
 -1      4458-2.99672E-05 4.77417E-02 4.84103E-04
 -1      4459-2.99671E-05 4.99950E-02-1.41060E-03
 -1      4460-3.99582E-05 5.45475E-02 5.31796E-04
 -1      4461-2.99679E-05 5.45126E-02 5.31794E-04
 -1      4462-3.99576E-05 5.22758E-02 5.15898E-04
 -1      4463-5.99170E-05 5.45413E-02-1.35428E-03
 -1      4464-3.49629E-05 5.45288E-02 5.31795E-04
 -1      4465-2.99672E-05 5.22583E-02 5.15897E-04
 -1      4466-4.49423E-05 5.45064E-02-1.37087E-03
 -1      4467-3.99612E-05 5.90633E-02 5.63594E-04
 -1      4468-2.99713E-05 5.89935E-02 5.63589E-04
 -1      4469-3.99594E-05 5.68114E-02 5.47695E-04
 -1      4470-7.98849E-05 5.90558E-02-1.29869E-03
 -1      4471-3.49661E-05 5.90259E-02 5.63591E-04
 -1      4472-2.99692E-05 5.67590E-02 5.47691E-04
 -1      4473-5.99275E-05 5.89860E-02-1.31528E-03
 -1      4474-3.99683E-05 6.35156E-02 5.95395E-04
 -1      4475-2.99791E-05 6.34109E-02 5.95385E-04
 -1      4476-3.99641E-05 6.12994E-02 5.79494E-04
 -1      4477-9.98697E-05 6.35069E-02-1.22724E-03
 -1      4478-3.49735E-05 6.34595E-02 5.95390E-04
 -1      4479-2.99744E-05 6.12121E-02 5.79487E-04
 -1      4480-7.49337E-05 6.34021E-02-1.24384E-03
 -1      4481-3.99828E-05 6.78725E-02 6.27201E-04
 -1      4482-2.99955E-05 6.77329E-02 6.27186E-04
 -1      4483-3.99743E-05 6.57080E-02 6.11297E-04
 -1      4484-1.19882E-04 6.78626E-02-1.13995E-03
 -1      4485-3.49890E-05 6.77977E-02 6.27192E-04
 -1      4486-2.99859E-05 6.55858E-02 6.11285E-04
 -1      4487-8.99766E-05 6.77229E-02-1.15655E-03
 -1      4488-4.00104E-05 7.21023E-02 6.59015E-04
 -1      4489-3.00269E-05 7.19278E-02 6.58993E-04
 -1      4490-3.99945E-05 7.00053E-02 6.43107E-04
 -1      4491-1.39934E-04 7.20910E-02-1.03687E-03
 -1      4492-3.50188E-05 7.20087E-02 6.59001E-04
 -1      4493-3.00087E-05 6.98482E-02 6.43088E-04
 -1      4494-1.05076E-04 7.19165E-02-1.05345E-03
 -1      4495-4.00589E-05 7.61728E-02 6.90842E-04
 -1      4496-3.00827E-05 7.59636E-02 6.90814E-04
 -1      4497-4.00314E-05 7.41594E-02 6.74927E-04
 -1      4498-1.60032E-04 7.61603E-02-9.18074E-04
 -1      4499-3.50717E-05 7.60605E-02 6.90820E-04
 -1      4500-3.00509E-05 7.39676E-02 6.74902E-04
 -1      4501-1.20255E-04 7.59511E-02-9.34564E-04
 -1      4502-4.01382E-05 8.00518E-02 7.22682E-04
 -1      4503-3.01749E-05 7.98082E-02 7.22656E-04
 -1      4504-4.00940E-05 7.81382E-02 7.06761E-04
 -1      4505-1.80159E-04 8.00380E-02-7.83700E-04
 -1      4506-3.51591E-05 7.99209E-02 7.22653E-04
 -1      4507-3.01234E-05 7.79118E-02 7.06732E-04
 -1      4508-1.35524E-04 7.97945E-02-7.99972E-04
 -1      4509-4.02563E-05 8.37066E-02 7.54533E-04
 -1      4510-3.03142E-05 8.34295E-02 7.54530E-04
 -1      4511-4.01919E-05 8.19093E-02 7.38607E-04
 -1      4512-2.00237E-04 8.36916E-02-6.34002E-04
 -1      4513-3.52913E-05 8.35574E-02 7.54501E-04
 -1      4514-3.02381E-05 8.16488E-02 7.38588E-04
 -1      4515-1.50850E-04 8.34145E-02-6.49777E-04
 -1      4516-4.04104E-05 8.71040E-02 7.86373E-04
 -1      4517-3.05000E-05 8.67950E-02 7.86448E-04
 -1      4518-4.03293E-05 8.54396E-02 7.70457E-04
 -1      4519-2.20052E-04 8.70876E-02-4.69381E-04
 -1      4520-3.54675E-05 8.69370E-02 7.86358E-04
 -1      4521-3.04022E-05 8.51463E-02 7.70483E-04
 -1      4522-1.66079E-04 8.67787E-02-4.84113E-04
 -1      4523-4.05640E-05 9.02095E-02 8.18150E-04
 -1      4524-3.06957E-05 8.98717E-02 8.18414E-04
 -1      4525-4.04906E-05 8.86955E-02 8.02276E-04
 -1      4526-2.39090E-04 9.01918E-02-2.90459E-04
 -1      4527-3.56535E-05 9.00261E-02 8.18198E-04
 -1      4528-3.06015E-05 8.83715E-02 8.02425E-04
 -1      4529-1.80779E-04 8.98542E-02-3.03122E-04
 -1      4530-4.06057E-05 9.29870E-02 8.49741E-04
 -1      4531-3.07794E-05 9.26264E-02 8.50407E-04
 -1      4532-4.06087E-05 9.16417E-02 8.33980E-04
 -1      4533-2.56283E-04 9.29680E-02-9.81250E-05
 -1      4534-3.57317E-05 9.27896E-02 8.49953E-04
 -1      4535-3.07656E-05 9.12915E-02 8.34409E-04
 -1      4536-1.93921E-04 9.26076E-02-1.06904E-04
 -1      4537-4.02387E-05 9.53968E-02 8.80889E-04
 -1      4538-3.04334E-05 9.50243E-02 8.82355E-04
 -1      4539-4.04987E-05 9.42407E-02 8.65392E-04
 -1      4540-2.69262E-04 9.53767E-02 1.06062E-04
 -1      4541-3.54104E-05 9.51902E-02 8.81479E-04
 -1      4542-3.06925E-05 9.38723E-02 8.66393E-04
 -1      4543-2.03123E-04 9.50045E-02 1.04445E-04
 -1      4544-3.88956E-05 9.73917E-02 9.11208E-04
 -1      4545-2.89889E-05 9.70267E-02 9.14058E-04
 -1      4546-3.97402E-05 9.64498E-02 8.96174E-04
 -1      4547-2.73796E-04 9.73716E-02 3.19583E-04
 -1      4548-3.40027E-05 9.71847E-02 9.12525E-04
 -1      4549-2.99226E-05 9.60777E-02 8.98250E-04
 -1      4550-2.03431E-04 9.70069E-02 3.29999E-04
 -1      4551-3.49984E-05 9.89037E-02 9.39904E-04
 -1      4552-2.48795E-05 9.85819E-02 9.45350E-04
 -1      4553-3.73925E-05 9.82135E-02 9.25778E-04
 -1      4554-2.57538E-04 9.88864E-02 5.34647E-04
 -1      4555-3.02163E-05 9.87159E-02 9.42785E-04
 -1      4556-2.74107E-05 9.78638E-02 9.29761E-04
 -1      4557-1.82499E-04 9.85650E-02 5.67465E-04
 -1      4558-2.56596E-05 9.98333E-02 9.66940E-04
 -1      4559-1.59415E-05 9.96157E-02 9.74735E-04
 -1      4560-3.15918E-05 9.94490E-02 9.53272E-04
 -1      4561-1.95951E-04 9.98235E-02 7.44346E-04
 -1      4562-1.99941E-05 9.96959E-02 9.72719E-04
 -1      4563-2.11557E-05 9.91703E-02 9.60389E-04
 -1      4564-1.21591E-04 9.96060E-02 7.99549E-04
 -1      4565 0.00000E+00 1.00000E-01 1.00000E-03
 -1      4566 0.00000E+00 1.00000E-01 1.00000E-03
 -1      4567-1.65279E-05 1.00028E-01 9.82740E-04
 -1      4568 0.00000E+00 1.00000E-01 1.00000E-03
 -1      4569 0.00000E+00 1.00000E-01 1.00000E-03
 -1      4570-7.98276E-06 9.98926E-02 9.88739E-04
 -1      4571 0.00000E+00 1.00000E-01 1.00000E-03
 -1      4572 0.00000E+00 0.00000E+00 0.00000E+00
 -1      4573-8.86701E-06 4.81131E-04 2.30862E-05
 -1      4574 0.00000E+00 0.00000E+00 0.00000E+00
 -1      4575-1.19554E-05 4.42491E-04 2.37255E-05
 -1      4576 0.00000E+00 0.00000E+00 0.00000E+00
 -1      4577-4.55625E-06 1.54586E-04 1.07934E-05
 -1      4578 4.94925E-05 4.87187E-04-1.39750E-04
 -1      4579-1.54386E-05 1.58189E-03 5.18192E-05
 -1      4580-2.00186E-05 1.51369E-03 5.30315E-05
 -1      4581-1.26312E-05 9.62555E-04 3.69476E-05
 -1      4582 8.16492E-05 1.59211E-03-3.11866E-04
 -1      4583-1.88920E-05 3.18274E-03 8.33655E-05
 -1      4584-2.39059E-05 3.09350E-03 8.45099E-05
 -1      4585-1.74952E-05 2.32581E-03 6.73713E-05
 -1      4586 9.40454E-05 3.19394E-03-4.90408E-04
 -1      4587-2.02705E-05 5.20721E-03 1.15834E-04
 -1      4588-2.53789E-05 5.10652E-03 1.16712E-04
 -1      4589-1.97629E-05 4.14542E-03 9.95474E-05
 -1      4590 9.41426E-05 5.21747E-03-6.58388E-04
 -1      4591-2.06497E-05 7.60950E-03 1.48460E-04
 -1      4592-2.57459E-05 7.50564E-03 1.49031E-04
 -1      4593-2.05416E-05 6.36335E-03 1.32156E-04
 -1      4594 8.83804E-05 7.61837E-03-8.10494E-04
 -1      4595-2.06121E-05 1.03566E-02 1.80935E-04
 -1      4596-2.56810E-05 1.02553E-02 1.81276E-04
 -1      4597-2.06597E-05 8.94191E-03 1.64724E-04
 -1      4598 7.99312E-05 1.03641E-02-9.45876E-04
 -1      4599-2.04528E-05 1.34183E-02 2.13207E-04
 -1      4600-2.54953E-05 1.33232E-02 2.13394E-04
 -1      4601-2.05377E-05 1.18501E-02 1.97097E-04
 -1      4602 7.03649E-05 1.34245E-02-1.06489E-03
 -1      4603-2.02918E-05 1.67643E-02 2.45303E-04
 -1      4604-2.53150E-05 1.66775E-02 2.45397E-04
 -1      4605-2.03689E-05 1.50577E-02 2.29275E-04
 -1      4606 6.03766E-05 1.67691E-02-1.16788E-03
 -1      4607-2.01679E-05 2.03635E-02 2.77273E-04
 -1      4608-2.51784E-05 2.02865E-02 2.77316E-04
 -1      4609-2.02245E-05 1.85342E-02 2.61301E-04
 -1      4610 5.02674E-05 2.03671E-02-1.25498E-03
 -1      4611-2.00846E-05 2.41847E-02 3.09162E-04
 -1      4612-2.50875E-05 2.41181E-02 3.09178E-04
 -1      4613-2.01216E-05 2.22483E-02 2.93225E-04
 -1      4614 4.01532E-05 2.41871E-02-1.32624E-03
 -1      4615-2.00336E-05 2.81963E-02 3.41003E-04
 -1      4616-2.50321E-05 2.81405E-02 3.41007E-04
 -1      4617-2.00557E-05 2.61687E-02 3.25087E-04
 -1      4618 3.00700E-05 2.81975E-02-1.38167E-03
 -1      4619-2.00046E-05 3.23666E-02 3.72818E-04
 -1      4620-2.50009E-05 3.23218E-02 3.72817E-04
 -1      4621-2.00169E-05 3.02636E-02 3.56913E-04
 -1      4622 2.00214E-05 3.23666E-02-1.42126E-03
 -1      4623-1.99893E-05 3.66638E-02 4.04620E-04
 -1      4624-2.49845E-05 3.66302E-02 4.04618E-04
 -1      4625-1.99956E-05 3.45013E-02 3.88720E-04
 -1      4626 1.00006E-05 3.66626E-02-1.44499E-03
 -1      4627-1.99818E-05 4.10563E-02 4.36415E-04
 -1      4628-2.49766E-05 4.10339E-02 4.36413E-04
 -1      4629-1.99848E-05 3.88502E-02 4.20518E-04
 -1      4630-1.20082E-09 4.10538E-02-1.45286E-03
 -1      4631-1.99786E-05 4.55123E-02 4.68208E-04
 -1      4632-2.49732E-05 4.55011E-02 4.68207E-04
 -1      4633-1.99798E-05 4.32784E-02 4.52312E-04
 -1      4634-9.99178E-06 4.55085E-02-1.44487E-03
 -1      4635-1.99777E-05 5.00000E-02 5.00000E-04
 -1      4636-2.49723E-05 5.00000E-02 5.00000E-04
 -1      4637-1.99779E-05 4.77542E-02 4.84104E-04
 -1      4638-1.99778E-05 4.99950E-02-1.42101E-03
 -1      4639-1.99786E-05 5.44877E-02 5.31792E-04
 -1      4640-2.49732E-05 5.44989E-02 5.31793E-04
 -1      4641-1.99779E-05 5.22458E-02 5.15896E-04
 -1      4642-2.99655E-05 5.44815E-02-1.38129E-03
 -1      4643-1.99818E-05 5.89437E-02 5.63585E-04
 -1      4644-2.49766E-05 5.89661E-02 5.63587E-04
 -1      4645-1.99798E-05 5.67216E-02 5.47688E-04
 -1      4646-3.99625E-05 5.89362E-02-1.32569E-03
 -1      4647-1.99893E-05 6.33362E-02 5.95380E-04
 -1      4648-2.49845E-05 6.33698E-02 5.95382E-04
 -1      4649-1.99848E-05 6.11498E-02 5.79482E-04
 -1      4650-4.99793E-05 6.33274E-02-1.25423E-03
 -1      4651-2.00046E-05 6.76334E-02 6.27182E-04
 -1      4652-2.50009E-05 6.76782E-02 6.27183E-04
 -1      4653-1.99956E-05 6.54987E-02 6.11280E-04
 -1      4654-6.00307E-05 6.76234E-02-1.16690E-03
 -1      4655-2.00336E-05 7.18037E-02 6.58997E-04
 -1      4656-2.50321E-05 7.18595E-02 6.58993E-04
 -1      4657-2.00169E-05 6.97364E-02 6.43087E-04
 -1      4658-7.01370E-05 7.17925E-02-1.06368E-03
 -1      4659-2.00846E-05 7.58153E-02 6.90838E-04
 -1      4660-2.50875E-05 7.58819E-02 6.90822E-04
 -1      4661-2.00557E-05 7.38313E-02 6.74913E-04
 -1      4662-8.03217E-05 7.58028E-02-9.44575E-04
 -1      4663-2.01679E-05 7.96365E-02 7.22727E-04
 -1      4664-2.51784E-05 7.97135E-02 7.22684E-04
 -1      4665-2.01216E-05 7.77517E-02 7.06775E-04
 -1      4666-9.06009E-05 7.96228E-02-8.09543E-04
 -1      4667-2.02918E-05 8.32357E-02 7.54697E-04
 -1      4668-2.53150E-05 8.33225E-02 7.54603E-04
 -1      4669-2.02245E-05 8.14658E-02 7.38699E-04
 -1      4670-1.00955E-04 8.32207E-02-6.58522E-04
 -1      4671-2.04528E-05 8.65817E-02 7.86793E-04
 -1      4672-2.54953E-05 8.66768E-02 7.86606E-04
 -1      4673-2.03689E-05 8.49423E-02 7.70725E-04
 -1      4674-1.11260E-04 8.65653E-02-4.91376E-04
 -1      4675-2.06121E-05 8.96434E-02 8.19065E-04
 -1      4676-2.56810E-05 8.97447E-02 8.18724E-04
 -1      4677-2.05377E-05 8.81499E-02 8.02903E-04
 -1      4678-1.21136E-04 8.96256E-02-3.07857E-04
 -1      4679-2.06497E-05 9.23905E-02 8.51540E-04
 -1      4680-2.57459E-05 9.24944E-02 8.50969E-04
 -1      4681-2.06597E-05 9.10581E-02 8.35276E-04
 -1      4682-1.29648E-04 9.23714E-02-1.07575E-04
 -1      4683-2.02705E-05 9.47928E-02 8.84166E-04
 -1      4684-2.53789E-05 9.48935E-02 8.83288E-04
 -1      4685-2.05416E-05 9.36366E-02 8.67844E-04
 -1      4686-1.34637E-04 9.47726E-02 1.09735E-04
 -1      4687-1.88920E-05 9.68173E-02 9.16635E-04
 -1      4688-2.39059E-05 9.69065E-02 9.15490E-04
 -1      4689-1.97629E-05 9.58546E-02 9.00453E-04
 -1      4690-1.31773E-04 9.67970E-02 3.42640E-04
 -1      4691-1.54386E-05 9.84181E-02 9.48181E-04
 -1      4692-2.00186E-05 9.84863E-02 9.46969E-04
 -1      4693-1.74952E-05 9.76742E-02 9.32629E-04
 -1      4694-1.12473E-04 9.84008E-02 5.84329E-04
 -1      4695-8.86701E-06 9.95189E-02 9.76914E-04
 -1      4696-1.19554E-05 9.95575E-02 9.76274E-04
 -1      4697-1.26312E-05 9.90374E-02 9.63052E-04
 -1      4698-6.71949E-05 9.95089E-02 8.14008E-04
 -1      4699 0.00000E+00 1.00000E-01 1.00000E-03
 -1      4700 0.00000E+00 1.00000E-01 1.00000E-03
 -1      4701-4.55625E-06 9.98454E-02 9.89207E-04
 -1      4702 0.00000E+00 1.00000E-01 1.00000E-03
 -1      4703 0.00000E+00 0.00000E+00 0.00000E+00
 -1      4704-4.12955E-06 5.23734E-04 2.26300E-05
 -1      4705 0.00000E+00 0.00000E+00 0.00000E+00
 -1      4706-6.35791E-06 5.07191E-04 2.27856E-05
 -1      4707 0.00000E+00 0.00000E+00 0.00000E+00
 -1      4708-2.10892E-06 1.76729E-04 1.05645E-05
 -1      4709 2.29075E-05 5.29939E-04-1.38331E-04
 -1      4710-7.35805E-06 1.66192E-03 5.06086E-05
 -1      4711-1.12463E-05 1.63016E-03 5.10680E-05
 -1      4712-5.89105E-06 1.02481E-03 3.60594E-05
 -1      4713 3.86318E-05 1.67253E-03-3.07564E-04
 -1      4714-9.24031E-06 3.29121E-03 8.18902E-05
 -1      4715-1.40010E-05 3.24751E-03 8.24837E-05
 -1      4716-8.45230E-06 2.42123E-03 6.59617E-05
 -1      4717 4.56698E-05 3.30286E-03-4.86030E-04
 -1      4718-1.00907E-05 5.33307E-03 1.14587E-04
 -1      4719-1.51745E-05 5.28184E-03 1.15118E-04
 -1      4720-9.76886E-06 4.26399E-03 9.81455E-05
 -1      4721 4.65905E-05 5.34371E-03-6.56260E-04
 -1      4722-1.03507E-05 7.74224E-03 1.47568E-04
 -1      4723-1.55133E-05 7.68778E-03 1.47956E-04
 -1      4724-1.02702E-05 6.49385E-03 1.31080E-04
 -1      4725 4.41047E-05 7.75136E-03-8.10807E-04
 -1      4726-1.03506E-05 1.04881E-02 1.80368E-04
 -1      4727-1.54990E-05 1.04339E-02 1.80621E-04
 -1      4728-1.03696E-05 9.07488E-03 1.64003E-04
 -1      4729 4.00193E-05 1.04957E-02-9.48127E-04
 -1      4730-1.02665E-05 1.35430E-02 2.12876E-04
 -1      4731-1.53742E-05 1.34914E-02 2.13026E-04
 -1      4732-1.03128E-05 1.19787E-02 1.96659E-04
 -1      4733 3.52621E-05 1.35492E-02-1.06847E-03
 -1      4734-1.01753E-05 1.68786E-02 2.45125E-04
 -1      4735-1.52438E-05 1.68312E-02 2.45207E-04
 -1      4736-1.02195E-05 1.51776E-02 2.29030E-04
 -1      4737 3.02558E-05 1.68835E-02-1.17228E-03
 -1      4738-1.01030E-05 2.04655E-02 2.77185E-04
 -1      4739-1.51420E-05 2.04231E-02 2.77226E-04
 -1      4740-1.01362E-05 1.86425E-02 2.61175E-04
 -1      4741 2.51817E-05 2.04691E-02-1.25987E-03
 -1      4742-1.00537E-05 2.42731E-02 3.09124E-04
 -1      4743-1.50729E-05 2.42363E-02 3.09142E-04
 -1      4744-1.00756E-05 2.23436E-02 2.93167E-04
 -1      4745 2.01076E-05 2.42755E-02-1.33142E-03
 -1      4746-1.00230E-05 2.82704E-02 3.40989E-04
 -1      4747-1.50303E-05 2.82396E-02 3.40996E-04
 -1      4748-1.00363E-05 2.62500E-02 3.25063E-04
 -1      4749 1.50539E-05 2.82716E-02-1.38700E-03
 -1      4750-1.00054E-05 3.24261E-02 3.72815E-04
 -1      4751-1.50060E-05 3.24013E-02 3.72817E-04
 -1      4752-1.00129E-05 3.03304E-02 3.56906E-04
 -1      4753 1.00217E-05 3.24261E-02-1.42667E-03
 -1      4754-9.99603E-06 3.67086E-02 4.04621E-04
 -1      4755-1.49931E-05 3.66899E-02 4.04621E-04
 -1      4756-9.99994E-06 3.45535E-02 3.88720E-04
 -1      4757 5.00649E-06 3.67073E-02-1.45044E-03
 -1      4758-9.99139E-06 4.10862E-02 4.36417E-04
 -1      4759-1.49867E-05 4.10737E-02 4.36416E-04
 -1      4760-9.99327E-06 3.88875E-02 4.20520E-04
 -1      4761 2.68414E-09 4.10837E-02-1.45834E-03
 -1      4762-9.98937E-06 4.55272E-02 4.68209E-04
 -1      4763-1.49840E-05 4.55210E-02 4.68209E-04
 -1      4764-9.99014E-06 4.33008E-02 4.52313E-04
 -1      4765-4.99443E-06 4.55235E-02-1.45035E-03
 -1      4766-9.98881E-06 5.00000E-02 5.00000E-04
 -1      4767-1.49832E-05 5.00000E-02 5.00000E-04
 -1      4768-9.98894E-06 4.77616E-02 4.84105E-04
 -1      4769-9.98884E-06 4.99950E-02-1.42650E-03
 -1      4770-9.98937E-06 5.44728E-02 5.31791E-04
 -1      4771-1.49840E-05 5.44790E-02 5.31791E-04
 -1      4772-9.98894E-06 5.22384E-02 5.15895E-04
 -1      4773-1.49844E-05 5.44665E-02-1.38677E-03
 -1      4774-9.99139E-06 5.89138E-02 5.63583E-04
 -1      4775-1.49867E-05 5.89263E-02 5.63584E-04
 -1      4776-9.99014E-06 5.66992E-02 5.47687E-04
 -1      4777-1.99856E-05 5.89063E-02-1.33117E-03
 -1      4778-9.99603E-06 6.32914E-02 5.95379E-04
 -1      4779-1.49931E-05 6.33100E-02 5.95379E-04
 -1      4780-9.99327E-06 6.11125E-02 5.79480E-04
 -1      4781-2.49986E-05 6.32827E-02-1.25969E-03
 -1      4782-1.00054E-05 6.75739E-02 6.27185E-04
 -1      4783-1.50060E-05 6.75987E-02 6.27183E-04
 -1      4784-9.99994E-06 6.54465E-02 6.11280E-04
 -1      4785-3.00326E-05 6.75639E-02-1.17230E-03
 -1      4786-1.00230E-05 7.17296E-02 6.59011E-04
 -1      4787-1.50303E-05 7.17604E-02 6.59004E-04
 -1      4788-1.00129E-05 6.96696E-02 6.43094E-04
 -1      4789-3.50999E-05 7.17183E-02-1.06898E-03
 -1      4790-1.00537E-05 7.57269E-02 6.90876E-04
 -1      4791-1.50729E-05 7.57637E-02 6.90858E-04
 -1      4792-1.00363E-05 7.37500E-02 6.74937E-04
 -1      4793-4.02145E-05 7.57144E-02-9.49672E-04
 -1      4794-1.01030E-05 7.95345E-02 7.22815E-04
 -1      4795-1.51420E-05 7.95769E-02 7.22774E-04
 -1      4796-1.00756E-05 7.76564E-02 7.06833E-04
 -1      4797-4.53865E-05 7.95207E-02-8.14262E-04
 -1      4798-1.01753E-05 8.31214E-02 7.54875E-04
 -1      4799-1.52438E-05 8.31688E-02 7.54793E-04
 -1      4800-1.01362E-05 8.13575E-02 7.38825E-04
 -1      4801-5.06037E-05 8.31063E-02-6.62567E-04
 -1      4802-1.02665E-05 8.64570E-02 7.87124E-04
 -1      4803-1.53742E-05 8.65086E-02 7.86974E-04
 -1      4804-1.02195E-05 8.48224E-02 7.70970E-04
 -1      4805-5.57898E-05 8.64405E-02-4.94287E-04
 -1      4806-1.03506E-05 8.95119E-02 8.19632E-04
 -1      4807-1.54990E-05 8.95661E-02 8.19379E-04
 -1      4808-1.03128E-05 8.80213E-02 8.03341E-04
 -1      4809-6.07107E-05 8.94940E-02-3.08974E-04
 -1      4810-1.03507E-05 9.22578E-02 8.52432E-04
 -1      4811-1.55133E-05 9.23122E-02 8.52044E-04
 -1      4812-1.03696E-05 9.09251E-02 8.35997E-04
 -1      4813-6.47905E-05 9.22383E-02-1.06107E-04
 -1      4814-1.00907E-05 9.46669E-02 8.85413E-04
 -1      4815-1.51745E-05 9.47182E-02 8.84882E-04
 -1      4816-1.02702E-05 9.35061E-02 8.68919E-04
 -1      4817-6.67496E-05 9.46463E-02 1.14354E-04
 -1      4818-9.24031E-06 9.67088E-02 9.18110E-04
 -1      4819-1.40010E-05 9.67525E-02 9.17516E-04
 -1      4820-9.76886E-06 9.57360E-02 9.01854E-04
 -1      4821-6.41237E-05 9.66880E-02 3.49966E-04
 -1      4822-7.35805E-06 9.83381E-02 9.49391E-04
 -1      4823-1.12463E-05 9.83698E-02 9.48932E-04
 -1      4824-8.45230E-06 9.75788E-02 9.34038E-04
 -1      4825-5.33224E-05 9.83203E-02 5.91054E-04
 -1      4826-4.12955E-06 9.94763E-02 9.77370E-04
 -1      4827-6.35791E-06 9.94928E-02 9.77214E-04
 -1      4828-5.89105E-06 9.89752E-02 9.63941E-04
 -1      4829-3.11505E-05 9.94660E-02 8.16344E-04
 -1      4830 0.00000E+00 1.00000E-01 1.00000E-03
 -1      4831 0.00000E+00 1.00000E-01 1.00000E-03
 -1      4832-2.10892E-06 9.98233E-02 9.89435E-04
 -1      4833 0.00000E+00 1.00000E-01 1.00000E-03
 -1      4834 0.00000E+00 0.00000E+00 0.00000E+00
 -1      4835 4.86159E-17 5.36395E-04 2.25054E-05
 -1      4836 0.00000E+00 0.00000E+00 0.00000E+00
 -1      4837-2.02396E-06 5.33335E-04 2.25376E-05
 -1      4838 0.00000E+00 0.00000E+00 0.00000E+00
 -1      4839 1.98580E-17 1.82954E-04 1.05410E-05
 -1      4840 5.63226E-17 5.42683E-04-1.38003E-04
 -1      4841 1.30536E-16 1.68616E-03 5.02627E-05
 -1      4842-3.62882E-06 1.68028E-03 5.03450E-05
 -1      4843 8.59360E-17 1.04328E-03 3.58380E-05
 -1      4844 1.45461E-16 1.69692E-03-3.06430E-04
 -1      4845 2.37693E-16 3.32487E-03 8.14343E-05
 -1      4846-4.59302E-06 3.31665E-03 8.15465E-05
 -1      4847 1.81524E-16 2.45054E-03 6.55459E-05
 -1      4848 2.59156E-16 3.33669E-03-4.84741E-04
 -1      4849 3.65256E-16 5.37297E-03 1.14160E-04
 -1      4850-5.03792E-06 5.36315E-03 1.14267E-04
 -1      4851 2.98563E-16 4.30120E-03 9.76879E-05
 -1      4852 3.94118E-16 5.38375E-03-6.55452E-04
 -1      4853 5.06999E-16 7.78501E-03 1.47242E-04
 -1      4854-5.17823E-06 7.77443E-03 1.47325E-04
 -1      4855 4.33422E-16 6.53559E-03 1.30699E-04
 -1      4856 5.44384E-16 7.79423E-03-8.10702E-04
 -1      4857 6.63074E-16 1.05310E-02 1.80151E-04
 -1      4858-5.18099E-06 1.05203E-02 1.80207E-04
 -1      4859 5.83660E-16 9.11800E-03 1.63733E-04
 -1      4860 7.04948E-16 1.05386E-02-9.48653E-04
 -1      4861 8.26460E-16 1.35840E-02 2.12745E-04
 -1      4862-5.13854E-06 1.35738E-02 2.12779E-04
 -1      4863 7.45417E-16 1.20208E-02 1.96489E-04
 -1      4864 8.77225E-16 1.35902E-02-1.06945E-03
 -1      4865 1.00625E-15 1.69164E-02 2.45052E-04
 -1      4866-5.09153E-06 1.69070E-02 2.45071E-04
 -1      4867 9.15803E-16 1.52171E-02 2.28931E-04
 -1      4868 1.05301E-15 1.69213E-02-1.17356E-03
 -1      4869 1.17884E-15 2.04993E-02 2.77148E-04
 -1      4870-5.05407E-06 2.04908E-02 2.77158E-04
 -1      4871 1.08580E-15 1.86784E-02 2.61122E-04
 -1      4872 1.23896E-15 2.05030E-02-1.26133E-03
 -1      4873 1.34933E-15 2.43024E-02 3.09106E-04
 -1      4874-5.02835E-06 2.42951E-02 3.09111E-04
 -1      4875 1.26299E-15 2.23752E-02 2.93141E-04
 -1      4876 1.42164E-15 2.43049E-02-1.33298E-03
 -1      4877 1.53044E-15 2.82951E-02 3.40982E-04
 -1      4878-5.01235E-06 2.82889E-02 3.40984E-04
 -1      4879 1.44296E-15 2.62770E-02 3.25052E-04
 -1      4880 1.60180E-15 2.82963E-02-1.38862E-03
 -1      4881 1.69214E-15 3.24459E-02 3.72813E-04
 -1      4882-5.00314E-06 3.24410E-02 3.72814E-04
 -1      4883 1.61350E-15 3.03527E-02 3.56902E-04
 -1      4884 1.76801E-15 3.24459E-02-1.42832E-03
 -1      4885 1.86426E-15 3.67235E-02 4.04621E-04
 -1      4886-4.99821E-06 3.67198E-02 4.04621E-04
 -1      4887 1.78297E-15 3.45708E-02 3.88719E-04
 -1      4888 1.93632E-15 3.67222E-02-1.45212E-03
 -1      4889 2.06243E-15 4.10961E-02 4.36418E-04
 -1      4890-4.99577E-06 4.10937E-02 4.36417E-04
 -1      4891 1.96339E-15 3.88999E-02 4.20520E-04
 -1      4892 2.12332E-15 4.10936E-02-1.46002E-03
 -1      4893 2.22074E-15 4.55322E-02 4.68210E-04
 -1      4894-4.99470E-06 4.55310E-02 4.68209E-04
 -1      4895 2.14653E-15 4.33082E-02 4.52314E-04
 -1      4896 2.30196E-15 4.55285E-02-1.45204E-03
 -1      4897 2.38703E-15 5.00000E-02 5.00000E-04
 -1      4898-4.99440E-06 5.00000E-02 5.00000E-04
 -1      4899 2.30773E-15 4.77641E-02 4.84105E-04
 -1      4900 2.44383E-15 4.99950E-02-1.42819E-03
 -1      4901 2.53079E-15 5.44678E-02 5.31790E-04
 -1      4902-4.99470E-06 5.44690E-02 5.31791E-04
 -1      4903 2.46472E-15 5.22359E-02 5.15895E-04
 -1      4904 2.58179E-15 5.44615E-02-1.38846E-03
 -1      4905 2.61293E-15 5.89039E-02 5.63582E-04
 -1      4906-4.99577E-06 5.89064E-02 5.63583E-04
 -1      4907 2.58448E-15 5.66918E-02 5.47686E-04
 -1      4908 2.67911E-15 5.88964E-02-1.33285E-03
 -1      4909 2.72313E-15 6.32765E-02 5.95379E-04
 -1      4910-4.99821E-06 6.32802E-02 5.95379E-04
 -1      4911 2.66512E-15 6.11001E-02 5.79480E-04
 -1      4912 2.74480E-15 6.32678E-02-1.26136E-03
 -1      4913 2.75303E-15 6.75541E-02 6.27187E-04
 -1      4914-5.00314E-06 6.75590E-02 6.27186E-04
 -1      4915 2.75195E-15 6.54292E-02 6.11281E-04
 -1      4916 2.81022E-15 6.75441E-02-1.17395E-03
 -1      4917 2.77155E-15 7.17049E-02 6.59018E-04
 -1      4918-5.01235E-06 7.17111E-02 6.59016E-04
 -1      4919 2.77360E-15 6.96473E-02 6.43098E-04
 -1      4920 2.83567E-15 7.16937E-02-1.07059E-03
 -1      4921 2.74676E-15 7.56976E-02 6.90894E-04
 -1      4922-5.02835E-06 7.57049E-02 6.90889E-04
 -1      4923 2.75649E-15 7.37230E-02 6.74948E-04
 -1      4924 2.76737E-15 7.56850E-02-9.51202E-04
 -1      4925 2.64404E-15 7.95007E-02 7.22852E-04
 -1      4926-5.05407E-06 7.95092E-02 7.22842E-04
 -1      4927 2.69377E-15 7.76248E-02 7.06859E-04
 -1      4928 2.70020E-15 7.94869E-02-8.15645E-04
 -1      4929 2.44893E-15 8.30836E-02 7.54948E-04
 -1      4930-5.09153E-06 8.30930E-02 7.54929E-04
 -1      4931 2.56984E-15 8.13216E-02 7.38878E-04
 -1      4932 2.48887E-15 8.30685E-02-6.63698E-04
 -1      4933 2.25457E-15 8.64160E-02 7.87255E-04
 -1      4934-5.13854E-06 8.64262E-02 7.87221E-04
 -1      4935 2.36000E-15 8.47830E-02 7.71069E-04
 -1      4936 2.21375E-15 8.63995E-02-4.95006E-04
 -1      4937 1.94372E-15 8.94690E-02 8.19849E-04
 -1      4938-5.18099E-06 8.94797E-02 8.19793E-04
 -1      4939 2.08693E-15 8.79792E-02 8.03511E-04
 -1      4940 1.93907E-15 8.94510E-02-3.09067E-04
 -1      4941 1.60198E-15 9.22150E-02 8.52758E-04
 -1      4942-5.17823E-06 9.22256E-02 8.52675E-04
 -1      4943 1.78847E-15 9.08820E-02 8.36267E-04
 -1      4944 1.59403E-15 9.21954E-02-1.05351E-04
 -1      4945 1.21531E-15 9.46270E-02 8.85840E-04
 -1      4946-5.03792E-06 9.46369E-02 8.85733E-04
 -1      4947 1.40694E-15 9.34644E-02 8.69301E-04
 -1      4948 1.19847E-15 9.46062E-02 1.16015E-04
 -1      4949 8.75945E-16 9.66751E-02 9.18566E-04
 -1      4950-4.59302E-06 9.66834E-02 9.18453E-04
 -1      4951 1.05305E-15 9.56988E-02 9.02312E-04
 -1      4952 8.39784E-16 9.66541E-02 3.52166E-04
 -1      4953 5.78025E-16 9.83138E-02 9.49737E-04
 -1      4954-3.62882E-06 9.83197E-02 9.49655E-04
 -1      4955 7.14901E-16 9.75495E-02 9.34454E-04
 -1      4956 5.08719E-16 9.82958E-02 5.92880E-04
 -1      4957 2.83313E-16 9.94636E-02 9.77495E-04
 -1      4958-2.02396E-06 9.94667E-02 9.77462E-04
 -1      4959 4.17669E-16 9.89567E-02 9.64162E-04
 -1      4960 2.54969E-16 9.94533E-02 8.16922E-04
 -1      4961 0.00000E+00 1.00000E-01 1.00000E-03
 -1      4962 0.00000E+00 1.00000E-01 1.00000E-03
 -1      4963 1.45022E-16 9.98170E-02 9.89459E-04
 -1      4964 0.00000E+00 1.00000E-01 1.00000E-03
 -1      4965 0.00000E+00 0.00000E+00 0.00000E+00
 -1      4966 4.12955E-06 5.23734E-04 2.26300E-05
 -1      4967 0.00000E+00 0.00000E+00 0.00000E+00
 -1      4968 2.02396E-06 5.33335E-04 2.25376E-05
 -1      4969 0.00000E+00 0.00000E+00 0.00000E+00
 -1      4970 2.10892E-06 1.76729E-04 1.05645E-05
 -1      4971-2.29075E-05 5.29939E-04-1.38331E-04
 -1      4972 7.35805E-06 1.66192E-03 5.06086E-05
 -1      4973 3.62882E-06 1.68028E-03 5.03450E-05
 -1      4974 5.89105E-06 1.02481E-03 3.60594E-05
 -1      4975-3.86318E-05 1.67253E-03-3.07564E-04
 -1      4976 9.24031E-06 3.29121E-03 8.18902E-05
 -1      4977 4.59302E-06 3.31665E-03 8.15465E-05
 -1      4978 8.45230E-06 2.42123E-03 6.59617E-05
 -1      4979-4.56698E-05 3.30286E-03-4.86030E-04
 -1      4980 1.00907E-05 5.33307E-03 1.14587E-04
 -1      4981 5.03792E-06 5.36315E-03 1.14267E-04
 -1      4982 9.76886E-06 4.26399E-03 9.81455E-05
 -1      4983-4.65905E-05 5.34371E-03-6.56260E-04
 -1      4984 1.03507E-05 7.74224E-03 1.47568E-04
 -1      4985 5.17823E-06 7.77443E-03 1.47325E-04
 -1      4986 1.02702E-05 6.49385E-03 1.31080E-04
 -1      4987-4.41047E-05 7.75136E-03-8.10807E-04
 -1      4988 1.03506E-05 1.04881E-02 1.80368E-04
 -1      4989 5.18099E-06 1.05203E-02 1.80207E-04
 -1      4990 1.03696E-05 9.07488E-03 1.64003E-04
 -1      4991-4.00193E-05 1.04957E-02-9.48127E-04
 -1      4992 1.02665E-05 1.35430E-02 2.12876E-04
 -1      4993 5.13854E-06 1.35738E-02 2.12779E-04
 -1      4994 1.03128E-05 1.19787E-02 1.96659E-04
 -1      4995-3.52621E-05 1.35492E-02-1.06847E-03
 -1      4996 1.01753E-05 1.68786E-02 2.45125E-04
 -1      4997 5.09153E-06 1.69070E-02 2.45071E-04
 -1      4998 1.02195E-05 1.51776E-02 2.29030E-04
 -1      4999-3.02558E-05 1.68835E-02-1.17228E-03
 -1      5000 1.01030E-05 2.04655E-02 2.77185E-04
 -1      5001 5.05407E-06 2.04908E-02 2.77158E-04
 -1      5002 1.01362E-05 1.86425E-02 2.61175E-04
 -1      5003-2.51817E-05 2.04691E-02-1.25987E-03
 -1      5004 1.00537E-05 2.42731E-02 3.09124E-04
 -1      5005 5.02835E-06 2.42951E-02 3.09111E-04
 -1      5006 1.00756E-05 2.23436E-02 2.93167E-04
 -1      5007-2.01076E-05 2.42755E-02-1.33142E-03
 -1      5008 1.00230E-05 2.82704E-02 3.40989E-04
 -1      5009 5.01235E-06 2.82889E-02 3.40984E-04
 -1      5010 1.00363E-05 2.62500E-02 3.25063E-04
 -1      5011-1.50539E-05 2.82716E-02-1.38700E-03
 -1      5012 1.00054E-05 3.24261E-02 3.72815E-04
 -1      5013 5.00314E-06 3.24410E-02 3.72814E-04
 -1      5014 1.00129E-05 3.03304E-02 3.56906E-04
 -1      5015-1.00217E-05 3.24261E-02-1.42667E-03
 -1      5016 9.99603E-06 3.67086E-02 4.04621E-04
 -1      5017 4.99821E-06 3.67198E-02 4.04621E-04
 -1      5018 9.99994E-06 3.45535E-02 3.88720E-04
 -1      5019-5.00649E-06 3.67073E-02-1.45044E-03
 -1      5020 9.99139E-06 4.10862E-02 4.36417E-04
 -1      5021 4.99577E-06 4.10937E-02 4.36417E-04
 -1      5022 9.99327E-06 3.88875E-02 4.20520E-04
 -1      5023-2.68413E-09 4.10837E-02-1.45834E-03
 -1      5024 9.98937E-06 4.55272E-02 4.68209E-04
 -1      5025 4.99470E-06 4.55310E-02 4.68209E-04
 -1      5026 9.99014E-06 4.33008E-02 4.52313E-04
 -1      5027 4.99443E-06 4.55235E-02-1.45035E-03
 -1      5028 9.98881E-06 5.00000E-02 5.00000E-04
 -1      5029 4.99440E-06 5.00000E-02 5.00000E-04
 -1      5030 9.98894E-06 4.77616E-02 4.84105E-04
 -1      5031 9.98884E-06 4.99950E-02-1.42650E-03
 -1      5032 9.98937E-06 5.44728E-02 5.31791E-04
 -1      5033 4.99470E-06 5.44690E-02 5.31791E-04
 -1      5034 9.98894E-06 5.22384E-02 5.15895E-04
 -1      5035 1.49844E-05 5.44665E-02-1.38677E-03
 -1      5036 9.99139E-06 5.89138E-02 5.63583E-04
 -1      5037 4.99577E-06 5.89064E-02 5.63583E-04
 -1      5038 9.99014E-06 5.66992E-02 5.47687E-04
 -1      5039 1.99856E-05 5.89063E-02-1.33117E-03
 -1      5040 9.99603E-06 6.32914E-02 5.95379E-04
 -1      5041 4.99821E-06 6.32802E-02 5.95379E-04
 -1      5042 9.99327E-06 6.11125E-02 5.79480E-04
 -1      5043 2.49986E-05 6.32827E-02-1.25969E-03
 -1      5044 1.00054E-05 6.75739E-02 6.27185E-04
 -1      5045 5.00314E-06 6.75590E-02 6.27186E-04
 -1      5046 9.99994E-06 6.54465E-02 6.11280E-04
 -1      5047 3.00326E-05 6.75639E-02-1.17230E-03
 -1      5048 1.00230E-05 7.17296E-02 6.59011E-04
 -1      5049 5.01235E-06 7.17111E-02 6.59016E-04
 -1      5050 1.00129E-05 6.96696E-02 6.43094E-04
 -1      5051 3.50999E-05 7.17183E-02-1.06898E-03
 -1      5052 1.00537E-05 7.57269E-02 6.90876E-04
 -1      5053 5.02835E-06 7.57049E-02 6.90889E-04
 -1      5054 1.00363E-05 7.37500E-02 6.74937E-04
 -1      5055 4.02145E-05 7.57144E-02-9.49672E-04
 -1      5056 1.01030E-05 7.95345E-02 7.22815E-04
 -1      5057 5.05407E-06 7.95092E-02 7.22842E-04
 -1      5058 1.00756E-05 7.76564E-02 7.06833E-04
 -1      5059 4.53865E-05 7.95207E-02-8.14262E-04
 -1      5060 1.01753E-05 8.31214E-02 7.54875E-04
 -1      5061 5.09153E-06 8.30930E-02 7.54929E-04
 -1      5062 1.01362E-05 8.13575E-02 7.38825E-04
 -1      5063 5.06037E-05 8.31063E-02-6.62567E-04
 -1      5064 1.02665E-05 8.64570E-02 7.87124E-04
 -1      5065 5.13854E-06 8.64262E-02 7.87221E-04
 -1      5066 1.02195E-05 8.48224E-02 7.70970E-04
 -1      5067 5.57898E-05 8.64405E-02-4.94287E-04
 -1      5068 1.03506E-05 8.95119E-02 8.19632E-04
 -1      5069 5.18099E-06 8.94797E-02 8.19793E-04
 -1      5070 1.03128E-05 8.80213E-02 8.03341E-04
 -1      5071 6.07107E-05 8.94940E-02-3.08974E-04
 -1      5072 1.03507E-05 9.22578E-02 8.52432E-04
 -1      5073 5.17823E-06 9.22256E-02 8.52675E-04
 -1      5074 1.03696E-05 9.09251E-02 8.35997E-04
 -1      5075 6.47905E-05 9.22383E-02-1.06107E-04
 -1      5076 1.00907E-05 9.46669E-02 8.85413E-04
 -1      5077 5.03792E-06 9.46369E-02 8.85733E-04
 -1      5078 1.02702E-05 9.35061E-02 8.68919E-04
 -1      5079 6.67496E-05 9.46463E-02 1.14354E-04
 -1      5080 9.24031E-06 9.67088E-02 9.18110E-04
 -1      5081 4.59302E-06 9.66834E-02 9.18453E-04
 -1      5082 9.76886E-06 9.57360E-02 9.01854E-04
 -1      5083 6.41237E-05 9.66880E-02 3.49966E-04
 -1      5084 7.35805E-06 9.83381E-02 9.49391E-04
 -1      5085 3.62882E-06 9.83197E-02 9.49655E-04
 -1      5086 8.45230E-06 9.75788E-02 9.34038E-04
 -1      5087 5.33224E-05 9.83203E-02 5.91054E-04
 -1      5088 4.12955E-06 9.94763E-02 9.77370E-04
 -1      5089 2.02396E-06 9.94667E-02 9.77462E-04
 -1      5090 5.89105E-06 9.89752E-02 9.63941E-04
 -1      5091 3.11505E-05 9.94660E-02 8.16344E-04
 -1      5092 0.00000E+00 1.00000E-01 1.00000E-03
 -1      5093 0.00000E+00 1.00000E-01 1.00000E-03
 -1      5094 2.10892E-06 9.98233E-02 9.89435E-04
 -1      5095 0.00000E+00 1.00000E-01 1.00000E-03
 -1      5096 0.00000E+00 0.00000E+00 0.00000E+00
 -1      5097 8.86701E-06 4.81131E-04 2.30862E-05
 -1      5098 0.00000E+00 0.00000E+00 0.00000E+00
 -1      5099 6.35791E-06 5.07191E-04 2.27856E-05
 -1      5100 0.00000E+00 0.00000E+00 0.00000E+00
 -1      5101 4.55625E-06 1.54586E-04 1.07934E-05
 -1      5102-4.94925E-05 4.87187E-04-1.39750E-04
 -1      5103 1.54386E-05 1.58189E-03 5.18192E-05
 -1      5104 1.12463E-05 1.63016E-03 5.10680E-05
 -1      5105 1.26312E-05 9.62555E-04 3.69476E-05
 -1      5106-8.16492E-05 1.59211E-03-3.11866E-04
 -1      5107 1.88920E-05 3.18274E-03 8.33655E-05
 -1      5108 1.40010E-05 3.24751E-03 8.24837E-05
 -1      5109 1.74952E-05 2.32581E-03 6.73713E-05
 -1      5110-9.40454E-05 3.19394E-03-4.90408E-04
 -1      5111 2.02705E-05 5.20721E-03 1.15834E-04
 -1      5112 1.51745E-05 5.28184E-03 1.15118E-04
 -1      5113 1.97629E-05 4.14542E-03 9.95474E-05
 -1      5114-9.41426E-05 5.21747E-03-6.58388E-04
 -1      5115 2.06497E-05 7.60950E-03 1.48460E-04
 -1      5116 1.55133E-05 7.68778E-03 1.47956E-04
 -1      5117 2.05416E-05 6.36335E-03 1.32156E-04
 -1      5118-8.83804E-05 7.61837E-03-8.10494E-04
 -1      5119 2.06121E-05 1.03566E-02 1.80935E-04
 -1      5120 1.54990E-05 1.04339E-02 1.80621E-04
 -1      5121 2.06597E-05 8.94191E-03 1.64724E-04
 -1      5122-7.99312E-05 1.03641E-02-9.45876E-04
 -1      5123 2.04528E-05 1.34183E-02 2.13207E-04
 -1      5124 1.53742E-05 1.34914E-02 2.13026E-04
 -1      5125 2.05377E-05 1.18501E-02 1.97097E-04
 -1      5126-7.03649E-05 1.34245E-02-1.06489E-03
 -1      5127 2.02918E-05 1.67643E-02 2.45303E-04
 -1      5128 1.52438E-05 1.68312E-02 2.45207E-04
 -1      5129 2.03689E-05 1.50577E-02 2.29275E-04
 -1      5130-6.03766E-05 1.67691E-02-1.16788E-03
 -1      5131 2.01679E-05 2.03635E-02 2.77273E-04
 -1      5132 1.51420E-05 2.04231E-02 2.77226E-04
 -1      5133 2.02245E-05 1.85342E-02 2.61301E-04
 -1      5134-5.02674E-05 2.03671E-02-1.25498E-03
 -1      5135 2.00846E-05 2.41847E-02 3.09162E-04
 -1      5136 1.50729E-05 2.42363E-02 3.09142E-04
 -1      5137 2.01216E-05 2.22483E-02 2.93225E-04
 -1      5138-4.01532E-05 2.41871E-02-1.32624E-03
 -1      5139 2.00336E-05 2.81963E-02 3.41003E-04
 -1      5140 1.50303E-05 2.82396E-02 3.40996E-04
 -1      5141 2.00557E-05 2.61687E-02 3.25087E-04
 -1      5142-3.00700E-05 2.81975E-02-1.38167E-03
 -1      5143 2.00046E-05 3.23666E-02 3.72818E-04
 -1      5144 1.50060E-05 3.24013E-02 3.72817E-04
 -1      5145 2.00169E-05 3.02636E-02 3.56913E-04
 -1      5146-2.00214E-05 3.23666E-02-1.42126E-03
 -1      5147 1.99893E-05 3.66638E-02 4.04620E-04
 -1      5148 1.49931E-05 3.66899E-02 4.04621E-04
 -1      5149 1.99956E-05 3.45013E-02 3.88720E-04
 -1      5150-1.00006E-05 3.66626E-02-1.44499E-03
 -1      5151 1.99818E-05 4.10563E-02 4.36415E-04
 -1      5152 1.49867E-05 4.10737E-02 4.36416E-04
 -1      5153 1.99848E-05 3.88502E-02 4.20518E-04
 -1      5154 1.20082E-09 4.10538E-02-1.45286E-03
 -1      5155 1.99786E-05 4.55123E-02 4.68208E-04
 -1      5156 1.49840E-05 4.55210E-02 4.68209E-04
 -1      5157 1.99798E-05 4.32784E-02 4.52312E-04
 -1      5158 9.99178E-06 4.55085E-02-1.44487E-03
 -1      5159 1.99777E-05 5.00000E-02 5.00000E-04
 -1      5160 1.49832E-05 5.00000E-02 5.00000E-04
 -1      5161 1.99779E-05 4.77542E-02 4.84104E-04
 -1      5162 1.99778E-05 4.99950E-02-1.42101E-03
 -1      5163 1.99786E-05 5.44877E-02 5.31792E-04
 -1      5164 1.49840E-05 5.44790E-02 5.31791E-04
 -1      5165 1.99779E-05 5.22458E-02 5.15896E-04
 -1      5166 2.99655E-05 5.44815E-02-1.38129E-03
 -1      5167 1.99818E-05 5.89437E-02 5.63585E-04
 -1      5168 1.49867E-05 5.89263E-02 5.63584E-04
 -1      5169 1.99798E-05 5.67216E-02 5.47688E-04
 -1      5170 3.99625E-05 5.89362E-02-1.32569E-03
 -1      5171 1.99893E-05 6.33362E-02 5.95380E-04
 -1      5172 1.49931E-05 6.33100E-02 5.95379E-04
 -1      5173 1.99848E-05 6.11498E-02 5.79482E-04
 -1      5174 4.99793E-05 6.33274E-02-1.25423E-03
 -1      5175 2.00046E-05 6.76334E-02 6.27182E-04
 -1      5176 1.50060E-05 6.75987E-02 6.27183E-04
 -1      5177 1.99956E-05 6.54987E-02 6.11280E-04
 -1      5178 6.00307E-05 6.76234E-02-1.16690E-03
 -1      5179 2.00336E-05 7.18037E-02 6.58997E-04
 -1      5180 1.50303E-05 7.17604E-02 6.59004E-04
 -1      5181 2.00169E-05 6.97364E-02 6.43087E-04
 -1      5182 7.01370E-05 7.17925E-02-1.06368E-03
 -1      5183 2.00846E-05 7.58153E-02 6.90838E-04
 -1      5184 1.50729E-05 7.57637E-02 6.90858E-04
 -1      5185 2.00557E-05 7.38313E-02 6.74913E-04
 -1      5186 8.03217E-05 7.58028E-02-9.44575E-04
 -1      5187 2.01679E-05 7.96365E-02 7.22727E-04
 -1      5188 1.51420E-05 7.95769E-02 7.22774E-04
 -1      5189 2.01216E-05 7.77517E-02 7.06775E-04
 -1      5190 9.06009E-05 7.96228E-02-8.09543E-04
 -1      5191 2.02918E-05 8.32357E-02 7.54697E-04
 -1      5192 1.52438E-05 8.31688E-02 7.54793E-04
 -1      5193 2.02245E-05 8.14658E-02 7.38699E-04
 -1      5194 1.00955E-04 8.32207E-02-6.58522E-04
 -1      5195 2.04528E-05 8.65817E-02 7.86793E-04
 -1      5196 1.53742E-05 8.65086E-02 7.86974E-04
 -1      5197 2.03689E-05 8.49423E-02 7.70725E-04
 -1      5198 1.11260E-04 8.65653E-02-4.91376E-04
 -1      5199 2.06121E-05 8.96434E-02 8.19065E-04
 -1      5200 1.54990E-05 8.95661E-02 8.19379E-04
 -1      5201 2.05377E-05 8.81499E-02 8.02903E-04
 -1      5202 1.21136E-04 8.96256E-02-3.07857E-04
 -1      5203 2.06497E-05 9.23905E-02 8.51540E-04
 -1      5204 1.55133E-05 9.23122E-02 8.52044E-04
 -1      5205 2.06597E-05 9.10581E-02 8.35276E-04
 -1      5206 1.29648E-04 9.23714E-02-1.07575E-04
 -1      5207 2.02705E-05 9.47928E-02 8.84166E-04
 -1      5208 1.51745E-05 9.47182E-02 8.84882E-04
 -1      5209 2.05416E-05 9.36366E-02 8.67844E-04
 -1      5210 1.34637E-04 9.47726E-02 1.09735E-04
 -1      5211 1.88920E-05 9.68173E-02 9.16635E-04
 -1      5212 1.40010E-05 9.67525E-02 9.17516E-04
 -1      5213 1.97629E-05 9.58546E-02 9.00453E-04
 -1      5214 1.31773E-04 9.67970E-02 3.42640E-04
 -1      5215 1.54386E-05 9.84181E-02 9.48181E-04
 -1      5216 1.12463E-05 9.83698E-02 9.48932E-04
 -1      5217 1.74952E-05 9.76742E-02 9.32629E-04
 -1      5218 1.12473E-04 9.84008E-02 5.84329E-04
 -1      5219 8.86701E-06 9.95189E-02 9.76914E-04
 -1      5220 6.35791E-06 9.94928E-02 9.77214E-04
 -1      5221 1.26312E-05 9.90374E-02 9.63052E-04
 -1      5222 6.71949E-05 9.95089E-02 8.14008E-04
 -1      5223 0.00000E+00 1.00000E-01 1.00000E-03
 -1      5224 0.00000E+00 1.00000E-01 1.00000E-03
 -1      5225 4.55625E-06 9.98454E-02 9.89207E-04
 -1      5226 0.00000E+00 1.00000E-01 1.00000E-03
 -1      5227 0.00000E+00 0.00000E+00 0.00000E+00
 -1      5228 1.59415E-05 3.84320E-04 2.52650E-05
 -1      5229 0.00000E+00 0.00000E+00 0.00000E+00
 -1      5230 1.19554E-05 4.42491E-04 2.37255E-05
 -1      5231 0.00000E+00 0.00000E+00 0.00000E+00
 -1      5232 7.98276E-06 1.07433E-04 1.12611E-05
 -1      5233-8.97565E-05 3.90147E-04-1.49854E-04
 -1      5234 2.48795E-05 1.41814E-03 5.46501E-05
 -1      5235 2.00186E-05 1.51369E-03 5.30315E-05
 -1      5236 2.11557E-05 8.29744E-04 3.96106E-05
 -1      5237-1.32819E-04 1.42800E-03-3.23071E-04
 -1      5238 2.89889E-05 2.97334E-03 8.59416E-05
 -1      5239 2.39059E-05 3.09350E-03 8.45099E-05
 -1      5240 2.74107E-05 2.13618E-03 7.02391E-05
 -1      5241-1.45539E-04 2.98412E-03-4.97899E-04
 -1      5242 3.04334E-05 4.97571E-03 1.17645E-04
 -1      5243 2.53789E-05 5.10652E-03 1.16712E-04
 -1      5244 2.99226E-05 3.92225E-03 1.01750E-04
 -1      5245-1.42326E-04 4.98562E-03-6.60058E-04
 -1      5246 3.07794E-05 7.37357E-03 1.49593E-04
 -1      5247 2.57459E-05 7.50564E-03 1.49031E-04
 -1      5248 3.06925E-05 6.12772E-03 1.33607E-04
 -1      5249-1.32411E-04 7.38218E-03-8.07556E-04
 -1      5250 3.06957E-05 1.01283E-02 1.81586E-04
 -1      5251 2.56810E-05 1.02553E-02 1.81276E-04
 -1      5252 3.07656E-05 8.70853E-03 1.65591E-04
 -1      5253-1.19417E-04 1.01356E-02-9.39840E-04
 -1      5254 3.05000E-05 1.32050E-02 2.13552E-04
 -1      5255 2.54953E-05 1.33232E-02 2.13394E-04
 -1      5256 3.06015E-05 1.16285E-02 1.97575E-04
 -1      5257-1.05096E-04 1.32111E-02-1.05694E-03
 -1      5258 3.03142E-05 1.65705E-02 2.45470E-04
 -1      5259 2.53150E-05 1.66775E-02 2.45397E-04
 -1      5260 3.04022E-05 1.48537E-02 2.29517E-04
 -1      5261-9.02297E-05 1.65753E-02-1.15880E-03
 -1      5262 3.01749E-05 2.01918E-02 2.77344E-04
 -1      5263 2.51784E-05 2.02865E-02 2.77316E-04
 -1      5264 3.02381E-05 1.83512E-02 2.61412E-04
 -1      5265-7.51784E-05 2.01954E-02-1.24526E-03
 -1      5266 3.00827E-05 2.40364E-02 3.09186E-04
 -1      5267 2.50875E-05 2.41181E-02 3.09178E-04
 -1      5268 3.01234E-05 2.20882E-02 2.93268E-04
 -1      5269-6.00914E-05 2.40389E-02-1.31618E-03
 -1      5270 3.00269E-05 2.80722E-02 3.41007E-04
 -1      5271 2.50321E-05 2.81405E-02 3.41007E-04
 -1      5272 3.00509E-05 2.60324E-02 3.25098E-04
 -1      5273-4.50230E-05 2.80734E-02-1.37143E-03
 -1      5274 2.99955E-05 3.22671E-02 3.72814E-04
 -1      5275 2.50009E-05 3.23218E-02 3.72817E-04
 -1      5276 3.00087E-05 3.01518E-02 3.56912E-04
 -1      5277-2.99854E-05 3.22671E-02-1.41092E-03
 -1      5278 2.99791E-05 3.65891E-02 4.04615E-04
 -1      5279 2.49845E-05 3.66302E-02 4.04618E-04
 -1      5280 2.99859E-05 3.44142E-02 3.88715E-04
 -1      5281-1.49752E-05 3.65879E-02-1.43461E-03
 -1      5282 2.99713E-05 4.10065E-02 4.36411E-04
 -1      5283 2.49766E-05 4.10339E-02 4.36413E-04
 -1      5284 2.99744E-05 3.87879E-02 4.20513E-04
 -1      5285 1.52903E-08 4.10040E-02-1.44246E-03
 -1      5286 2.99679E-05 4.54874E-02 4.68206E-04
 -1      5287 2.49732E-05 4.55011E-02 4.68207E-04
 -1      5288 2.99692E-05 4.32410E-02 4.52309E-04
 -1      5289 1.49937E-05 4.54836E-02-1.43446E-03
 -1      5290 2.99670E-05 5.00000E-02 5.00000E-04
 -1      5291 2.49723E-05 5.00000E-02 5.00000E-04
 -1      5292 2.99672E-05 4.77417E-02 4.84103E-04
 -1      5293 2.99671E-05 4.99950E-02-1.41060E-03
 -1      5294 2.99679E-05 5.45126E-02 5.31794E-04
 -1      5295 2.49732E-05 5.44989E-02 5.31793E-04
 -1      5296 2.99672E-05 5.22583E-02 5.15897E-04
 -1      5297 4.49423E-05 5.45064E-02-1.37087E-03
 -1      5298 2.99713E-05 5.89935E-02 5.63589E-04
 -1      5299 2.49766E-05 5.89661E-02 5.63587E-04
 -1      5300 2.99692E-05 5.67590E-02 5.47691E-04
 -1      5301 5.99275E-05 5.89860E-02-1.31528E-03
 -1      5302 2.99791E-05 6.34109E-02 5.95385E-04
 -1      5303 2.49845E-05 6.33698E-02 5.95382E-04
 -1      5304 2.99744E-05 6.12121E-02 5.79487E-04
 -1      5305 7.49337E-05 6.34021E-02-1.24384E-03
 -1      5306 2.99955E-05 6.77329E-02 6.27186E-04
 -1      5307 2.50009E-05 6.76782E-02 6.27183E-04
 -1      5308 2.99859E-05 6.55858E-02 6.11285E-04
 -1      5309 8.99766E-05 6.77229E-02-1.15655E-03
 -1      5310 3.00269E-05 7.19278E-02 6.58993E-04
 -1      5311 2.50321E-05 7.18595E-02 6.58993E-04
 -1      5312 3.00087E-05 6.98482E-02 6.43088E-04
 -1      5313 1.05076E-04 7.19165E-02-1.05345E-03
 -1      5314 3.00827E-05 7.59636E-02 6.90814E-04
 -1      5315 2.50875E-05 7.58819E-02 6.90822E-04
 -1      5316 3.00509E-05 7.39676E-02 6.74902E-04
 -1      5317 1.20255E-04 7.59511E-02-9.34564E-04
 -1      5318 3.01749E-05 7.98082E-02 7.22656E-04
 -1      5319 2.51784E-05 7.97135E-02 7.22684E-04
 -1      5320 3.01234E-05 7.79118E-02 7.06732E-04
 -1      5321 1.35524E-04 7.97945E-02-7.99972E-04
 -1      5322 3.03142E-05 8.34295E-02 7.54530E-04
 -1      5323 2.53150E-05 8.33225E-02 7.54603E-04
 -1      5324 3.02381E-05 8.16488E-02 7.38588E-04
 -1      5325 1.50850E-04 8.34145E-02-6.49777E-04
 -1      5326 3.05000E-05 8.67950E-02 7.86448E-04
 -1      5327 2.54953E-05 8.66768E-02 7.86606E-04
 -1      5328 3.04022E-05 8.51463E-02 7.70483E-04
 -1      5329 1.66079E-04 8.67787E-02-4.84113E-04
 -1      5330 3.06957E-05 8.98717E-02 8.18414E-04
 -1      5331 2.56810E-05 8.97447E-02 8.18724E-04
 -1      5332 3.06015E-05 8.83715E-02 8.02425E-04
 -1      5333 1.80779E-04 8.98542E-02-3.03122E-04
 -1      5334 3.07794E-05 9.26264E-02 8.50407E-04
 -1      5335 2.57459E-05 9.24944E-02 8.50969E-04
 -1      5336 3.07656E-05 9.12915E-02 8.34409E-04
 -1      5337 1.93921E-04 9.26076E-02-1.06904E-04
 -1      5338 3.04334E-05 9.50243E-02 8.82355E-04
 -1      5339 2.53789E-05 9.48935E-02 8.83288E-04
 -1      5340 3.06925E-05 9.38723E-02 8.66393E-04
 -1      5341 2.03123E-04 9.50045E-02 1.04445E-04
 -1      5342 2.89889E-05 9.70267E-02 9.14058E-04
 -1      5343 2.39059E-05 9.69065E-02 9.15490E-04
 -1      5344 2.99226E-05 9.60777E-02 8.98250E-04
 -1      5345 2.03431E-04 9.70069E-02 3.29999E-04
 -1      5346 2.48795E-05 9.85819E-02 9.45350E-04
 -1      5347 2.00186E-05 9.84863E-02 9.46969E-04
 -1      5348 2.74107E-05 9.78638E-02 9.29761E-04
 -1      5349 1.82499E-04 9.85650E-02 5.67465E-04
 -1      5350 1.59415E-05 9.96157E-02 9.74735E-04
 -1      5351 1.19554E-05 9.95575E-02 9.76274E-04
 -1      5352 2.11557E-05 9.91703E-02 9.60389E-04
 -1      5353 1.21591E-04 9.96060E-02 7.99549E-04
 -1      5354 0.00000E+00 1.00000E-01 1.00000E-03
 -1      5355 0.00000E+00 1.00000E-01 1.00000E-03
 -1      5356 7.98276E-06 9.98926E-02 9.88739E-04
 -1      5357 0.00000E+00 1.00000E-01 1.00000E-03
 -1      5358 0.00000E+00 0.00000E+00 0.00000E+00
 -1      5359 2.56596E-05 1.66691E-04 3.30604E-05
 -1      5360 0.00000E+00 0.00000E+00 0.00000E+00
 -1      5361 1.99941E-05 3.04066E-04 2.72815E-05
 -1      5362 0.00000E+00 0.00000E+00 0.00000E+00
 -1      5363 1.65279E-05-2.77196E-05 1.72598E-05
 -1      5364-1.44687E-04 1.72480E-04-1.89492E-04
 -1      5365 3.49984E-05 1.09628E-03 6.00965E-05
 -1      5366 3.02163E-05 1.28413E-03 5.72147E-05
 -1      5367 3.15918E-05 5.50998E-04 4.67276E-05
 -1      5368-1.87646E-04 1.10637E-03-3.45006E-04
 -1      5369 3.88956E-05 2.60829E-03 8.87918E-05
 -1      5370 3.40027E-05 2.81534E-03 8.74750E-05
 -1      5371 3.73925E-05 1.78654E-03 7.42222E-05
 -1      5372-1.96116E-04 2.61931E-03-5.02609E-04
 -1      5373 4.02387E-05 4.60317E-03 1.19111E-04
 -1      5374 3.54104E-05 4.80983E-03 1.18521E-04
 -1      5375 3.97402E-05 3.55023E-03 1.03826E-04
 -1      5376-1.88872E-04 4.61323E-03-6.55496E-04
 -1      5377 4.06057E-05 7.01296E-03 1.50259E-04
 -1      5378 3.57317E-05 7.21043E-03 1.50047E-04
 -1      5379 4.04987E-05 5.75930E-03 1.34608E-04
 -1      5380-1.75129E-04 7.02166E-03-7.97432E-04
 -1      5381 4.05640E-05 9.79050E-03 1.81850E-04
 -1      5382 3.56535E-05 9.97393E-03 1.81802E-04
 -1      5383 4.06087E-05 8.35832E-03 1.66020E-04
 -1      5384-1.57996E-04 9.79783E-03-9.26638E-04
 -1      5385 4.04104E-05 1.28960E-02 2.13627E-04
 -1      5386 3.54675E-05 1.30630E-02 2.13642E-04
 -1      5387 4.04906E-05 1.13045E-02 1.97724E-04
 -1      5388-1.39249E-04 1.29021E-02-1.04205E-03
 -1      5389 4.02563E-05 1.62934E-02 2.45467E-04
 -1      5390 3.52913E-05 1.64426E-02 2.45499E-04
 -1      5391 4.03293E-05 1.45604E-02 2.29543E-04
 -1      5392-1.19733E-04 1.62982E-02-1.14302E-03
 -1      5393 4.01382E-05 1.99482E-02 2.77318E-04
 -1      5394 3.51591E-05 2.00791E-02 2.77347E-04
 -1      5395 4.01919E-05 1.80907E-02 2.61393E-04
 -1      5396-9.98861E-05 1.99519E-02-1.22904E-03
 -1      5397 4.00589E-05 2.38272E-02 3.09158E-04
 -1      5398 3.50717E-05 2.39395E-02 3.09180E-04
 -1      5399 4.00940E-05 2.18618E-02 2.93239E-04
 -1      5400-7.99155E-05 2.38297E-02-1.29975E-03
 -1      5401 4.00104E-05 2.78977E-02 3.40985E-04
 -1      5402 3.50188E-05 2.79913E-02 3.40999E-04
 -1      5403 4.00314E-05 2.58406E-02 3.25073E-04
 -1      5404-5.99139E-05 2.78989E-02-1.35490E-03
 -1      5405 3.99828E-05 3.21275E-02 3.72799E-04
 -1      5406 3.49890E-05 3.22023E-02 3.72808E-04
 -1      5407 3.99945E-05 2.99947E-02 3.56893E-04
 -1      5408-3.99164E-05 3.21274E-02-1.39435E-03
 -1      5409 3.99683E-05 3.64844E-02 4.04605E-04
 -1      5410 3.49735E-05 3.65405E-02 4.04610E-04
 -1      5411 3.99743E-05 3.42920E-02 3.88703E-04
 -1      5412-1.99328E-05 3.64831E-02-1.41803E-03
 -1      5413 3.99612E-05 4.09367E-02 4.36406E-04
 -1      5414 3.49661E-05 4.09741E-02 4.36409E-04
 -1      5415 3.99641E-05 3.87006E-02 4.20506E-04
 -1      5416 3.78891E-08 4.09342E-02-1.42587E-03
 -1      5417 3.99582E-05 4.54525E-02 4.68204E-04
 -1      5418 3.49629E-05 4.54712E-02 4.68205E-04
 -1      5419 3.99594E-05 4.31886E-02 4.52305E-04
 -1      5420 1.99996E-05 4.54487E-02-1.41787E-03
 -1      5421 3.99573E-05 5.00000E-02 5.00000E-04
 -1      5422 3.49620E-05 5.00000E-02 5.00000E-04
 -1      5423 3.99576E-05 4.77242E-02 4.84102E-04
 -1      5424 3.99575E-05 4.99950E-02-1.39401E-03
 -1      5425 3.99582E-05 5.45475E-02 5.31796E-04
 -1      5426 3.49629E-05 5.45288E-02 5.31795E-04
 -1      5427 3.99576E-05 5.22758E-02 5.15898E-04
 -1      5428 5.99170E-05 5.45413E-02-1.35428E-03
 -1      5429 3.99612E-05 5.90633E-02 5.63594E-04
 -1      5430 3.49661E-05 5.90259E-02 5.63591E-04
 -1      5431 3.99594E-05 5.68114E-02 5.47695E-04
 -1      5432 7.98849E-05 5.90558E-02-1.29869E-03
 -1      5433 3.99683E-05 6.35156E-02 5.95395E-04
 -1      5434 3.49735E-05 6.34595E-02 5.95390E-04
 -1      5435 3.99641E-05 6.12994E-02 5.79494E-04
 -1      5436 9.98697E-05 6.35069E-02-1.22724E-03
 -1      5437 3.99828E-05 6.78725E-02 6.27201E-04
 -1      5438 3.49890E-05 6.77977E-02 6.27192E-04
 -1      5439 3.99743E-05 6.57080E-02 6.11297E-04
 -1      5440 1.19882E-04 6.78626E-02-1.13995E-03
 -1      5441 4.00104E-05 7.21023E-02 6.59015E-04
 -1      5442 3.50188E-05 7.20087E-02 6.59001E-04
 -1      5443 3.99945E-05 7.00053E-02 6.43107E-04
 -1      5444 1.39934E-04 7.20910E-02-1.03687E-03
 -1      5445 4.00589E-05 7.61728E-02 6.90842E-04
 -1      5446 3.50717E-05 7.60605E-02 6.90820E-04
 -1      5447 4.00314E-05 7.41594E-02 6.74927E-04
 -1      5448 1.60032E-04 7.61603E-02-9.18074E-04
 -1      5449 4.01382E-05 8.00518E-02 7.22682E-04
 -1      5450 3.51591E-05 7.99209E-02 7.22653E-04
 -1      5451 4.00940E-05 7.81382E-02 7.06761E-04
 -1      5452 1.80159E-04 8.00380E-02-7.83700E-04
 -1      5453 4.02563E-05 8.37066E-02 7.54533E-04
 -1      5454 3.52913E-05 8.35574E-02 7.54501E-04
 -1      5455 4.01919E-05 8.19093E-02 7.38607E-04
 -1      5456 2.00237E-04 8.36916E-02-6.34002E-04
 -1      5457 4.04104E-05 8.71040E-02 7.86373E-04
 -1      5458 3.54675E-05 8.69370E-02 7.86358E-04
 -1      5459 4.03293E-05 8.54396E-02 7.70457E-04
 -1      5460 2.20052E-04 8.70876E-02-4.69381E-04
 -1      5461 4.05640E-05 9.02095E-02 8.18150E-04
 -1      5462 3.56535E-05 9.00261E-02 8.18198E-04
 -1      5463 4.04906E-05 8.86955E-02 8.02276E-04
 -1      5464 2.39090E-04 9.01918E-02-2.90459E-04
 -1      5465 4.06057E-05 9.29870E-02 8.49741E-04
 -1      5466 3.57317E-05 9.27896E-02 8.49953E-04
 -1      5467 4.06087E-05 9.16417E-02 8.33980E-04
 -1      5468 2.56283E-04 9.29680E-02-9.81250E-05
 -1      5469 4.02387E-05 9.53968E-02 8.80889E-04
 -1      5470 3.54104E-05 9.51902E-02 8.81479E-04
 -1      5471 4.04987E-05 9.42407E-02 8.65392E-04
 -1      5472 2.69262E-04 9.53767E-02 1.06062E-04
 -1      5473 3.88956E-05 9.73917E-02 9.11208E-04
 -1      5474 3.40027E-05 9.71847E-02 9.12525E-04
 -1      5475 3.97402E-05 9.64498E-02 8.96174E-04
 -1      5476 2.73796E-04 9.73716E-02 3.19583E-04
 -1      5477 3.49984E-05 9.89037E-02 9.39904E-04
 -1      5478 3.02163E-05 9.87159E-02 9.42785E-04
 -1      5479 3.73925E-05 9.82135E-02 9.25778E-04
 -1      5480 2.57538E-04 9.88864E-02 5.34647E-04
 -1      5481 2.56596E-05 9.98333E-02 9.66940E-04
 -1      5482 1.99941E-05 9.96959E-02 9.72719E-04
 -1      5483 3.15918E-05 9.94490E-02 9.53272E-04
 -1      5484 1.95951E-04 9.98235E-02 7.44346E-04
 -1      5485 0.00000E+00 1.00000E-01 1.00000E-03
 -1      5486 0.00000E+00 1.00000E-01 1.00000E-03
 -1      5487 1.65279E-05 1.00028E-01 9.82740E-04
 -1      5488 0.00000E+00 1.00000E-01 1.00000E-03
 -1      5489 0.00000E+00 0.00000E+00 0.00000E+00
 -1      5490-3.66552E-04 2.03369E-04 4.81456E-04
 -1      5491 0.00000E+00 0.00000E+00 0.00000E+00
 -1      5492-2.26770E-04 4.20717E-04 3.79141E-04
 -1      5493 0.00000E+00 0.00000E+00 0.00000E+00
 -1      5494-2.39285E-04-9.91223E-06 2.50454E-04
 -1      5495-1.95951E-04 1.76476E-04 2.55654E-04
 -1      5496 0.00000E+00 0.00000E+00 0.00000E+00
 -1      5497-2.85449E-04 3.40557E-04 4.04197E-04
 -1      5498 0.00000E+00 0.00000E+00 0.00000E+00
 -1      5499-1.15785E-04 1.25061E-04 1.68235E-04
 -1      5500-1.21591E-04 3.94039E-04 2.00451E-04
 -1      5501-4.79037E-04 1.15986E-03 8.78017E-04
 -1      5502-3.38931E-04 1.48060E-03 8.18127E-04
 -1      5503-4.41742E-04 6.03024E-04 6.82143E-04
 -1      5504-2.57538E-04 1.11356E-03 4.65353E-04
 -1      5505-4.13199E-04 1.34637E-03 8.47365E-04
 -1      5506-2.94723E-04 8.80881E-04 5.94489E-04
 -1      5507-1.82499E-04 1.43501E-03 4.32535E-04
 -1      5508-5.07564E-04 2.67990E-03 1.28135E-03
 -1      5509-3.76676E-04 3.04386E-03 1.26338E-03
 -1      5510-4.99984E-04 1.85552E-03 1.07947E-03
 -1      5511-2.73796E-04 2.62844E-03 6.80417E-04
 -1      5512-4.43044E-04 2.88564E-03 1.27523E-03
 -1      5513-3.64984E-04 2.20403E-03 1.04331E-03
 -1      5514-2.03431E-04 2.99305E-03 6.70001E-04
 -1      5515-4.97454E-04 4.67325E-03 1.67851E-03
 -1      5516-3.74954E-04 5.04507E-03 1.68314E-03
 -1      5517-5.05180E-04 3.62184E-03 1.48211E-03
 -1      5518-2.69262E-04 4.62326E-03 8.93938E-04
 -1      5519-4.37265E-04 4.87899E-03 1.68399E-03
 -1      5520-3.78947E-04 3.99297E-03 1.47678E-03
 -1      5521-2.03123E-04 4.99550E-03 8.95555E-04
 -1      5522-4.71453E-04 7.07835E-03 2.05572E-03
 -1      5523-3.56516E-04 7.43853E-03 2.07381E-03
 -1      5524-4.85828E-04 5.82720E-03 1.86992E-03
 -1      5525-2.56283E-04 7.03199E-03 1.09813E-03
 -1      5526-4.14533E-04 7.27527E-03 2.06767E-03
 -1      5527-3.67111E-04 6.19507E-03 1.88228E-03
 -1      5528-1.93921E-04 7.39241E-03 1.10690E-03
 -1      5529-4.37325E-04 9.85062E-03 2.40869E-03
 -1      5530-3.30535E-04 1.01881E-02 2.43413E-03
 -1      5531-4.55018E-04 8.42108E-03 2.23544E-03
 -1      5532-2.39090E-04 9.80818E-03 1.29046E-03
 -1      5533-3.84270E-04 1.00337E-02 2.42393E-03
 -1      5534-3.44113E-04 8.77096E-03 2.25777E-03
 -1      5535-1.80779E-04 1.01458E-02 1.30312E-03
 -1      5536-3.99531E-04 1.29510E-02 2.73475E-03
 -1      5537-3.01467E-04 1.32598E-02 2.76413E-03
 -1      5538-4.18708E-04 1.13621E-02 2.57520E-03
 -1      5539-2.20052E-04 1.29124E-02 1.46938E-03
 -1      5540-3.50685E-04 1.31177E-02 2.75166E-03
 -1      5541-3.16229E-04 1.16858E-02 2.60294E-03
 -1      5542-1.66079E-04 1.32213E-02 1.48411E-03
 -1      5543-3.60126E-04 1.63433E-02 3.03216E-03
 -1      5544-2.71275E-04 1.66202E-02 3.06354E-03
 -1      5545-3.79936E-04 1.46128E-02 2.88711E-03
 -1      5546-2.00237E-04 1.63084E-02 1.63400E-03
 -1      5547-3.15802E-04 1.64924E-02 3.04986E-03
 -1      5548-2.86441E-04 1.49060E-02 2.91767E-03
 -1      5549-1.50850E-04 1.65855E-02 1.64978E-03
 -1      5550-3.20128E-04 1.99931E-02 3.29973E-03
 -1      5551-2.40811E-04 2.02366E-02 3.33208E-03
 -1      5552-3.40157E-04 1.81381E-02 3.16973E-03
 -1      5553-1.80159E-04 1.99620E-02 1.78370E-03
 -1      5554-2.80522E-04 2.01239E-02 3.31777E-03
 -1      5555-2.56049E-04 1.83985E-02 3.20169E-03
 -1      5556-1.35524E-04 2.02055E-02 1.79997E-03
 -1      5557-2.79976E-04 2.38671E-02 3.53665E-03
 -1      5558-2.10393E-04 2.40763E-02 3.56943E-03
 -1      5559-3.00052E-04 2.19042E-02 3.42205E-03
 -1      5560-1.60032E-04 2.38397E-02 1.91807E-03
 -1      5561-2.45211E-04 2.39794E-02 3.55482E-03
 -1      5562-2.25588E-04 2.21305E-02 3.45467E-03
 -1      5563-1.20255E-04 2.40489E-02 1.93456E-03
 -1      5564-2.39843E-04 2.79327E-02 3.74243E-03
 -1      5565-1.80107E-04 2.81071E-02 3.77539E-03
 -1      5566-2.59900E-04 2.58780E-02 3.64345E-03
 -1      5567-1.39934E-04 2.79090E-02 2.03687E-03
 -1      5568-2.09987E-04 2.80262E-02 3.76064E-03
 -1      5569-1.95233E-04 2.60698E-02 3.67635E-03
 -1      5570-1.05076E-04 2.80835E-02 2.05345E-03
 -1      5571-1.99773E-04 3.21574E-02 3.91678E-03
 -1      5572-1.49948E-04 3.22970E-02 3.94980E-03
 -1      5573-2.19798E-04 3.00271E-02 3.83355E-03
 -1      5574-1.19882E-04 3.21374E-02 2.13995E-03
 -1      5575-1.74866E-04 3.22322E-02 3.93500E-03
 -1      5576-1.65013E-04 3.01842E-02 3.86654E-03
 -1      5577-8.99766E-05 3.22771E-02 2.15655E-03
 -1      5578-1.59767E-04 3.65093E-02 4.05955E-03
 -1      5579-1.19883E-04 3.66141E-02 4.09258E-03
 -1      5580-1.79762E-04 3.43195E-02 3.99212E-03
 -1      5581-9.98697E-05 3.64931E-02 2.22724E-03
 -1      5582-1.39827E-04 3.65655E-02 4.07775E-03
 -1      5583-1.34905E-04 3.44416E-02 4.02515E-03
 -1      5584-7.49337E-05 3.65979E-02 2.24384E-03
 -1      5585-1.19806E-04 4.09566E-02 4.17064E-03
 -1      5586-8.98813E-05 4.10265E-02 4.20367E-03
 -1      5587-1.39781E-04 3.87231E-02 4.11906E-03
 -1      5588-7.98849E-05 4.09441E-02 2.29869E-03
 -1      5589-1.04845E-04 4.09940E-02 4.18884E-03
 -1      5590-1.04876E-04 3.88103E-02 4.15208E-03
 -1      5591-5.99275E-05 4.10140E-02 2.31528E-03
 -1      5592-7.98751E-05 4.54674E-02 4.25003E-03
 -1      5593-5.99158E-05 4.55023E-02 4.28305E-03
 -1      5594-9.98379E-05 4.32061E-02 4.21430E-03
 -1      5595-5.99170E-05 4.54587E-02 2.35428E-03
 -1      5596-6.98956E-05 4.54861E-02 4.26822E-03
 -1      5597-7.48953E-05 4.32584E-02 4.24732E-03
 -1      5598-4.49423E-05 4.54936E-02 2.37087E-03
 -1      5599-3.99578E-05 5.00100E-02 4.29769E-03
 -1      5600-2.99674E-05 5.00100E-02 4.33070E-03
 -1      5601-5.99154E-05 4.77367E-02 4.27783E-03
 -1      5602-3.99575E-05 5.00050E-02 2.39401E-03
 -1      5603-3.49625E-05 5.00100E-02 4.31588E-03
 -1      5604-4.49405E-05 4.77542E-02 4.31084E-03
 -1      5605-2.99671E-05 5.00050E-02 2.41060E-03
 -1      5606-4.22952E-08 5.45526E-02 4.31362E-03
 -1      5607-2.08208E-08 5.45176E-02 4.34664E-03
 -1      5608-2.00006E-05 5.22833E-02 4.30962E-03
 -1      5609-1.99996E-05 5.45513E-02 2.41787E-03
 -1      5610-3.10801E-08 5.45338E-02 4.33181E-03
 -1      5611-1.49948E-05 5.22658E-02 4.34264E-03
 -1      5612-1.49937E-05 5.45164E-02 2.43446E-03
 -1      5613 3.98828E-05 5.90634E-02 4.29783E-03
 -1      5614 2.99378E-05 5.89935E-02 4.33085E-03
 -1      5615 1.99181E-05 5.68139E-02 4.30969E-03
 -1      5616-3.78891E-08 5.90658E-02 2.42587E-03
 -1      5617 3.49114E-05 5.90259E-02 4.31602E-03
 -1      5618 1.49560E-05 5.67615E-02 4.34271E-03
 -1      5619-1.52902E-08 5.89960E-02 2.44246E-03
 -1      5620 7.98289E-05 6.35107E-02 4.25034E-03
 -1      5621 5.99238E-05 6.34059E-02 4.28335E-03
 -1      5622 5.98520E-05 6.12969E-02 4.27805E-03
 -1      5623 1.99328E-05 6.35169E-02 2.41803E-03
 -1      5624 6.98790E-05 6.34545E-02 4.26853E-03
 -1      5625 4.49262E-05 6.12096E-02 4.31106E-03
 -1      5626 1.49752E-05 6.34121E-02 2.43461E-03
 -1      5627 1.19807E-04 6.78626E-02 4.17118E-03
 -1      5628 8.99557E-05 6.77230E-02 4.20417E-03
 -1      5629 9.98124E-05 6.57005E-02 4.21471E-03
 -1      5630 3.99164E-05 6.78726E-02 2.39435E-03
 -1      5631 1.04887E-04 6.77878E-02 4.18938E-03
 -1      5632 7.49326E-05 6.55784E-02 4.24771E-03
 -1      5633 2.99854E-05 6.77329E-02 2.41092E-03
 -1      5634 1.59823E-04 7.20874E-02 4.06045E-03
 -1      5635 1.20054E-04 7.19129E-02 4.09336E-03
 -1      5636 1.39809E-04 6.99929E-02 4.11975E-03
 -1      5637 5.99139E-05 7.21011E-02 2.35490E-03
 -1      5638 1.39951E-04 7.19938E-02 4.07863E-03
 -1      5639 1.04995E-04 6.98358E-02 4.15271E-03
 -1      5640 4.50230E-05 7.19266E-02 2.37143E-03
 -1      5641 1.99864E-04 7.61530E-02 3.91829E-03
 -1      5642 1.50232E-04 7.59438E-02 3.95102E-03
 -1      5643 1.79840E-04 7.41421E-02 3.99328E-03
 -1      5644 7.99155E-05 7.61703E-02 2.29975E-03
 -1      5645 1.75073E-04 7.60407E-02 3.93643E-03
 -1      5646 1.35133E-04 7.39503E-02 4.02612E-03
 -1      5647 6.00914E-05 7.59612E-02 2.31618E-03
 -1      5648 2.39868E-04 8.00271E-02 3.74501E-03
 -1      5649 1.80474E-04 7.97836E-02 3.77731E-03
 -1      5650 2.19874E-04 7.81160E-02 3.83551E-03
 -1      5651 9.98861E-05 8.00481E-02 2.22904E-03
 -1      5652 2.10219E-04 7.98963E-02 3.76300E-03
 -1      5653 1.65348E-04 7.78896E-02 3.86807E-03
 -1      5654 7.51784E-05 7.98046E-02 2.24526E-03
 -1      5655 2.79651E-04 8.36771E-02 3.54106E-03
 -1      5656 2.10676E-04 8.34001E-02 3.57246E-03
 -1      5657 2.59799E-04 8.18822E-02 3.64682E-03
 -1      5658 1.19733E-04 8.37018E-02 2.14302E-03
 -1      5659 2.45253E-04 8.35280E-02 3.55871E-03
 -1      5660 1.95592E-04 8.16218E-02 3.67876E-03
 -1      5661 9.02297E-05 8.34247E-02 2.15880E-03
 -1      5662 3.18785E-04 8.70695E-02 3.30721E-03
 -1      5663 2.40527E-04 8.67606E-02 3.33676E-03
 -1      5664 2.99331E-04 8.54076E-02 3.42781E-03
 -1      5665 1.39249E-04 8.70979E-02 2.04205E-03
 -1      5666 2.79818E-04 8.69028E-02 3.32411E-03
 -1      5667 2.25678E-04 8.51144E-02 3.45844E-03
 -1      5668 1.05096E-04 8.67889E-02 2.05694E-03
 -1      5669 3.56335E-04 9.01700E-02 3.04452E-03
 -1      5670 2.69253E-04 8.98324E-02 3.07053E-03
 -1      5671 3.37830E-04 8.86585E-02 3.17938E-03
 -1      5672 1.57996E-04 9.02022E-02 1.92664E-03
 -1      5673 3.13088E-04 8.99868E-02 3.05989E-03
 -1      5674 2.55108E-04 8.83347E-02 3.20745E-03
 -1      5675 1.19417E-04 8.98644E-02 1.93984E-03
 -1      5676 3.90473E-04 9.29423E-02 2.75452E-03
 -1      5677 2.95140E-04 9.25819E-02 2.77400E-03
 -1      5678 3.73981E-04 9.15996E-02 2.90283E-03
 -1      5679 1.75129E-04 9.29783E-02 1.79743E-03
 -1      5680 3.43281E-04 9.27452E-02 2.76693E-03
 -1      5681 2.82725E-04 9.12496E-02 2.92606E-03
 -1      5682 1.32411E-04 9.26178E-02 1.80756E-03
 -1      5683 4.17322E-04 9.53468E-02 2.43942E-03
 -1      5684 3.14360E-04 9.49747E-02 2.44702E-03
 -1      5685 4.05118E-04 9.41932E-02 2.59992E-03
 -1      5686 1.88872E-04 9.53868E-02 1.65550E-03
 -1      5687 3.66759E-04 9.51408E-02 2.44611E-03
 -1      5688 3.05954E-04 9.38251E-02 2.61433E-03
 -1      5689 1.42326E-04 9.50144E-02 1.66006E-03
 -1      5690 4.30209E-04 9.73384E-02 2.10285E-03
 -1      5691 3.19042E-04 9.69741E-02 2.09060E-03
 -1      5692 4.26098E-04 9.63975E-02 2.27353E-03
 -1      5693 1.96116E-04 9.73807E-02 1.50261E-03
 -1      5694 3.75436E-04 9.71324E-02 2.09939E-03
 -1      5695 3.19416E-04 9.60261E-02 2.27239E-03
 -1      5696 1.45539E-04 9.70159E-02 1.49790E-03
 -1      5697 4.09450E-04 9.88547E-02 1.75717E-03
 -1      5698 2.89504E-04 9.85336E-02 1.70813E-03
 -1      5699 4.25643E-04 9.81612E-02 1.93021E-03
 -1      5700 1.87646E-04 9.88936E-02 1.34501E-03
 -1      5701 3.53146E-04 9.86679E-02 1.73225E-03
 -1      5702 3.10514E-04 9.78123E-02 1.90201E-03
 -1      5703 1.32819E-04 9.85720E-02 1.32307E-03
 -1      5704 3.15430E-04 9.98048E-02 1.41515E-03
 -1      5705 1.95082E-04 9.95872E-02 1.32833E-03
 -1      5706 3.78912E-04 9.94086E-02 1.58830E-03
 -1      5707 1.44687E-04 9.98275E-02 1.18949E-03
 -1      5708 2.45656E-04 9.96674E-02 1.34937E-03
 -1      5709 2.52686E-04 9.91304E-02 1.51479E-03
 -1      5710 8.97565E-05 9.96099E-02 1.14985E-03
 -1      5711 0.00000E+00 1.00000E-01 1.00000E-03
 -1      5712 0.00000E+00 1.00000E-01 1.00000E-03
 -1      5713 2.06333E-04 1.00014E-01 1.21592E-03
 -1      5714 0.00000E+00 1.00000E-01 1.00000E-03
 -1      5715 0.00000E+00 1.00000E-01 1.00000E-03
 -1      5716 9.99046E-05 9.98790E-02 1.14565E-03
 -1      5717 0.00000E+00 1.00000E-01 1.00000E-03
 -1      5718 0.00000E+00 0.00000E+00 0.00000E+00
 -1      5719-1.25210E-04 5.18606E-04 3.52419E-04
 -1      5720 0.00000E+00 0.00000E+00 0.00000E+00
 -1      5721-1.69423E-04 4.79284E-04 3.59659E-04
 -1      5722 0.00000E+00 0.00000E+00 0.00000E+00
 -1      5723-6.55763E-05 1.72352E-04 1.63917E-04
 -1      5724-6.71949E-05 4.91129E-04 1.85992E-04
 -1      5725-2.08749E-04 1.64671E-03 7.87445E-04
 -1      5726-2.71753E-04 1.57715E-03 8.00599E-04
 -1      5727-1.74619E-04 1.01535E-03 5.63262E-04
 -1      5728-1.12473E-04 1.59921E-03 4.15671E-04
 -1      5729-2.43813E-04 3.25573E-03 1.24099E-03
 -1      5730-3.09592E-04 3.16509E-03 1.25100E-03
 -1      5731-2.31220E-04 2.39617E-03 1.01458E-03
 -1      5732-1.31773E-04 3.20296E-03 6.57360E-04
 -1      5733-2.48331E-04 5.27847E-03 1.67456E-03
 -1      5734-3.11839E-04 5.17670E-03 1.67942E-03
 -1      5735-2.48712E-04 4.21839E-03 1.46140E-03
 -1      5736-1.34637E-04 5.22741E-03 8.90265E-04
 -1      5737-2.38192E-04 7.67570E-03 2.07630E-03
 -1      5738-2.97622E-04 7.57113E-03 2.07618E-03
 -1      5739-2.44494E-04 6.43226E-03 1.87969E-03
 -1      5740-1.29648E-04 7.62863E-03 1.10757E-03
 -1      5741-2.21375E-04 1.04172E-02 2.44411E-03
 -1      5742-2.76203E-04 1.03155E-02 2.44049E-03
 -1      5743-2.30305E-04 9.00530E-03 2.26444E-03
 -1      5744-1.21136E-04 1.03744E-02 1.30786E-03
 -1      5745-2.01896E-04 1.34735E-02 2.77876E-03
 -1      5746-2.51858E-04 1.33781E-02 2.77289E-03
 -1      5747-2.11828E-04 1.19079E-02 2.61556E-03
 -1      5748-1.11260E-04 1.34347E-02 1.49138E-03
 -1      5749-1.81518E-04 1.68142E-02 3.08091E-03
 -1      5750-2.26512E-04 1.67274E-02 3.07368E-03
 -1      5751-1.91758E-04 1.51103E-02 2.93388E-03
 -1      5752-1.00955E-04 1.67793E-02 1.65852E-03
 -1      5753-1.60977E-04 2.04084E-02 3.35097E-03
 -1      5754-2.00964E-04 2.03313E-02 3.34297E-03
 -1      5755-1.71245E-04 1.85816E-02 3.21994E-03
 -1      5756-9.06009E-05 2.03772E-02 1.80954E-03
 -1      5757-1.40527E-04 2.42246E-02 3.58914E-03
 -1      5758-1.75500E-04 2.41580E-02 3.58072E-03
 -1      5759-1.50734E-04 2.22907E-02 3.47403E-03
 -1      5760-8.03217E-05 2.41972E-02 1.94457E-03
 -1      5761-1.20223E-04 2.82312E-02 3.79551E-03
 -1      5762-1.50187E-04 2.81754E-02 3.78687E-03
 -1      5763-1.30357E-04 2.62061E-02 3.69630E-03
 -1      5764-7.01370E-05 2.82075E-02 2.06368E-03
 -1      5765-1.00048E-04 3.23965E-02 3.97012E-03
 -1      5766-1.25009E-04 3.23518E-02 3.96138E-03
 -1      5767-1.10121E-04 3.02960E-02 3.88679E-03
 -1      5768-6.00307E-05 3.23766E-02 2.16689E-03
 -1      5769-7.99646E-05 3.66888E-02 4.11299E-03
 -1      5770-9.99296E-05 3.66552E-02 4.10419E-03
 -1      5771-8.99966E-05 3.45288E-02 4.04553E-03
 -1      5772-4.99793E-05 3.66726E-02 2.25423E-03
 -1      5773-5.99411E-05 4.10763E-02 4.22412E-03
 -1      5774-7.49138E-05 4.10539E-02 4.21530E-03
 -1      5775-6.99471E-05 3.88726E-02 4.17252E-03
 -1      5776-3.99625E-05 4.10638E-02 2.32569E-03
 -1      5777-3.99516E-05 4.55273E-02 4.30352E-03
 -1      5778-4.99347E-05 4.55161E-02 4.29469E-03
 -1      5779-4.99433E-05 4.32958E-02 4.26779E-03
 -1      5780-2.99655E-05 4.55185E-02 2.38128E-03
 -1      5781-1.99780E-05 5.00100E-02 4.35117E-03
 -1      5782-2.49726E-05 5.00100E-02 4.34234E-03
 -1      5783-2.99637E-05 4.77666E-02 4.33131E-03
 -1      5784-1.99778E-05 5.00050E-02 2.42101E-03
 -1      5785-6.08747E-09 5.44927E-02 4.36710E-03
 -1      5786-1.23807E-08 5.45039E-02 4.35827E-03
 -1      5787-9.99261E-06 5.22533E-02 4.36311E-03
 -1      5788-9.99178E-06 5.44915E-02 2.44487E-03
 -1      5789 1.99768E-05 5.89437E-02 4.35129E-03
 -1      5790 2.49598E-05 5.89661E-02 4.34247E-03
 -1      5791 9.98309E-06 5.67242E-02 4.36316E-03
 -1      5792-1.20082E-09 5.89462E-02 2.45286E-03
 -1      5793 3.99854E-05 6.33312E-02 4.30375E-03
 -1      5794 4.99597E-05 6.33648E-02 4.29496E-03
 -1      5795 2.99768E-05 6.11474E-02 4.33149E-03
 -1      5796 1.00006E-05 6.33374E-02 2.44499E-03
 -1      5797 6.00379E-05 6.76235E-02 4.22448E-03
 -1      5798 7.50067E-05 6.76682E-02 4.21574E-03
 -1      5799 5.00046E-05 6.54913E-02 4.26808E-03
 -1      5800 2.00214E-05 6.76335E-02 2.42126E-03
 -1      5801 8.01562E-05 7.17889E-02 4.11349E-03
 -1      5802 1.00123E-04 7.18446E-02 4.10484E-03
 -1      5803 7.00871E-05 6.97240E-02 4.17295E-03
 -1      5804 3.00700E-05 7.18025E-02 2.38167E-03
 -1      5805 1.00360E-04 7.57955E-02 3.97078E-03
 -1      5806 1.25329E-04 7.58621E-02 3.96233E-03
 -1      5807 9.02464E-05 7.38140E-02 4.04610E-03
 -1      5808 4.01532E-05 7.58129E-02 2.32624E-03
 -1      5809 1.20649E-04 7.96118E-02 3.79635E-03
 -1      5810 1.50617E-04 7.96889E-02 3.78826E-03
 -1      5811 1.10496E-04 7.77294E-02 3.88753E-03
 -1      5812 5.02674E-05 7.96329E-02 2.25498E-03
 -1      5813 1.40954E-04 8.32061E-02 3.59016E-03
 -1      5814 1.75906E-04 8.32929E-02 3.58274E-03
 -1      5815 1.30809E-04 8.14387E-02 3.69723E-03
 -1      5816 6.03766E-05 8.32309E-02 2.16788E-03
 -1      5817 1.61030E-04 8.65470E-02 3.35209E-03
 -1      5818 2.00917E-04 8.66423E-02 3.34584E-03
 -1      5819 1.51049E-04 8.49101E-02 3.47513E-03
 -1      5820 7.03649E-05 8.65755E-02 2.06489E-03
 -1      5821 1.80224E-04 8.96033E-02 3.08182E-03
 -1      5822 2.24933E-04 8.97051E-02 3.07752E-03
 -1      5823 1.70807E-04 8.81126E-02 3.22103E-03
 -1      5824 7.99312E-05 8.96359E-02 1.94588E-03
 -1      5825 1.97014E-04 9.23448E-02 2.77875E-03
 -1      5826 2.46284E-04 9.24493E-02 2.77749E-03
 -1      5827 1.89081E-04 9.10153E-02 2.93446E-03
 -1      5828 8.83804E-05 9.23816E-02 1.81049E-03
 -1      5829 2.07968E-04 9.47414E-02 2.44206E-03
 -1      5830 2.61307E-04 9.48431E-02 2.44517E-03
 -1      5831 2.03560E-04 9.35880E-02 2.61463E-03
 -1      5832 9.41426E-05 9.47825E-02 1.65839E-03
 -1      5833 2.06249E-04 9.67624E-02 2.07336E-03
 -1      5834 2.62064E-04 9.68529E-02 2.08109E-03
 -1      5835 2.09389E-04 9.58008E-02 2.26141E-03
 -1      5836 9.40454E-05 9.68061E-02 1.49041E-03
 -1      5837 1.78084E-04 9.83677E-02 1.68311E-03
 -1      5838 2.31988E-04 9.84371E-02 1.69383E-03
 -1      5839 1.96455E-04 9.76204E-02 1.87901E-03
 -1      5840 8.16492E-05 9.84079E-02 1.31187E-03
 -1      5841 1.07605E-04 9.94894E-02 1.30598E-03
 -1      5842 1.45678E-04 9.95287E-02 1.31193E-03
 -1      5843 1.49537E-04 9.89961E-02 1.48891E-03
 -1      5844 4.94925E-05 9.95128E-02 1.13975E-03
 -1      5845 0.00000E+00 1.00000E-01 1.00000E-03
 -1      5846 0.00000E+00 1.00000E-01 1.00000E-03
 -1      5847 5.65380E-05 9.98317E-02 1.14227E-03
 -1      5848 0.00000E+00 1.00000E-01 1.00000E-03
 -1      5849 0.00000E+00 0.00000E+00 0.00000E+00
 -1      5850-5.80180E-05 5.62134E-04 3.48246E-04
 -1      5851 0.00000E+00 0.00000E+00 0.00000E+00
 -1      5852-8.95071E-05 5.45192E-04 3.49495E-04
 -1      5853 0.00000E+00 0.00000E+00 0.00000E+00
 -1      5854-3.02410E-05 1.94961E-04 1.61771E-04
 -1      5855-3.11505E-05 5.33955E-04 1.83656E-04
 -1      5856-9.89296E-05 1.72885E-03 7.75440E-04
 -1      5857-1.51552E-04 1.69615E-03 7.79817E-04
 -1      5858-8.09691E-05 1.07920E-03 5.54319E-04
 -1      5859-5.33224E-05 1.67974E-03 4.08946E-04
 -1      5860-1.18592E-04 3.36654E-03 1.22808E-03
 -1      5861-1.80133E-04 3.32181E-03 1.23318E-03
 -1      5862-1.11076E-04 2.49394E-03 1.00124E-03
 -1      5863-6.41237E-05 3.31200E-03 6.50034E-04
 -1      5864-1.23059E-04 5.40622E-03 1.66675E-03
 -1      5865-1.85441E-04 5.35414E-03 1.67021E-03
 -1      5866-1.22320E-04 4.33913E-03 1.45061E-03
 -1      5867-6.67496E-05 5.35374E-03 8.85646E-04
 -1      5868-1.18982E-04 7.80971E-03 2.07429E-03
 -1      5869-1.78607E-04 7.75468E-03 2.07542E-03
 -1      5870-1.21749E-04 6.56434E-03 1.87481E-03
 -1      5871-6.47905E-05 7.76169E-03 1.10611E-03
 -1      5872-1.10911E-04 1.05495E-02 2.44681E-03
 -1      5873-1.66256E-04 1.04949E-02 2.44600E-03
 -1      5874-1.15264E-04 9.13926E-03 2.26495E-03
 -1      5875-6.07107E-05 1.05060E-02 1.30897E-03
 -1      5876-1.01215E-04 1.35986E-02 2.78473E-03
 -1      5877-1.51663E-04 1.35468E-02 2.78253E-03
 -1      5878-1.06181E-04 1.20371E-02 2.62006E-03
 -1      5879-5.57898E-05 1.35595E-02 1.49429E-03
 -1      5880-9.09741E-05 1.69288E-02 3.08894E-03
 -1      5881-1.36327E-04 1.68813E-02 3.08584E-03
 -1      5882-9.61257E-05 1.52304E-02 2.94100E-03
 -1      5883-5.06037E-05 1.68937E-02 1.66257E-03
 -1      5884-8.06366E-05 2.05105E-02 3.36022E-03
 -1      5885-1.20860E-04 2.04681E-02 3.35658E-03
 -1      5886-8.58037E-05 1.86901E-02 3.22867E-03
 -1      5887-4.53865E-05 2.04793E-02 1.81426E-03
 -1      5888-7.03567E-05 2.43130E-02 3.59908E-03
 -1      5889-1.05475E-04 2.42762E-02 3.59514E-03
 -1      5890-7.54857E-05 2.23861E-02 3.48369E-03
 -1      5891-4.02145E-05 2.42856E-02 1.94967E-03
 -1      5892-6.01665E-05 2.83054E-02 3.80583E-03
 -1      5893-9.02138E-05 2.82745E-02 3.80172E-03
 -1      5894-6.52504E-05 2.62874E-02 3.70646E-03
 -1      5895-3.50999E-05 2.82817E-02 2.06898E-03
 -1      5896-5.00544E-05 3.24560E-02 3.98064E-03
 -1      5897-7.50614E-05 3.24313E-02 3.97644E-03
 -1      5898-5.51019E-05 3.03629E-02 3.89722E-03
 -1      5899-3.00326E-05 3.24361E-02 2.17230E-03
 -1      5900-3.99985E-05 3.67335E-02 4.12360E-03
 -1      5901-5.99870E-05 3.67149E-02 4.11936E-03
 -1      5902-4.50207E-05 3.45809E-02 4.05610E-03
 -1      5903-2.49986E-05 3.67173E-02 2.25969E-03
 -1      5904-2.99784E-05 4.11061E-02 4.23477E-03
 -1      5905-4.49623E-05 4.10937E-02 4.23051E-03
 -1      5906-3.49849E-05 3.89099E-02 4.18316E-03
 -1      5907-1.99856E-05 4.10937E-02 2.33117E-03
 -1      5908-1.99789E-05 4.55422E-02 4.31418E-03
 -1      5909-2.99663E-05 4.55360E-02 4.30991E-03
 -1      5910-2.49768E-05 4.33182E-02 4.27845E-03
 -1      5911-1.49844E-05 4.55335E-02 2.38677E-03
 -1      5912-9.98894E-06 5.00100E-02 4.36185E-03
 -1      5913-1.49834E-05 5.00100E-02 4.35757E-03
 -1      5914-1.49833E-05 4.77741E-02 4.34199E-03
 -1      5915-9.98884E-06 5.00050E-02 2.42650E-03
 -1      5916-1.27981E-10 5.44778E-02 4.37777E-03
 -1      5917-2.11958E-09 5.44840E-02 4.37350E-03
 -1      5918-4.99488E-06 5.22459E-02 4.37378E-03
 -1      5919-4.99443E-06 5.44765E-02 2.45035E-03
 -1      5920 9.99527E-06 5.89138E-02 4.36194E-03
 -1      5921 1.49884E-05 5.89263E-02 4.35768E-03
 -1      5922 4.99621E-06 5.67018E-02 4.37382E-03
 -1      5923 2.68414E-09 5.89163E-02 2.45834E-03
 -1      5924 2.00060E-05 6.32865E-02 4.31436E-03
 -1      5925 3.00003E-05 6.33051E-02 4.31011E-03
 -1      5926 1.49980E-05 6.11101E-02 4.34212E-03
 -1      5927 5.00649E-06 6.32927E-02 2.45044E-03
 -1      5928 3.00433E-05 6.75640E-02 4.23500E-03
 -1      5929 4.50490E-05 6.75888E-02 4.23080E-03
 -1      5930 2.50205E-05 6.54391E-02 4.27865E-03
 -1      5931 1.00217E-05 6.75739E-02 2.42667E-03
 -1      5932 4.01206E-05 7.17147E-02 4.12384E-03
 -1      5933 6.01534E-05 7.17456E-02 4.11971E-03
 -1      5934 3.50759E-05 6.96571E-02 4.18340E-03
 -1      5935 1.50539E-05 7.17284E-02 2.38700E-03
 -1      5936 5.02507E-05 7.57071E-02 3.98080E-03
 -1      5937 7.53309E-05 7.57439E-02 3.97682E-03
 -1      5938 4.51784E-05 7.37326E-02 4.05631E-03
 -1      5939 2.01076E-05 7.57245E-02 2.33142E-03
 -1      5940 6.04347E-05 7.95097E-02 3.80577E-03
 -1      5941 9.05826E-05 7.95521E-02 3.80206E-03
 -1      5942 5.53369E-05 7.76340E-02 3.89730E-03
 -1      5943 2.51817E-05 7.95309E-02 2.25987E-03
 -1      5944 7.06333E-05 8.30915E-02 3.59854E-03
 -1      5945 1.05854E-04 8.31391E-02 3.59528E-03
 -1      5946 6.55377E-05 8.13301E-02 3.70621E-03
 -1      5947 3.02558E-05 8.31165E-02 2.17228E-03
 -1      5948 8.07018E-05 8.64219E-02 3.35872E-03
 -1      5949 1.20944E-04 8.64737E-02 3.35621E-03
 -1      5950 7.57008E-05 8.47900E-02 3.48275E-03
 -1      5951 3.52621E-05 8.64508E-02 2.06847E-03
 -1      5952 9.02459E-05 8.94712E-02 3.08565E-03
 -1      5953 1.35313E-04 8.95257E-02 3.08433E-03
 -1      5954 8.55820E-05 8.79835E-02 3.22641E-03
 -1      5955 4.00193E-05 8.95043E-02 1.94813E-03
 -1      5956 9.83400E-05 9.22109E-02 2.77850E-03
 -1      5957 1.47670E-04 9.22659E-02 2.77887E-03
 -1      5958 9.45716E-05 9.08814E-02 2.93641E-03
 -1      5959 4.41047E-05 9.22486E-02 1.81081E-03
 -1      5960 1.02963E-04 9.46139E-02 2.43673E-03
 -1      5961 1.55222E-04 9.46659E-02 2.43913E-03
 -1      5962 1.01281E-04 9.34561E-02 2.61189E-03
 -1      5963 4.65905E-05 9.46563E-02 1.65626E-03
 -1      5964 1.00214E-04 9.66518E-02 2.06339E-03
 -1      5965 1.52292E-04 9.66965E-02 2.06731E-03
 -1      5966 1.02879E-04 9.56803E-02 2.25341E-03
 -1      5967 4.56698E-05 9.66971E-02 1.48603E-03
 -1      5968 8.43128E-05 9.82858E-02 1.67353E-03
 -1      5969 1.29214E-04 9.83183E-02 1.67699E-03
 -1      5970 9.42768E-05 9.75229E-02 1.86849E-03
 -1      5971 3.86318E-05 9.83275E-02 1.30756E-03
 -1      5972 4.98236E-05 9.94461E-02 1.30273E-03
 -1      5973 7.68887E-05 9.94629E-02 1.30366E-03
 -1      5974 6.92728E-05 9.89325E-02 1.48175E-03
 -1      5975 2.29075E-05 9.94701E-02 1.13833E-03
 -1      5976 0.00000E+00 1.00000E-01 1.00000E-03
 -1      5977 0.00000E+00 1.00000E-01 1.00000E-03
 -1      5978 2.60585E-05 9.98092E-02 1.14059E-03
 -1      5979 0.00000E+00 1.00000E-01 1.00000E-03
 -1      5980 0.00000E+00 0.00000E+00 0.00000E+00
 -1      5981 3.35167E-17 5.75184E-04 3.47237E-04
 -1      5982 0.00000E+00 0.00000E+00 0.00000E+00
 -1      5983-2.83978E-05 5.72021E-04 3.47490E-04
 -1      5984 0.00000E+00 0.00000E+00 0.00000E+00
 -1      5985 1.22480E-17 2.01306E-04 1.61826E-04
 -1      5986 4.11956E-17 5.46731E-04 1.83078E-04
 -1      5987 1.01202E-16 1.75386E-03 7.72209E-04
 -1      5988-4.87150E-05 1.74778E-03 7.72941E-04
 -1      5989 6.35956E-17 1.09825E-03 5.52354E-04
 -1      5990 1.16065E-16 1.70418E-03 4.07120E-04
 -1      5991 1.92675E-16 3.40107E-03 1.22423E-03
 -1      5992-5.88617E-05 3.39263E-03 1.22516E-03
 -1      5993 1.43465E-16 2.52409E-03 9.97507E-04
 -1      5994 2.15409E-16 3.34588E-03 6.47834E-04
 -1      5995 3.04854E-16 5.44684E-03 1.66392E-03
 -1      5996-6.13639E-05 5.43684E-03 1.66463E-03
 -1      5997 2.45834E-16 4.37716E-03 1.44709E-03
 -1      5998 3.34954E-16 5.39383E-03 8.83985E-04
 -1      5999 4.31346E-16 7.85297E-03 2.07311E-03
 -1      6000-5.94694E-05 7.84227E-03 2.07344E-03
 -1      6001 3.66345E-16 6.60668E-03 1.87278E-03
 -1      6002 4.70512E-16 7.80459E-03 1.10535E-03
 -1      6003 5.75999E-16 1.05926E-02 2.44718E-03
 -1      6004-5.54827E-05 1.05819E-02 2.44713E-03
 -1      6005 5.01552E-16 9.18278E-03 2.26459E-03
 -1      6006 6.20411E-16 1.05490E-02 1.30907E-03
 -1      6007 7.25629E-16 1.36398E-02 2.78623E-03
 -1      6008-5.06420E-05 1.36295E-02 2.78590E-03
 -1      6009 6.48685E-16 1.20795E-02 2.62105E-03
 -1      6010 7.73745E-16 1.36005E-02 1.49501E-03
 -1      6011 8.94794E-16 1.69667E-02 3.09118E-03
 -1      6012-4.55154E-05 1.69573E-02 3.09066E-03
 -1      6013 8.05069E-16 1.52701E-02 2.94292E-03
 -1      6014 9.50403E-16 1.69315E-02 1.66370E-03
 -1      6015 1.04778E-15 2.05444E-02 3.36293E-03
 -1      6016-4.03380E-05 2.05359E-02 3.36229E-03
 -1      6017 9.73580E-16 1.87261E-02 3.23117E-03
 -1      6018 1.12136E-15 2.05131E-02 1.81565E-03
 -1      6019 1.22808E-15 2.43424E-02 3.60205E-03
 -1      6020-3.51908E-05 2.43351E-02 3.60135E-03
 -1      6021 1.13637E-15 2.24178E-02 3.48654E-03
 -1      6022 1.28546E-15 2.43150E-02 1.95120E-03
 -1      6023 1.39908E-15 2.83300E-02 3.80895E-03
 -1      6024-3.00906E-05 2.83239E-02 3.80820E-03
 -1      6025 1.31281E-15 2.63145E-02 3.70952E-03
 -1      6026 1.46768E-15 2.83063E-02 2.07059E-03
 -1      6027 1.57815E-15 3.24759E-02 3.98383E-03
 -1      6028-2.50313E-05 3.24709E-02 3.98307E-03
 -1      6029 1.48011E-15 3.03851E-02 3.90038E-03
 -1      6030 1.63058E-15 3.24559E-02 2.17395E-03
 -1      6031 1.74083E-15 3.67484E-02 4.12683E-03
 -1      6032-2.00014E-05 3.67447E-02 4.12606E-03
 -1      6033 1.65400E-15 3.45983E-02 4.05931E-03
 -1      6034 1.81353E-15 3.67322E-02 2.26136E-03
 -1      6035 1.91409E-15 4.11161E-02 4.23802E-03
 -1      6036-1.49903E-05 4.11136E-02 4.23724E-03
 -1      6037 1.81902E-15 3.89224E-02 4.18640E-03
 -1      6038 1.98771E-15 4.11036E-02 2.33285E-03
 -1      6039 2.08879E-15 4.55472E-02 4.31744E-03
 -1      6040-9.98987E-06 4.55459E-02 4.31666E-03
 -1      6041 1.99749E-15 4.33257E-02 4.28170E-03
 -1      6042 2.15581E-15 4.55385E-02 2.38846E-03
 -1      6043 2.28550E-15 5.00100E-02 4.36511E-03
 -1      6044-4.99447E-06 5.00100E-02 4.36433E-03
 -1      6045 2.18766E-15 4.77766E-02 4.34524E-03
 -1      6046 2.33532E-15 5.00050E-02 2.42819E-03
 -1      6047 2.41309E-15 5.44728E-02 4.38102E-03
 -1      6048 3.28973E-10 5.44740E-02 4.38024E-03
 -1      6049 2.34869E-15 5.22434E-02 4.37703E-03
 -1      6050 2.47754E-15 5.44715E-02 2.45204E-03
 -1      6051 2.48453E-15 5.89039E-02 4.36519E-03
 -1      6052 4.99856E-06 5.89064E-02 4.36441E-03
 -1      6053 2.45320E-15 5.66943E-02 4.37708E-03
 -1      6054 2.57758E-15 5.89064E-02 2.46002E-03
 -1      6055 2.64011E-15 6.32716E-02 4.31759E-03
 -1      6056 1.00048E-05 6.32753E-02 4.31682E-03
 -1      6057 2.57043E-15 6.10976E-02 4.34536E-03
 -1      6058 2.67561E-15 6.32778E-02 2.45212E-03
 -1      6059 2.72252E-15 6.75441E-02 4.23820E-03
 -1      6060 1.50249E-05 6.75491E-02 4.23743E-03
 -1      6061 2.69129E-15 6.54217E-02 4.28187E-03
 -1      6062 2.73922E-15 6.75541E-02 2.42832E-03
 -1      6063 2.69753E-15 7.16900E-02 4.12697E-03
 -1      6064 2.00660E-05 7.16962E-02 4.12622E-03
 -1      6065 2.73631E-15 6.96349E-02 4.18657E-03
 -1      6066 2.74479E-15 7.17037E-02 2.38862E-03
 -1      6067 2.67074E-15 7.56777E-02 3.98381E-03
 -1      6068 2.51348E-05 7.56850E-02 3.98309E-03
 -1      6069 2.70390E-15 7.37056E-02 4.05939E-03
 -1      6070 2.67895E-15 7.56951E-02 2.33298E-03
 -1      6071 2.57462E-15 7.94759E-02 3.80855E-03
 -1      6072 3.02320E-05 7.94843E-02 3.80790E-03
 -1      6073 2.65114E-15 7.76024E-02 3.90021E-03
 -1      6074 2.61396E-15 7.94970E-02 2.26133E-03
 -1      6075 2.48656E-15 8.30536E-02 3.60093E-03
 -1      6076 3.53372E-05 8.30631E-02 3.60038E-03
 -1      6077 2.53275E-15 8.12942E-02 3.70882E-03
 -1      6078 2.44034E-15 8.30787E-02 2.17356E-03
 -1      6079 2.21773E-15 8.63808E-02 3.36048E-03
 -1      6080 4.03748E-05 8.63910E-02 3.36008E-03
 -1      6081 2.36401E-15 8.47504E-02 3.48486E-03
 -1      6082 2.24511E-15 8.64098E-02 2.06945E-03
 -1      6083 1.97688E-15 8.94281E-02 3.08645E-03
 -1      6084 4.51387E-05 8.94388E-02 3.08629E-03
 -1      6085 2.10594E-15 8.79411E-02 3.22773E-03
 -1      6086 1.92688E-15 8.94614E-02 1.94865E-03
 -1      6087 1.62006E-15 9.21677E-02 2.77798E-03
 -1      6088 4.91421E-05 9.21784E-02 2.77814E-03
 -1      6089 1.80250E-15 9.08380E-02 2.93659E-03
 -1      6090 1.61694E-15 9.22058E-02 1.81070E-03
 -1      6091 1.33979E-15 9.45733E-02 2.43475E-03
 -1      6092 5.13299E-05 9.45833E-02 2.43524E-03
 -1      6093 1.48920E-15 9.34139E-02 2.61062E-03
 -1      6094 1.29389E-15 9.46162E-02 1.65545E-03
 -1      6095 9.56696E-16 9.66174E-02 2.06045E-03
 -1      6096 4.97265E-05 9.66258E-02 2.06115E-03
 -1      6097 1.13855E-15 9.56424E-02 2.25080E-03
 -1      6098 9.22144E-16 9.66633E-02 1.48474E-03
 -1      6099 6.48253E-16 9.82609E-02 1.67099E-03
 -1      6100 4.15060E-05 9.82669E-02 1.67156E-03
 -1      6101 7.85077E-16 9.74928E-02 1.86558E-03
 -1      6102 6.29304E-16 9.83031E-02 1.30643E-03
 -1      6103 3.20727E-16 9.94331E-02 1.30198E-03
 -1      6104 2.43818E-05 9.94362E-02 1.30216E-03
 -1      6105 4.80073E-16 9.89135E-02 1.48024E-03
 -1      6106 3.02336E-16 9.94573E-02 1.13800E-03
 -1      6107 0.00000E+00 1.00000E-01 1.00000E-03
 -1      6108 0.00000E+00 1.00000E-01 1.00000E-03
 -1      6109 1.62305E-16 9.98029E-02 1.14070E-03
 -1      6110 0.00000E+00 1.00000E-01 1.00000E-03
 -1      6111 0.00000E+00 0.00000E+00 0.00000E+00
 -1      6112 5.80180E-05 5.62134E-04 3.48246E-04
 -1      6113 0.00000E+00 0.00000E+00 0.00000E+00
 -1      6114 2.83978E-05 5.72021E-04 3.47490E-04
 -1      6115 0.00000E+00 0.00000E+00 0.00000E+00
 -1      6116 3.02410E-05 1.94961E-04 1.61771E-04
 -1      6117 3.11505E-05 5.33955E-04 1.83656E-04
 -1      6118 9.89296E-05 1.72885E-03 7.75440E-04
 -1      6119 4.87150E-05 1.74778E-03 7.72941E-04
 -1      6120 8.09691E-05 1.07920E-03 5.54319E-04
 -1      6121 5.33224E-05 1.67974E-03 4.08946E-04
 -1      6122 1.18592E-04 3.36654E-03 1.22808E-03
 -1      6123 5.88617E-05 3.39263E-03 1.22516E-03
 -1      6124 1.11076E-04 2.49394E-03 1.00124E-03
 -1      6125 6.41237E-05 3.31200E-03 6.50034E-04
 -1      6126 1.23059E-04 5.40622E-03 1.66675E-03
 -1      6127 6.13639E-05 5.43684E-03 1.66463E-03
 -1      6128 1.22320E-04 4.33913E-03 1.45061E-03
 -1      6129 6.67496E-05 5.35374E-03 8.85646E-04
 -1      6130 1.18982E-04 7.80971E-03 2.07429E-03
 -1      6131 5.94694E-05 7.84227E-03 2.07344E-03
 -1      6132 1.21749E-04 6.56434E-03 1.87481E-03
 -1      6133 6.47905E-05 7.76169E-03 1.10611E-03
 -1      6134 1.10911E-04 1.05495E-02 2.44681E-03
 -1      6135 5.54827E-05 1.05819E-02 2.44713E-03
 -1      6136 1.15264E-04 9.13926E-03 2.26495E-03
 -1      6137 6.07107E-05 1.05060E-02 1.30897E-03
 -1      6138 1.01215E-04 1.35986E-02 2.78473E-03
 -1      6139 5.06420E-05 1.36295E-02 2.78590E-03
 -1      6140 1.06181E-04 1.20371E-02 2.62006E-03
 -1      6141 5.57898E-05 1.35595E-02 1.49429E-03
 -1      6142 9.09741E-05 1.69288E-02 3.08894E-03
 -1      6143 4.55154E-05 1.69573E-02 3.09066E-03
 -1      6144 9.61257E-05 1.52304E-02 2.94100E-03
 -1      6145 5.06037E-05 1.68937E-02 1.66257E-03
 -1      6146 8.06366E-05 2.05105E-02 3.36022E-03
 -1      6147 4.03380E-05 2.05359E-02 3.36229E-03
 -1      6148 8.58037E-05 1.86901E-02 3.22867E-03
 -1      6149 4.53865E-05 2.04793E-02 1.81426E-03
 -1      6150 7.03567E-05 2.43130E-02 3.59908E-03
 -1      6151 3.51908E-05 2.43351E-02 3.60135E-03
 -1      6152 7.54857E-05 2.23861E-02 3.48369E-03
 -1      6153 4.02145E-05 2.42856E-02 1.94967E-03
 -1      6154 6.01665E-05 2.83054E-02 3.80583E-03
 -1      6155 3.00906E-05 2.83239E-02 3.80820E-03
 -1      6156 6.52504E-05 2.62874E-02 3.70646E-03
 -1      6157 3.50999E-05 2.82817E-02 2.06898E-03
 -1      6158 5.00544E-05 3.24560E-02 3.98064E-03
 -1      6159 2.50313E-05 3.24709E-02 3.98307E-03
 -1      6160 5.51019E-05 3.03629E-02 3.89722E-03
 -1      6161 3.00326E-05 3.24361E-02 2.17230E-03
 -1      6162 3.99985E-05 3.67335E-02 4.12360E-03
 -1      6163 2.00014E-05 3.67447E-02 4.12606E-03
 -1      6164 4.50207E-05 3.45809E-02 4.05610E-03
 -1      6165 2.49986E-05 3.67173E-02 2.25969E-03
 -1      6166 2.99784E-05 4.11061E-02 4.23477E-03
 -1      6167 1.49903E-05 4.11136E-02 4.23724E-03
 -1      6168 3.49849E-05 3.89099E-02 4.18316E-03
 -1      6169 1.99856E-05 4.10937E-02 2.33117E-03
 -1      6170 1.99789E-05 4.55422E-02 4.31418E-03
 -1      6171 9.98987E-06 4.55459E-02 4.31666E-03
 -1      6172 2.49768E-05 4.33182E-02 4.27845E-03
 -1      6173 1.49844E-05 4.55335E-02 2.38677E-03
 -1      6174 9.98894E-06 5.00100E-02 4.36185E-03
 -1      6175 4.99447E-06 5.00100E-02 4.36433E-03
 -1      6176 1.49833E-05 4.77741E-02 4.34199E-03
 -1      6177 9.98884E-06 5.00050E-02 2.42650E-03
 -1      6178 1.27986E-10 5.44778E-02 4.37777E-03
 -1      6179-3.28968E-10 5.44740E-02 4.38024E-03
 -1      6180 4.99488E-06 5.22459E-02 4.37378E-03
 -1      6181 4.99443E-06 5.44765E-02 2.45035E-03
 -1      6182-9.99527E-06 5.89138E-02 4.36194E-03
 -1      6183-4.99856E-06 5.89064E-02 4.36441E-03
 -1      6184-4.99621E-06 5.67018E-02 4.37382E-03
 -1      6185-2.68413E-09 5.89163E-02 2.45834E-03
 -1      6186-2.00060E-05 6.32865E-02 4.31436E-03
 -1      6187-1.00048E-05 6.32753E-02 4.31682E-03
 -1      6188-1.49980E-05 6.11101E-02 4.34212E-03
 -1      6189-5.00649E-06 6.32927E-02 2.45044E-03
 -1      6190-3.00433E-05 6.75640E-02 4.23500E-03
 -1      6191-1.50249E-05 6.75491E-02 4.23743E-03
 -1      6192-2.50205E-05 6.54391E-02 4.27865E-03
 -1      6193-1.00217E-05 6.75739E-02 2.42667E-03
 -1      6194-4.01206E-05 7.17147E-02 4.12384E-03
 -1      6195-2.00660E-05 7.16962E-02 4.12622E-03
 -1      6196-3.50759E-05 6.96571E-02 4.18340E-03
 -1      6197-1.50539E-05 7.17284E-02 2.38700E-03
 -1      6198-5.02507E-05 7.57071E-02 3.98080E-03
 -1      6199-2.51348E-05 7.56850E-02 3.98309E-03
 -1      6200-4.51784E-05 7.37326E-02 4.05631E-03
 -1      6201-2.01076E-05 7.57245E-02 2.33142E-03
 -1      6202-6.04347E-05 7.95097E-02 3.80577E-03
 -1      6203-3.02320E-05 7.94843E-02 3.80790E-03
 -1      6204-5.53369E-05 7.76340E-02 3.89730E-03
 -1      6205-2.51817E-05 7.95309E-02 2.25987E-03
 -1      6206-7.06333E-05 8.30915E-02 3.59854E-03
 -1      6207-3.53372E-05 8.30631E-02 3.60038E-03
 -1      6208-6.55377E-05 8.13301E-02 3.70621E-03
 -1      6209-3.02558E-05 8.31165E-02 2.17228E-03
 -1      6210-8.07018E-05 8.64219E-02 3.35872E-03
 -1      6211-4.03748E-05 8.63910E-02 3.36008E-03
 -1      6212-7.57008E-05 8.47900E-02 3.48275E-03
 -1      6213-3.52621E-05 8.64508E-02 2.06847E-03
 -1      6214-9.02459E-05 8.94712E-02 3.08565E-03
 -1      6215-4.51387E-05 8.94388E-02 3.08629E-03
 -1      6216-8.55820E-05 8.79835E-02 3.22641E-03
 -1      6217-4.00193E-05 8.95043E-02 1.94813E-03
 -1      6218-9.83400E-05 9.22109E-02 2.77850E-03
 -1      6219-4.91421E-05 9.21784E-02 2.77814E-03
 -1      6220-9.45716E-05 9.08814E-02 2.93641E-03
 -1      6221-4.41047E-05 9.22486E-02 1.81081E-03
 -1      6222-1.02963E-04 9.46139E-02 2.43673E-03
 -1      6223-5.13299E-05 9.45833E-02 2.43524E-03
 -1      6224-1.01281E-04 9.34561E-02 2.61189E-03
 -1      6225-4.65905E-05 9.46563E-02 1.65626E-03
 -1      6226-1.00214E-04 9.66518E-02 2.06339E-03
 -1      6227-4.97265E-05 9.66258E-02 2.06115E-03
 -1      6228-1.02879E-04 9.56803E-02 2.25341E-03
 -1      6229-4.56698E-05 9.66971E-02 1.48603E-03
 -1      6230-8.43128E-05 9.82858E-02 1.67353E-03
 -1      6231-4.15060E-05 9.82669E-02 1.67156E-03
 -1      6232-9.42768E-05 9.75229E-02 1.86849E-03
 -1      6233-3.86318E-05 9.83275E-02 1.30756E-03
 -1      6234-4.98236E-05 9.94461E-02 1.30273E-03
 -1      6235-2.43818E-05 9.94362E-02 1.30216E-03
 -1      6236-6.92728E-05 9.89325E-02 1.48175E-03
 -1      6237-2.29075E-05 9.94701E-02 1.13833E-03
 -1      6238 0.00000E+00 1.00000E-01 1.00000E-03
 -1      6239 0.00000E+00 1.00000E-01 1.00000E-03
 -1      6240-2.60585E-05 9.98092E-02 1.14059E-03
 -1      6241 0.00000E+00 1.00000E-01 1.00000E-03
 -1      6242 0.00000E+00 0.00000E+00 0.00000E+00
 -1      6243 1.25210E-04 5.18606E-04 3.52419E-04
 -1      6244 0.00000E+00 0.00000E+00 0.00000E+00
 -1      6245 8.95071E-05 5.45192E-04 3.49495E-04
 -1      6246 0.00000E+00 0.00000E+00 0.00000E+00
 -1      6247 6.55763E-05 1.72352E-04 1.63917E-04
 -1      6248 6.71949E-05 4.91129E-04 1.85992E-04
 -1      6249 2.08749E-04 1.64671E-03 7.87445E-04
 -1      6250 1.51552E-04 1.69615E-03 7.79817E-04
 -1      6251 1.74619E-04 1.01535E-03 5.63262E-04
 -1      6252 1.12473E-04 1.59921E-03 4.15671E-04
 -1      6253 2.43813E-04 3.25573E-03 1.24099E-03
 -1      6254 1.80133E-04 3.32181E-03 1.23318E-03
 -1      6255 2.31220E-04 2.39617E-03 1.01458E-03
 -1      6256 1.31773E-04 3.20296E-03 6.57360E-04
 -1      6257 2.48331E-04 5.27847E-03 1.67456E-03
 -1      6258 1.85441E-04 5.35414E-03 1.67021E-03
 -1      6259 2.48712E-04 4.21839E-03 1.46140E-03
 -1      6260 1.34637E-04 5.22741E-03 8.90265E-04
 -1      6261 2.38192E-04 7.67570E-03 2.07630E-03
 -1      6262 1.78607E-04 7.75468E-03 2.07542E-03
 -1      6263 2.44494E-04 6.43226E-03 1.87969E-03
 -1      6264 1.29648E-04 7.62863E-03 1.10757E-03
 -1      6265 2.21375E-04 1.04172E-02 2.44411E-03
 -1      6266 1.66256E-04 1.04949E-02 2.44600E-03
 -1      6267 2.30305E-04 9.00530E-03 2.26444E-03
 -1      6268 1.21136E-04 1.03744E-02 1.30786E-03
 -1      6269 2.01896E-04 1.34735E-02 2.77876E-03
 -1      6270 1.51663E-04 1.35468E-02 2.78253E-03
 -1      6271 2.11828E-04 1.19079E-02 2.61556E-03
 -1      6272 1.11260E-04 1.34347E-02 1.49138E-03
 -1      6273 1.81518E-04 1.68142E-02 3.08091E-03
 -1      6274 1.36327E-04 1.68813E-02 3.08584E-03
 -1      6275 1.91758E-04 1.51103E-02 2.93388E-03
 -1      6276 1.00955E-04 1.67793E-02 1.65852E-03
 -1      6277 1.60977E-04 2.04084E-02 3.35097E-03
 -1      6278 1.20860E-04 2.04681E-02 3.35658E-03
 -1      6279 1.71245E-04 1.85816E-02 3.21994E-03
 -1      6280 9.06009E-05 2.03772E-02 1.80954E-03
 -1      6281 1.40527E-04 2.42246E-02 3.58914E-03
 -1      6282 1.05475E-04 2.42762E-02 3.59514E-03
 -1      6283 1.50734E-04 2.22907E-02 3.47403E-03
 -1      6284 8.03217E-05 2.41972E-02 1.94457E-03
 -1      6285 1.20223E-04 2.82312E-02 3.79551E-03
 -1      6286 9.02138E-05 2.82745E-02 3.80172E-03
 -1      6287 1.30357E-04 2.62061E-02 3.69630E-03
 -1      6288 7.01370E-05 2.82075E-02 2.06368E-03
 -1      6289 1.00048E-04 3.23965E-02 3.97012E-03
 -1      6290 7.50614E-05 3.24313E-02 3.97644E-03
 -1      6291 1.10121E-04 3.02960E-02 3.88679E-03
 -1      6292 6.00307E-05 3.23766E-02 2.16689E-03
 -1      6293 7.99646E-05 3.66888E-02 4.11299E-03
 -1      6294 5.99870E-05 3.67149E-02 4.11936E-03
 -1      6295 8.99966E-05 3.45288E-02 4.04553E-03
 -1      6296 4.99793E-05 3.66726E-02 2.25423E-03
 -1      6297 5.99411E-05 4.10763E-02 4.22412E-03
 -1      6298 4.49623E-05 4.10937E-02 4.23051E-03
 -1      6299 6.99471E-05 3.88726E-02 4.17252E-03
 -1      6300 3.99625E-05 4.10638E-02 2.32569E-03
 -1      6301 3.99516E-05 4.55273E-02 4.30352E-03
 -1      6302 2.99663E-05 4.55360E-02 4.30991E-03
 -1      6303 4.99433E-05 4.32958E-02 4.26779E-03
 -1      6304 2.99655E-05 4.55185E-02 2.38128E-03
 -1      6305 1.99780E-05 5.00100E-02 4.35117E-03
 -1      6306 1.49834E-05 5.00100E-02 4.35757E-03
 -1      6307 2.99637E-05 4.77666E-02 4.33131E-03
 -1      6308 1.99778E-05 5.00050E-02 2.42101E-03
 -1      6309 6.08748E-09 5.44927E-02 4.36710E-03
 -1      6310 2.11959E-09 5.44840E-02 4.37350E-03
 -1      6311 9.99261E-06 5.22533E-02 4.36311E-03
 -1      6312 9.99178E-06 5.44915E-02 2.44487E-03
 -1      6313-1.99768E-05 5.89437E-02 4.35129E-03
 -1      6314-1.49884E-05 5.89263E-02 4.35768E-03
 -1      6315-9.98309E-06 5.67242E-02 4.36316E-03
 -1      6316 1.20082E-09 5.89462E-02 2.45286E-03
 -1      6317-3.99854E-05 6.33312E-02 4.30375E-03
 -1      6318-3.00003E-05 6.33051E-02 4.31011E-03
 -1      6319-2.99768E-05 6.11474E-02 4.33149E-03
 -1      6320-1.00006E-05 6.33374E-02 2.44499E-03
 -1      6321-6.00379E-05 6.76235E-02 4.22448E-03
 -1      6322-4.50490E-05 6.75888E-02 4.23080E-03
 -1      6323-5.00046E-05 6.54913E-02 4.26808E-03
 -1      6324-2.00214E-05 6.76335E-02 2.42126E-03
 -1      6325-8.01562E-05 7.17889E-02 4.11349E-03
 -1      6326-6.01534E-05 7.17456E-02 4.11971E-03
 -1      6327-7.00871E-05 6.97240E-02 4.17295E-03
 -1      6328-3.00700E-05 7.18025E-02 2.38167E-03
 -1      6329-1.00360E-04 7.57955E-02 3.97078E-03
 -1      6330-7.53309E-05 7.57439E-02 3.97682E-03
 -1      6331-9.02464E-05 7.38140E-02 4.04610E-03
 -1      6332-4.01532E-05 7.58129E-02 2.32624E-03
 -1      6333-1.20649E-04 7.96118E-02 3.79635E-03
 -1      6334-9.05826E-05 7.95521E-02 3.80206E-03
 -1      6335-1.10496E-04 7.77294E-02 3.88753E-03
 -1      6336-5.02674E-05 7.96329E-02 2.25498E-03
 -1      6337-1.40954E-04 8.32061E-02 3.59016E-03
 -1      6338-1.05854E-04 8.31391E-02 3.59528E-03
 -1      6339-1.30809E-04 8.14387E-02 3.69723E-03
 -1      6340-6.03766E-05 8.32309E-02 2.16788E-03
 -1      6341-1.61030E-04 8.65470E-02 3.35209E-03
 -1      6342-1.20944E-04 8.64737E-02 3.35621E-03
 -1      6343-1.51049E-04 8.49101E-02 3.47513E-03
 -1      6344-7.03649E-05 8.65755E-02 2.06489E-03
 -1      6345-1.80224E-04 8.96033E-02 3.08182E-03
 -1      6346-1.35313E-04 8.95257E-02 3.08433E-03
 -1      6347-1.70807E-04 8.81126E-02 3.22103E-03
 -1      6348-7.99312E-05 8.96359E-02 1.94588E-03
 -1      6349-1.97014E-04 9.23448E-02 2.77875E-03
 -1      6350-1.47670E-04 9.22659E-02 2.77887E-03
 -1      6351-1.89081E-04 9.10153E-02 2.93446E-03
 -1      6352-8.83804E-05 9.23816E-02 1.81049E-03
 -1      6353-2.07968E-04 9.47414E-02 2.44206E-03
 -1      6354-1.55222E-04 9.46659E-02 2.43913E-03
 -1      6355-2.03560E-04 9.35880E-02 2.61463E-03
 -1      6356-9.41426E-05 9.47825E-02 1.65839E-03
 -1      6357-2.06249E-04 9.67624E-02 2.07336E-03
 -1      6358-1.52292E-04 9.66965E-02 2.06731E-03
 -1      6359-2.09389E-04 9.58008E-02 2.26141E-03
 -1      6360-9.40454E-05 9.68061E-02 1.49041E-03
 -1      6361-1.78084E-04 9.83677E-02 1.68311E-03
 -1      6362-1.29214E-04 9.83183E-02 1.67699E-03
 -1      6363-1.96455E-04 9.76204E-02 1.87901E-03
 -1      6364-8.16492E-05 9.84079E-02 1.31187E-03
 -1      6365-1.07605E-04 9.94894E-02 1.30598E-03
 -1      6366-7.68887E-05 9.94629E-02 1.30366E-03
 -1      6367-1.49537E-04 9.89961E-02 1.48891E-03
 -1      6368-4.94925E-05 9.95128E-02 1.13975E-03
 -1      6369 0.00000E+00 1.00000E-01 1.00000E-03
 -1      6370 0.00000E+00 1.00000E-01 1.00000E-03
 -1      6371-5.65380E-05 9.98317E-02 1.14227E-03
 -1      6372 0.00000E+00 1.00000E-01 1.00000E-03
 -1      6373 0.00000E+00 0.00000E+00 0.00000E+00
 -1      6374 2.26770E-04 4.20717E-04 3.79141E-04
 -1      6375 0.00000E+00 0.00000E+00 0.00000E+00
 -1      6376 1.69423E-04 4.79284E-04 3.59659E-04
 -1      6377 0.00000E+00 0.00000E+00 0.00000E+00
 -1      6378 1.15785E-04 1.25061E-04 1.68235E-04
 -1      6379 1.21591E-04 3.94039E-04 2.00451E-04
 -1      6380 3.38931E-04 1.48060E-03 8.18127E-04
 -1      6381 2.71753E-04 1.57715E-03 8.00599E-04
 -1      6382 2.94723E-04 8.80881E-04 5.94489E-04
 -1      6383 1.82499E-04 1.43501E-03 4.32535E-04
 -1      6384 3.76676E-04 3.04386E-03 1.26338E-03
 -1      6385 3.09592E-04 3.16509E-03 1.25100E-03
 -1      6386 3.64984E-04 2.20403E-03 1.04331E-03
 -1      6387 2.03431E-04 2.99305E-03 6.70001E-04
 -1      6388 3.74954E-04 5.04507E-03 1.68314E-03
 -1      6389 3.11839E-04 5.17670E-03 1.67942E-03
 -1      6390 3.78947E-04 3.99297E-03 1.47678E-03
 -1      6391 2.03123E-04 4.99550E-03 8.95555E-04
 -1      6392 3.56516E-04 7.43853E-03 2.07381E-03
 -1      6393 2.97622E-04 7.57113E-03 2.07618E-03
 -1      6394 3.67111E-04 6.19507E-03 1.88228E-03
 -1      6395 1.93921E-04 7.39241E-03 1.10690E-03
 -1      6396 3.30535E-04 1.01881E-02 2.43413E-03
 -1      6397 2.76203E-04 1.03155E-02 2.44049E-03
 -1      6398 3.44113E-04 8.77096E-03 2.25777E-03
 -1      6399 1.80779E-04 1.01458E-02 1.30312E-03
 -1      6400 3.01467E-04 1.32598E-02 2.76413E-03
 -1      6401 2.51858E-04 1.33781E-02 2.77289E-03
 -1      6402 3.16229E-04 1.16858E-02 2.60294E-03
 -1      6403 1.66079E-04 1.32213E-02 1.48411E-03
 -1      6404 2.71275E-04 1.66202E-02 3.06354E-03
 -1      6405 2.26512E-04 1.67274E-02 3.07368E-03
 -1      6406 2.86441E-04 1.49060E-02 2.91767E-03
 -1      6407 1.50850E-04 1.65855E-02 1.64978E-03
 -1      6408 2.40811E-04 2.02366E-02 3.33208E-03
 -1      6409 2.00964E-04 2.03313E-02 3.34297E-03
 -1      6410 2.56049E-04 1.83985E-02 3.20169E-03
 -1      6411 1.35524E-04 2.02055E-02 1.79997E-03
 -1      6412 2.10393E-04 2.40763E-02 3.56943E-03
 -1      6413 1.75500E-04 2.41580E-02 3.58072E-03
 -1      6414 2.25588E-04 2.21305E-02 3.45467E-03
 -1      6415 1.20255E-04 2.40489E-02 1.93456E-03
 -1      6416 1.80107E-04 2.81071E-02 3.77539E-03
 -1      6417 1.50187E-04 2.81754E-02 3.78687E-03
 -1      6418 1.95233E-04 2.60698E-02 3.67635E-03
 -1      6419 1.05076E-04 2.80835E-02 2.05345E-03
 -1      6420 1.49948E-04 3.22970E-02 3.94980E-03
 -1      6421 1.25009E-04 3.23518E-02 3.96138E-03
 -1      6422 1.65013E-04 3.01842E-02 3.86654E-03
 -1      6423 8.99766E-05 3.22771E-02 2.15655E-03
 -1      6424 1.19883E-04 3.66141E-02 4.09258E-03
 -1      6425 9.99296E-05 3.66552E-02 4.10419E-03
 -1      6426 1.34905E-04 3.44416E-02 4.02515E-03
 -1      6427 7.49337E-05 3.65979E-02 2.24384E-03
 -1      6428 8.98813E-05 4.10265E-02 4.20367E-03
 -1      6429 7.49138E-05 4.10539E-02 4.21530E-03
 -1      6430 1.04876E-04 3.88103E-02 4.15208E-03
 -1      6431 5.99275E-05 4.10140E-02 2.31528E-03
 -1      6432 5.99158E-05 4.55023E-02 4.28305E-03
 -1      6433 4.99347E-05 4.55161E-02 4.29469E-03
 -1      6434 7.48953E-05 4.32584E-02 4.24732E-03
 -1      6435 4.49423E-05 4.54936E-02 2.37087E-03
 -1      6436 2.99674E-05 5.00100E-02 4.33070E-03
 -1      6437 2.49726E-05 5.00100E-02 4.34234E-03
 -1      6438 4.49405E-05 4.77542E-02 4.31084E-03
 -1      6439 2.99671E-05 5.00050E-02 2.41060E-03
 -1      6440 2.08208E-08 5.45176E-02 4.34664E-03
 -1      6441 1.23807E-08 5.45039E-02 4.35827E-03
 -1      6442 1.49948E-05 5.22658E-02 4.34264E-03
 -1      6443 1.49937E-05 5.45164E-02 2.43446E-03
 -1      6444-2.99378E-05 5.89935E-02 4.33085E-03
 -1      6445-2.49598E-05 5.89661E-02 4.34247E-03
 -1      6446-1.49560E-05 5.67615E-02 4.34271E-03
 -1      6447 1.52903E-08 5.89960E-02 2.44246E-03
 -1      6448-5.99238E-05 6.34059E-02 4.28335E-03
 -1      6449-4.99597E-05 6.33648E-02 4.29496E-03
 -1      6450-4.49262E-05 6.12096E-02 4.31106E-03
 -1      6451-1.49752E-05 6.34121E-02 2.43461E-03
 -1      6452-8.99557E-05 6.77230E-02 4.20417E-03
 -1      6453-7.50067E-05 6.76682E-02 4.21574E-03
 -1      6454-7.49326E-05 6.55784E-02 4.24771E-03
 -1      6455-2.99854E-05 6.77329E-02 2.41092E-03
 -1      6456-1.20054E-04 7.19129E-02 4.09336E-03
 -1      6457-1.00123E-04 7.18446E-02 4.10484E-03
 -1      6458-1.04995E-04 6.98358E-02 4.15271E-03
 -1      6459-4.50230E-05 7.19266E-02 2.37143E-03
 -1      6460-1.50232E-04 7.59438E-02 3.95102E-03
 -1      6461-1.25329E-04 7.58621E-02 3.96233E-03
 -1      6462-1.35133E-04 7.39503E-02 4.02612E-03
 -1      6463-6.00914E-05 7.59612E-02 2.31618E-03
 -1      6464-1.80474E-04 7.97836E-02 3.77731E-03
 -1      6465-1.50617E-04 7.96889E-02 3.78826E-03
 -1      6466-1.65348E-04 7.78896E-02 3.86807E-03
 -1      6467-7.51784E-05 7.98046E-02 2.24526E-03
 -1      6468-2.10676E-04 8.34001E-02 3.57246E-03
 -1      6469-1.75906E-04 8.32929E-02 3.58274E-03
 -1      6470-1.95592E-04 8.16218E-02 3.67876E-03
 -1      6471-9.02297E-05 8.34247E-02 2.15880E-03
 -1      6472-2.40527E-04 8.67606E-02 3.33676E-03
 -1      6473-2.00917E-04 8.66423E-02 3.34584E-03
 -1      6474-2.25678E-04 8.51144E-02 3.45844E-03
 -1      6475-1.05096E-04 8.67889E-02 2.05694E-03
 -1      6476-2.69253E-04 8.98324E-02 3.07053E-03
 -1      6477-2.24933E-04 8.97051E-02 3.07752E-03
 -1      6478-2.55108E-04 8.83347E-02 3.20745E-03
 -1      6479-1.19417E-04 8.98644E-02 1.93984E-03
 -1      6480-2.95140E-04 9.25819E-02 2.77400E-03
 -1      6481-2.46284E-04 9.24493E-02 2.77749E-03
 -1      6482-2.82725E-04 9.12496E-02 2.92606E-03
 -1      6483-1.32411E-04 9.26178E-02 1.80756E-03
 -1      6484-3.14360E-04 9.49747E-02 2.44702E-03
 -1      6485-2.61307E-04 9.48431E-02 2.44517E-03
 -1      6486-3.05954E-04 9.38251E-02 2.61433E-03
 -1      6487-1.42326E-04 9.50144E-02 1.66006E-03
 -1      6488-3.19042E-04 9.69741E-02 2.09060E-03
 -1      6489-2.62064E-04 9.68529E-02 2.08109E-03
 -1      6490-3.19416E-04 9.60261E-02 2.27239E-03
 -1      6491-1.45539E-04 9.70159E-02 1.49790E-03
 -1      6492-2.89504E-04 9.85336E-02 1.70813E-03
 -1      6493-2.31988E-04 9.84371E-02 1.69383E-03
 -1      6494-3.10514E-04 9.78123E-02 1.90201E-03
 -1      6495-1.32819E-04 9.85720E-02 1.32307E-03
 -1      6496-1.95082E-04 9.95872E-02 1.32833E-03
 -1      6497-1.45678E-04 9.95287E-02 1.31193E-03
 -1      6498-2.52686E-04 9.91304E-02 1.51479E-03
 -1      6499-8.97565E-05 9.96099E-02 1.14985E-03
 -1      6500 0.00000E+00 1.00000E-01 1.00000E-03
 -1      6501 0.00000E+00 1.00000E-01 1.00000E-03
 -1      6502-9.99046E-05 9.98790E-02 1.14565E-03
 -1      6503 0.00000E+00 1.00000E-01 1.00000E-03
 -1      6504 0.00000E+00 0.00000E+00 0.00000E+00
 -1      6505 3.66552E-04 2.03369E-04 4.81456E-04
 -1      6506 0.00000E+00 0.00000E+00 0.00000E+00
 -1      6507 2.85449E-04 3.40557E-04 4.04197E-04
 -1      6508 0.00000E+00 0.00000E+00 0.00000E+00
 -1      6509 2.39285E-04-9.91223E-06 2.50454E-04
 -1      6510 1.95951E-04 1.76476E-04 2.55654E-04
 -1      6511 4.79037E-04 1.15986E-03 8.78017E-04
 -1      6512 4.13199E-04 1.34637E-03 8.47365E-04
 -1      6513 4.41742E-04 6.03024E-04 6.82143E-04
 -1      6514 2.57538E-04 1.11356E-03 4.65353E-04
 -1      6515 5.07564E-04 2.67990E-03 1.28135E-03
 -1      6516 4.43044E-04 2.88564E-03 1.27523E-03
 -1      6517 4.99984E-04 1.85552E-03 1.07947E-03
 -1      6518 2.73796E-04 2.62844E-03 6.80417E-04
 -1      6519 4.97454E-04 4.67325E-03 1.67851E-03
 -1      6520 4.37265E-04 4.87899E-03 1.68399E-03
 -1      6521 5.05180E-04 3.62184E-03 1.48211E-03
 -1      6522 2.69262E-04 4.62326E-03 8.93938E-04
 -1      6523 4.71453E-04 7.07835E-03 2.05572E-03
 -1      6524 4.14533E-04 7.27527E-03 2.06767E-03
 -1      6525 4.85828E-04 5.82720E-03 1.86992E-03
 -1      6526 2.56283E-04 7.03199E-03 1.09813E-03
 -1      6527 4.37325E-04 9.85062E-03 2.40869E-03
 -1      6528 3.84270E-04 1.00337E-02 2.42393E-03
 -1      6529 4.55018E-04 8.42108E-03 2.23544E-03
 -1      6530 2.39090E-04 9.80818E-03 1.29046E-03
 -1      6531 3.99531E-04 1.29510E-02 2.73475E-03
 -1      6532 3.50685E-04 1.31177E-02 2.75166E-03
 -1      6533 4.18708E-04 1.13621E-02 2.57520E-03
 -1      6534 2.20052E-04 1.29124E-02 1.46938E-03
 -1      6535 3.60126E-04 1.63433E-02 3.03216E-03
 -1      6536 3.15802E-04 1.64924E-02 3.04986E-03
 -1      6537 3.79936E-04 1.46128E-02 2.88711E-03
 -1      6538 2.00237E-04 1.63084E-02 1.63400E-03
 -1      6539 3.20128E-04 1.99931E-02 3.29973E-03
 -1      6540 2.80522E-04 2.01239E-02 3.31777E-03
 -1      6541 3.40157E-04 1.81381E-02 3.16973E-03
 -1      6542 1.80159E-04 1.99620E-02 1.78370E-03
 -1      6543 2.79976E-04 2.38671E-02 3.53665E-03
 -1      6544 2.45211E-04 2.39794E-02 3.55482E-03
 -1      6545 3.00052E-04 2.19042E-02 3.42205E-03
 -1      6546 1.60032E-04 2.38397E-02 1.91807E-03
 -1      6547 2.39843E-04 2.79327E-02 3.74243E-03
 -1      6548 2.09987E-04 2.80262E-02 3.76064E-03
 -1      6549 2.59900E-04 2.58780E-02 3.64345E-03
 -1      6550 1.39934E-04 2.79090E-02 2.03687E-03
 -1      6551 1.99773E-04 3.21574E-02 3.91678E-03
 -1      6552 1.74866E-04 3.22322E-02 3.93500E-03
 -1      6553 2.19798E-04 3.00271E-02 3.83355E-03
 -1      6554 1.19882E-04 3.21374E-02 2.13995E-03
 -1      6555 1.59767E-04 3.65093E-02 4.05955E-03
 -1      6556 1.39827E-04 3.65655E-02 4.07775E-03
 -1      6557 1.79762E-04 3.43195E-02 3.99212E-03
 -1      6558 9.98697E-05 3.64931E-02 2.22724E-03
 -1      6559 1.19806E-04 4.09566E-02 4.17064E-03
 -1      6560 1.04845E-04 4.09940E-02 4.18884E-03
 -1      6561 1.39781E-04 3.87231E-02 4.11906E-03
 -1      6562 7.98849E-05 4.09441E-02 2.29869E-03
 -1      6563 7.98751E-05 4.54674E-02 4.25003E-03
 -1      6564 6.98956E-05 4.54861E-02 4.26822E-03
 -1      6565 9.98379E-05 4.32061E-02 4.21430E-03
 -1      6566 5.99170E-05 4.54587E-02 2.35428E-03
 -1      6567 3.99578E-05 5.00100E-02 4.29769E-03
 -1      6568 3.49625E-05 5.00100E-02 4.31588E-03
 -1      6569 5.99154E-05 4.77367E-02 4.27783E-03
 -1      6570 3.99575E-05 5.00050E-02 2.39401E-03
 -1      6571 4.22952E-08 5.45526E-02 4.31362E-03
 -1      6572 3.10801E-08 5.45338E-02 4.33181E-03
 -1      6573 2.00006E-05 5.22833E-02 4.30962E-03
 -1      6574 1.99996E-05 5.45513E-02 2.41787E-03
 -1      6575-3.98828E-05 5.90634E-02 4.29783E-03
 -1      6576-3.49114E-05 5.90259E-02 4.31602E-03
 -1      6577-1.99181E-05 5.68139E-02 4.30969E-03
 -1      6578 3.78891E-08 5.90658E-02 2.42587E-03
 -1      6579-7.98289E-05 6.35107E-02 4.25034E-03
 -1      6580-6.98790E-05 6.34545E-02 4.26853E-03
 -1      6581-5.98520E-05 6.12969E-02 4.27805E-03
 -1      6582-1.99328E-05 6.35169E-02 2.41803E-03
 -1      6583-1.19807E-04 6.78626E-02 4.17118E-03
 -1      6584-1.04887E-04 6.77878E-02 4.18938E-03
 -1      6585-9.98124E-05 6.57005E-02 4.21471E-03
 -1      6586-3.99164E-05 6.78726E-02 2.39435E-03
 -1      6587-1.59823E-04 7.20874E-02 4.06045E-03
 -1      6588-1.39951E-04 7.19938E-02 4.07863E-03
 -1      6589-1.39809E-04 6.99929E-02 4.11975E-03
 -1      6590-5.99139E-05 7.21011E-02 2.35490E-03
 -1      6591-1.99864E-04 7.61530E-02 3.91829E-03
 -1      6592-1.75073E-04 7.60407E-02 3.93643E-03
 -1      6593-1.79840E-04 7.41421E-02 3.99328E-03
 -1      6594-7.99155E-05 7.61703E-02 2.29975E-03
 -1      6595-2.39868E-04 8.00271E-02 3.74501E-03
 -1      6596-2.10219E-04 7.98963E-02 3.76300E-03
 -1      6597-2.19874E-04 7.81160E-02 3.83551E-03
 -1      6598-9.98861E-05 8.00481E-02 2.22904E-03
 -1      6599-2.79651E-04 8.36771E-02 3.54106E-03
 -1      6600-2.45253E-04 8.35280E-02 3.55871E-03
 -1      6601-2.59799E-04 8.18822E-02 3.64682E-03
 -1      6602-1.19733E-04 8.37018E-02 2.14302E-03
 -1      6603-3.18785E-04 8.70695E-02 3.30721E-03
 -1      6604-2.79818E-04 8.69028E-02 3.32411E-03
 -1      6605-2.99331E-04 8.54076E-02 3.42781E-03
 -1      6606-1.39249E-04 8.70979E-02 2.04205E-03
 -1      6607-3.56335E-04 9.01700E-02 3.04452E-03
 -1      6608-3.13088E-04 8.99868E-02 3.05989E-03
 -1      6609-3.37830E-04 8.86585E-02 3.17938E-03
 -1      6610-1.57996E-04 9.02022E-02 1.92664E-03
 -1      6611-3.90473E-04 9.29423E-02 2.75452E-03
 -1      6612-3.43281E-04 9.27452E-02 2.76693E-03
 -1      6613-3.73981E-04 9.15996E-02 2.90283E-03
 -1      6614-1.75129E-04 9.29783E-02 1.79743E-03
 -1      6615-4.17322E-04 9.53468E-02 2.43942E-03
 -1      6616-3.66759E-04 9.51408E-02 2.44611E-03
 -1      6617-4.05118E-04 9.41932E-02 2.59992E-03
 -1      6618-1.88872E-04 9.53868E-02 1.65550E-03
 -1      6619-4.30209E-04 9.73384E-02 2.10285E-03
 -1      6620-3.75436E-04 9.71324E-02 2.09939E-03
 -1      6621-4.26098E-04 9.63975E-02 2.27353E-03
 -1      6622-1.96116E-04 9.73807E-02 1.50261E-03
 -1      6623-4.09450E-04 9.88547E-02 1.75717E-03
 -1      6624-3.53146E-04 9.86679E-02 1.73225E-03
 -1      6625-4.25643E-04 9.81612E-02 1.93021E-03
 -1      6626-1.87646E-04 9.88936E-02 1.34501E-03
 -1      6627-3.15430E-04 9.98048E-02 1.41515E-03
 -1      6628-2.45656E-04 9.96674E-02 1.34937E-03
 -1      6629-3.78912E-04 9.94086E-02 1.58830E-03
 -1      6630-1.44687E-04 9.98275E-02 1.18949E-03
 -1      6631 0.00000E+00 1.00000E-01 1.00000E-03
 -1      6632 0.00000E+00 1.00000E-01 1.00000E-03
 -1      6633-2.06333E-04 1.00014E-01 1.21592E-03
 -1      6634 0.00000E+00 1.00000E-01 1.00000E-03
 -1      6635 0.00000E+00 0.00000E+00 0.00000E+00
 -1      6636-7.02931E-04 3.20377E-04 9.56797E-04
 -1      6637 0.00000E+00 0.00000E+00 0.00000E+00
 -1      6638-4.34048E-04 5.35883E-04 7.62761E-04
 -1      6639 0.00000E+00 0.00000E+00 0.00000E+00
 -1      6640-4.65672E-04 4.90434E-05 4.97013E-04
 -1      6641-5.34641E-04 2.48645E-04 7.12801E-04
 -1      6642 0.00000E+00 0.00000E+00 0.00000E+00
 -1      6643-5.46836E-04 4.55766E-04 8.10806E-04
 -1      6644 0.00000E+00 0.00000E+00 0.00000E+00
 -1      6645-2.22019E-04 1.82679E-04 3.41429E-04
 -1      6646-3.31295E-04 4.65251E-04 5.64163E-04
 -1      6647-9.13303E-04 1.34476E-03 1.75561E-03
 -1      6648-6.44215E-04 1.66439E-03 1.64380E-03
 -1      6649-8.44890E-04 7.66129E-04 1.36473E-03
 -1      6650-6.97917E-04 1.23523E-03 1.30492E-03
 -1      6651-7.86732E-04 1.52796E-03 1.69862E-03
 -1      6652-5.61617E-04 1.04268E-03 1.19897E-03
 -1      6653-4.93338E-04 1.55478E-03 1.21851E-03
 -1      6654-9.67551E-04 2.87898E-03 2.54957E-03
 -1      6655-7.15853E-04 3.24213E-03 2.51691E-03
 -1      6656-9.52640E-04 2.05236E-03 2.15462E-03
 -1      6657-7.39116E-04 2.76347E-03 1.90101E-03
 -1      6658-8.43109E-04 3.08183E-03 2.53819E-03
 -1      6659-6.93265E-04 2.39973E-03 2.08764E-03
 -1      6660-5.47831E-04 3.12657E-03 1.87557E-03
 -1      6661-9.49032E-04 4.86185E-03 3.31503E-03
 -1      6662-7.13359E-04 5.23338E-03 3.32514E-03
 -1      6663-9.63529E-04 3.81694E-03 2.93765E-03
 -1      6664-7.24229E-04 4.75316E-03 2.48260E-03
 -1      6665-8.33019E-04 5.06594E-03 3.32577E-03
 -1      6666-7.20539E-04 4.18754E-03 2.92881E-03
 -1      6667-5.45202E-04 5.12450E-03 2.49004E-03
 -1      6668-8.99051E-04 7.25231E-03 4.03791E-03
 -1      6669-6.78374E-04 7.61233E-03 4.07378E-03
 -1      6670-9.26874E-04 6.00873E-03 3.68221E-03
 -1      6671-6.85803E-04 7.15199E-03 3.03250E-03
 -1      6672-7.89632E-04 7.44825E-03 4.06132E-03
 -1      6673-6.98612E-04 6.37639E-03 3.70710E-03
 -1      6674-5.18103E-04 7.51190E-03 3.05967E-03
 -1      6675-8.32220E-04 1.00094E-02 4.71214E-03
 -1      6676-6.28029E-04 1.03468E-02 4.76206E-03
 -1      6677-8.66968E-04 8.58742E-03 4.38148E-03
 -1      6678-6.35096E-04 9.91781E-03 3.54606E-03
 -1      6679-7.30702E-04 1.01919E-02 4.74206E-03
 -1      6680-6.54437E-04 8.93716E-03 4.42544E-03
 -1      6681-4.79680E-04 1.02552E-02 3.58400E-03
 -1      6682-7.57579E-04 1.30948E-02 5.33269E-03
 -1      6683-5.71046E-04 1.34035E-02 5.39016E-03
 -1      6684-7.95516E-04 1.15134E-02 5.02935E-03
 -1      6685-5.78738E-04 1.30119E-02 4.01924E-03
 -1      6686-6.64629E-04 1.32612E-02 5.36594E-03
 -1      6687-6.00054E-04 1.18369E-02 5.08367E-03
 -1      6688-4.36495E-04 1.33206E-02 4.06297E-03
 -1      6689-6.79372E-04 1.64724E-02 5.89600E-03
 -1      6690-5.11425E-04 1.67492E-02 5.95731E-03
 -1      6691-7.18726E-04 1.47493E-02 5.62166E-03
 -1      6692-5.19857E-04 1.63980E-02 4.44951E-03
 -1      6693-5.95572E-04 1.66213E-02 5.93084E-03
 -1      6694-5.41420E-04 1.50423E-02 5.68139E-03
 -1      6695-3.91491E-04 1.66748E-02 4.49619E-03
 -1      6696-5.99753E-04 2.01075E-02 6.39955E-03
 -1      6697-4.50981E-04 2.03508E-02 6.46273E-03
 -1      6698-6.39646E-04 1.82599E-02 6.15535E-03
 -1      6699-4.60003E-04 2.00416E-02 4.83500E-03
 -1      6700-5.25458E-04 2.02381E-02 6.43510E-03
 -1      6701-4.81245E-04 1.85201E-02 6.21777E-03
 -1      6702-3.45978E-04 2.02850E-02 4.88311E-03
 -1      6703-5.19683E-04 2.39667E-02 6.84174E-03
 -1      6704-3.90440E-04 2.41758E-02 6.90575E-03
 -1      6705-5.59732E-04 2.20111E-02 6.62838E-03
 -1      6706-3.99866E-04 2.39095E-02 5.17451E-03
 -1      6707-4.55107E-04 2.40788E-02 6.87756E-03
 -1      6708-4.20701E-04 2.22374E-02 6.69206E-03
 -1      6709-3.00463E-04 2.41186E-02 5.22326E-03
 -1      6710-4.39556E-04 2.80173E-02 7.22158E-03
 -1      6711-3.30041E-04 2.81917E-02 7.28594E-03
 -1      6712-4.79610E-04 2.59701E-02 7.03948E-03
 -1      6713-3.39720E-04 2.79688E-02 5.46730E-03
 -1      6714-3.84820E-04 2.81108E-02 7.25749E-03
 -1      6715-3.60218E-04 2.61619E-02 7.10372E-03
 -1      6716-2.55100E-04 2.81432E-02 5.51632E-03
 -1      6717-3.59498E-04 3.22272E-02 7.53852E-03
 -1      6718-2.69821E-04 3.23668E-02 7.60301E-03
 -1      6719-3.99512E-04 3.01044E-02 7.38793E-03
 -1      6720-2.79647E-04 3.21873E-02 5.71294E-03
 -1      6721-3.14669E-04 3.23020E-02 7.57445E-03
 -1      6722-2.99910E-04 3.02614E-02 7.45237E-03
 -1      6723-2.09898E-04 3.23269E-02 5.76205E-03
 -1      6724-2.79530E-04 3.65642E-02 7.79227E-03
 -1      6725-2.09746E-04 3.66689E-02 7.85679E-03
 -1      6726-3.19502E-04 3.43818E-02 7.67330E-03
 -1      6727-2.19654E-04 3.65330E-02 5.91119E-03
 -1      6728-2.44642E-04 3.66203E-02 7.82819E-03
 -1      6729-2.39768E-04 3.45039E-02 7.73781E-03
 -1      6730-1.64822E-04 3.66378E-02 5.96032E-03
 -1      6731-1.99634E-04 4.09965E-02 7.98267E-03
 -1      6732-1.49771E-04 4.10663E-02 8.04719E-03
 -1      6733-2.39574E-04 3.87704E-02 7.89539E-03
 -1      6734-1.59723E-04 4.09741E-02 6.06194E-03
 -1      6735-1.74704E-04 4.10339E-02 8.01858E-03
 -1      6736-1.79749E-04 3.88577E-02 7.95991E-03
 -1      6737-1.19830E-04 4.10439E-02 6.11106E-03
 -1      6738-1.19785E-04 4.54924E-02 8.10965E-03
 -1      6739-8.98559E-05 4.55273E-02 8.17416E-03
 -1      6740-1.59705E-04 4.32385E-02 8.05409E-03
 -1      6741-9.98313E-05 4.54787E-02 6.16512E-03
 -1      6742-1.04821E-04 4.55111E-02 8.14555E-03
 -1      6743-1.19808E-04 4.32909E-02 8.11860E-03
 -1      6744-7.48873E-05 4.55136E-02 6.21423E-03
 -1      6745-3.99590E-05 5.00200E-02 8.17318E-03
 -1      6746-2.99683E-05 5.00200E-02 8.23768E-03
 -1      6747-7.98704E-05 4.77542E-02 8.14934E-03
 -1      6748-3.99583E-05 5.00150E-02 6.22071E-03
 -1      6749-3.49635E-05 5.00200E-02 8.20907E-03
 -1      6750-5.99103E-05 4.77716E-02 8.21385E-03
 -1      6751-2.99678E-05 5.00150E-02 6.26982E-03
 -1      6752 3.98651E-05 5.45476E-02 8.17325E-03
 -1      6753 2.99172E-05 5.45127E-02 8.23775E-03
 -1      6754-4.80598E-08 5.22858E-02 8.18114E-03
 -1      6755 1.99128E-05 5.45513E-02 6.22871E-03
 -1      6756 3.48918E-05 5.45289E-02 8.20914E-03
 -1      6757-2.68201E-08 5.22683E-02 8.24564E-03
 -1      6758 1.49497E-05 5.45164E-02 6.27782E-03
 -1      6759 1.19707E-04 5.90434E-02 8.10986E-03
 -1      6760 8.98254E-05 5.89736E-02 8.17437E-03
 -1      6761 7.97823E-05 5.68015E-02 8.14948E-03
 -1      6762 7.97983E-05 5.90559E-02 6.18913E-03
 -1      6763 1.04768E-04 5.90060E-02 8.14576E-03
 -1      6764 5.98668E-05 5.67491E-02 8.21398E-03
 -1      6765 5.98852E-05 5.89861E-02 6.23824E-03
 -1      6766 1.99588E-04 6.34758E-02 7.98306E-03
 -1      6767 1.49784E-04 6.33711E-02 8.04756E-03
 -1      6768 1.59641E-04 6.12695E-02 8.05438E-03
 -1      6769 1.39715E-04 6.34970E-02 6.10198E-03
 -1      6770 1.74691E-04 6.34197E-02 8.01897E-03
 -1      6771 1.19796E-04 6.11823E-02 8.11889E-03
 -1      6772 1.04861E-04 6.33922E-02 6.15109E-03
 -1      6773 2.79528E-04 6.78128E-02 7.79291E-03
 -1      6774 2.09826E-04 6.76733E-02 7.85737E-03
 -1      6775 2.39548E-04 6.56582E-02 7.89589E-03
 -1      6776 1.99679E-04 6.78427E-02 5.96733E-03
 -1      6777 2.44687E-04 6.77380E-02 7.82882E-03
 -1      6778 1.79792E-04 6.55361E-02 7.96038E-03
 -1      6779 1.49905E-04 6.77031E-02 6.01641E-03
 -1      6780 3.59536E-04 7.20227E-02 7.53955E-03
 -1      6781 2.69988E-04 7.18483E-02 7.60388E-03
 -1      6782 3.19521E-04 6.99357E-02 7.67411E-03
 -1      6783 2.59701E-04 7.20613E-02 5.78530E-03
 -1      6784 3.14783E-04 7.19292E-02 7.57544E-03
 -1      6785 2.39890E-04 6.97787E-02 7.73852E-03
 -1      6786 1.95047E-04 7.18869E-02 5.83427E-03
 -1      6787 4.39583E-04 7.60735E-02 7.22329E-03
 -1      6788 3.30287E-04 7.58644E-02 7.28726E-03
 -1      6789 3.99555E-04 7.40700E-02 7.38925E-03
 -1      6790 3.19760E-04 7.61207E-02 5.55611E-03
 -1      6791 3.84978E-04 7.59613E-02 7.25908E-03
 -1      6792 3.00121E-04 7.38782E-02 7.45344E-03
 -1      6793 2.40306E-04 7.59116E-02 5.60481E-03
 -1      6794 5.19529E-04 7.99328E-02 6.84463E-03
 -1      6795 3.90670E-04 7.96895E-02 6.90778E-03
 -1      6796 4.79576E-04 7.80291E-02 7.04170E-03
 -1      6797 3.79760E-04 7.99886E-02 5.28019E-03
 -1      6798 4.55185E-04 7.98022E-02 6.88013E-03
 -1      6799 3.60477E-04 7.78028E-02 7.10534E-03
 -1      6800 2.85653E-04 7.97452E-02 5.32826E-03
 -1      6801 5.98982E-04 8.35681E-02 6.40450E-03
 -1      6802 4.50891E-04 8.32913E-02 6.46586E-03
 -1      6803 5.59344E-04 8.17806E-02 6.63215E-03
 -1      6804 4.39421E-04 8.36325E-02 4.95823E-03
 -1      6805 5.25099E-04 8.34193E-02 6.43931E-03
 -1      6806 4.20831E-04 8.15203E-02 6.69458E-03
 -1      6807 3.30923E-04 8.33556E-02 5.00493E-03
 -1      6808 6.77014E-04 8.69460E-02 5.90442E-03
 -1      6809 5.10243E-04 8.66372E-02 5.96213E-03
 -1      6810 6.38247E-04 8.52914E-02 6.16181E-03
 -1      6811 4.98075E-04 8.70188E-02 4.59138E-03
 -1      6812 5.93923E-04 8.67795E-02 5.93771E-03
 -1      6813 4.80753E-04 8.49983E-02 6.22167E-03
 -1      6814 3.75620E-04 8.67100E-02 4.63531E-03
 -1      6815 7.51571E-04 9.00316E-02 5.34676E-03
 -1      6816 5.67009E-04 8.96941E-02 5.39735E-03
 -1      6817 7.14889E-04 8.85276E-02 5.63258E-03
 -1      6818 5.54260E-04 9.01131E-02 4.18135E-03
 -1      6819 6.59826E-04 8.98490E-02 5.37687E-03
 -1      6820 5.39123E-04 8.82039E-02 5.68732E-03
 -1      6821 4.18521E-04 8.97756E-02 4.21991E-03
 -1      6822 8.18660E-04 9.27886E-02 4.73484E-03
 -1      6823 6.17449E-04 9.24283E-02 4.77224E-03
 -1      6824 7.86384E-04 9.14536E-02 5.04734E-03
 -1      6825 6.05085E-04 9.28789E-02 3.73049E-03
 -1      6826 7.18907E-04 9.25925E-02 4.75882E-03
 -1      6827 5.93396E-04 9.11037E-02 5.09233E-03
 -1      6828 4.56935E-04 9.25187E-02 3.75910E-03
 -1      6829 8.69821E-04 9.51781E-02 4.07338E-03
 -1      6830 6.53461E-04 9.48062E-02 4.08663E-03
 -1      6831 8.46908E-04 9.40319E-02 4.40999E-03
 -1      6832 6.44500E-04 9.52769E-02 3.24241E-03
 -1      6833 7.63336E-04 9.49737E-02 4.08546E-03
 -1      6834 6.38024E-04 9.36639E-02 4.43708E-03
 -1      6835 4.84923E-04 9.49052E-02 3.25290E-03
 -1      6836 8.91431E-04 9.71580E-02 3.36813E-03
 -1      6837 6.59143E-04 9.67944E-02 3.34127E-03
 -1      6838 8.85533E-04 9.62219E-02 3.72624E-03
 -1      6839 6.62289E-04 9.72641E-02 2.72134E-03
 -1      6840 7.76605E-04 9.69547E-02 3.35947E-03
 -1      6841 6.61833E-04 9.58508E-02 3.72173E-03
 -1      6842 4.90604E-04 9.69006E-02 2.70164E-03
 -1      6843 8.44995E-04 9.86853E-02 2.63244E-03
 -1      6844 5.95732E-04 9.83652E-02 2.53136E-03
 -1      6845 8.79617E-04 9.79818E-02 3.00260E-03
 -1      6846 6.28863E-04 9.87869E-02 2.18320E-03
 -1      6847 7.27813E-04 9.85016E-02 2.58110E-03
 -1      6848 6.39777E-04 9.76339E-02 2.94356E-03
 -1      6849 4.44313E-04 9.84668E-02 2.10757E-03
 -1      6850 6.52550E-04 9.96968E-02 1.88974E-03
 -1      6851 4.02904E-04 9.94810E-02 1.71092E-03
 -1      6852 7.83125E-04 9.92584E-02 2.26923E-03
 -1      6853 4.83851E-04 9.97638E-02 1.64627E-03
 -1      6854 5.07683E-04 9.95612E-02 1.75496E-03
 -1      6855 5.20375E-04 9.89814E-02 2.11742E-03
 -1      6856 2.99831E-04 9.95469E-02 1.51300E-03
 -1      6857 0.00000E+00 1.00000E-01 1.00000E-03
 -1      6858 0.00000E+00 1.00000E-01 1.00000E-03
 -1      6859 4.32896E-04 9.99598E-02 1.46214E-03
 -1      6860 0.00000E+00 1.00000E-01 1.00000E-03
 -1      6861 0.00000E+00 1.00000E-01 1.00000E-03
 -1      6862 2.06426E-04 9.98260E-02 1.31830E-03
 -1      6863 0.00000E+00 1.00000E-01 1.00000E-03
 -1      6864 0.00000E+00 0.00000E+00 0.00000E+00
 -1      6865-2.38860E-04 6.37759E-04 7.11849E-04
 -1      6866 0.00000E+00 0.00000E+00 0.00000E+00
 -1      6867-3.23377E-04 5.96351E-04 7.25527E-04
 -1      6868 0.00000E+00 0.00000E+00 0.00000E+00
 -1      6869-1.25829E-04 2.31762E-04 3.33732E-04
 -1      6870-1.82417E-04 5.64280E-04 5.25205E-04
 -1      6871-3.96340E-04 1.83943E-03 1.58796E-03
 -1      6872-5.16130E-04 1.76527E-03 1.61170E-03
 -1      6873-3.32248E-04 1.18478E-03 1.14123E-03
 -1      6874-3.03577E-04 1.72390E-03 1.17448E-03
 -1      6875-4.62623E-04 3.46287E-03 2.47774E-03
 -1      6876-5.87766E-04 3.36753E-03 2.49501E-03
 -1      6877-4.38721E-04 2.60143E-03 2.03614E-03
 -1      6878-3.54318E-04 3.34175E-03 1.84405E-03
 -1      6879-4.71623E-04 5.47311E-03 3.31127E-03
 -1      6880-5.92660E-04 5.36793E-03 3.31930E-03
 -1      6881-4.72113E-04 4.42059E-03 2.90269E-03
 -1      6882-3.60818E-04 5.36041E-03 2.47851E-03
 -1      6883-4.52513E-04 7.85346E-03 4.07971E-03
 -1      6884-5.65807E-04 7.74673E-03 4.07893E-03
 -1      6885-4.64481E-04 6.61863E-03 3.70397E-03
 -1      6886-3.45917E-04 7.75066E-03 3.06394E-03
 -1      6887-4.20103E-04 1.05781E-02 4.78130E-03
 -1      6888-5.24441E-04 1.04751E-02 4.77439E-03
 -1      6889-4.37375E-04 9.17452E-03 4.43881E-03
 -1      6890-3.21097E-04 1.04852E-02 3.59893E-03
 -1      6891-3.82103E-04 1.36185E-02 5.41765E-03
 -1      6892-4.76850E-04 1.35224E-02 5.40678E-03
 -1      6893-4.01528E-04 1.20608E-02 5.10759E-03
 -1      6894-2.92218E-04 1.35348E-02 4.08452E-03
 -1      6895-3.42012E-04 1.69439E-02 5.98963E-03
 -1      6896-4.26903E-04 1.68566E-02 5.97640E-03
 -1      6897-3.62194E-04 1.52475E-02 5.71166E-03
 -1      6898-2.61895E-04 1.68691E-02 4.52160E-03
 -1      6899-3.01362E-04 2.05230E-02 6.49775E-03
 -1      6900-3.76285E-04 2.04457E-02 6.48316E-03
 -1      6901-3.21708E-04 1.87037E-02 6.25166E-03
 -1      6902-2.31245E-04 2.04570E-02 4.91069E-03
 -1      6903-2.60729E-04 2.43242E-02 6.94222E-03
 -1      6904-3.25651E-04 2.42575E-02 6.92689E-03
 -1      6905-2.81027E-04 2.23978E-02 6.72793E-03
 -1      6906-2.00671E-04 2.42669E-02 5.25200E-03
 -1      6907-2.20280E-04 2.83159E-02 7.32315E-03
 -1      6908-2.75197E-04 2.82601E-02 7.30744E-03
 -1      6909-2.40479E-04 2.62982E-02 7.14062E-03
 -1      6910-1.70275E-04 2.82673E-02 5.54565E-03
 -1      6911-1.80020E-04 3.24663E-02 7.64058E-03
 -1      6912-2.24940E-04 3.24215E-02 7.62467E-03
 -1      6913-2.00128E-04 3.03732E-02 7.48980E-03
 -1      6914-1.40046E-04 3.24264E-02 5.79166E-03
 -1      6915-1.39903E-04 3.67436E-02 7.89452E-03
 -1      6916-1.74834E-04 3.67100E-02 7.87853E-03
 -1      6917-1.59946E-04 3.45910E-02 7.77548E-03
 -1      6918-1.09941E-04 3.67125E-02 5.99007E-03
 -1      6919-9.98825E-05 4.11162E-02 8.08499E-03
 -1      6920-1.24831E-04 4.10937E-02 8.06895E-03
 -1      6921-1.19884E-04 3.89200E-02 7.99769E-03
 -1      6922-7.99150E-05 4.10937E-02 6.14087E-03
 -1      6923-5.99176E-05 4.55522E-02 8.21199E-03
 -1      6924-7.48885E-05 4.55410E-02 8.19594E-03
 -1      6925-7.98951E-05 4.33282E-02 8.15642E-03
 -1      6926-4.99359E-05 4.55385E-02 6.24406E-03
 -1      6927-1.99786E-05 5.00200E-02 8.27552E-03
 -1      6928-2.49734E-05 5.00200E-02 8.25946E-03
 -1      6929-3.99464E-05 4.77841E-02 8.25168E-03
 -1      6930-1.99782E-05 5.00150E-02 6.29966E-03
 -1      6931 1.99586E-05 5.44878E-02 8.27558E-03
 -1      6932 2.49397E-05 5.44990E-02 8.25953E-03
 -1      6933-1.11759E-08 5.22559E-02 8.28348E-03
 -1      6934 9.97757E-06 5.44915E-02 6.30765E-03
 -1      6935 5.99167E-05 5.89238E-02 8.21217E-03
 -1      6936 7.48754E-05 5.89462E-02 8.19613E-03
 -1      6937 3.99334E-05 5.67117E-02 8.25180E-03
 -1      6938 3.99500E-05 5.89362E-02 6.26804E-03
 -1      6939 9.99221E-05 6.32964E-02 8.08529E-03
 -1      6940 1.24862E-04 6.33300E-02 8.06929E-03
 -1      6941 7.99114E-05 6.11200E-02 8.15666E-03
 -1      6942 6.99604E-05 6.33175E-02 6.18083E-03
 -1      6943 1.40008E-04 6.75737E-02 7.89493E-03
 -1      6944 1.74935E-04 6.76185E-02 7.87903E-03
 -1      6945 1.19952E-04 6.54489E-02 7.99804E-03
 -1      6946 1.00036E-04 6.76036E-02 6.04602E-03
 -1      6947 1.80213E-04 7.17242E-02 7.64110E-03
 -1      6948 2.25133E-04 7.17800E-02 7.62538E-03
 -1      6949 1.60093E-04 6.96668E-02 7.77595E-03
 -1      6950 1.30209E-04 7.17627E-02 5.86361E-03
 -1      6951 2.20567E-04 7.57160E-02 7.32378E-03
 -1      6952 2.75486E-04 7.57826E-02 7.30842E-03
 -1      6953 2.00371E-04 7.37419E-02 7.49038E-03
 -1      6954 1.60507E-04 7.57632E-02 5.63361E-03
 -1      6955 2.61051E-04 7.95173E-02 6.94295E-03
 -1      6956 3.25960E-04 7.95946E-02 6.92827E-03
 -1      6957 2.40798E-04 7.76424E-02 7.14131E-03
 -1      6958 1.90926E-04 7.95733E-02 5.35598E-03
 -1      6959 3.01490E-04 8.30967E-02 6.49853E-03
 -1      6960 3.76351E-04 8.31839E-02 6.48510E-03
 -1      6961 2.81299E-04 8.13367E-02 6.72870E-03
 -1      6962 2.21351E-04 8.31613E-02 5.03069E-03
 -1      6963 3.41326E-04 8.64223E-02 5.99033E-03
 -1      6964 4.26023E-04 8.65183E-02 5.97909E-03
 -1      6965 3.21547E-04 8.47932E-02 6.25243E-03
 -1      6966 2.51395E-04 8.64959E-02 4.65755E-03
 -1      6967 3.79120E-04 8.94628E-02 5.41790E-03
 -1      6968 4.73385E-04 8.95658E-02 5.41031E-03
 -1      6969 3.60631E-04 8.79801E-02 5.71220E-03
 -1      6970 2.80025E-04 8.95456E-02 4.23615E-03
 -1      6971 4.11621E-04 9.21874E-02 4.78042E-03
 -1      6972 5.14837E-04 9.22940E-02 4.77852E-03
 -1      6973 3.96373E-04 9.08665E-02 5.10743E-03
 -1      6974 3.04873E-04 9.22801E-02 3.76563E-03
 -1      6975 4.31695E-04 9.45668E-02 4.07634E-03
 -1      6976 5.42695E-04 9.46718E-02 4.08264E-03
 -1      6977 4.23906E-04 9.34219E-02 4.43683E-03
 -1      6978 3.20655E-04 9.46695E-02 3.24497E-03
 -1      6979 4.25621E-04 9.65741E-02 3.30720E-03
 -1      6980 5.40979E-04 9.66692E-02 3.32222E-03
 -1      6981 4.33297E-04 9.56182E-02 3.69996E-03
 -1      6982 3.17008E-04 9.66857E-02 2.67525E-03
 -1      6983 3.66235E-04 9.81907E-02 2.48118E-03
 -1      6984 4.77115E-04 9.82645E-02 2.50249E-03
 -1      6985 4.04539E-04 9.74328E-02 2.89776E-03
 -1      6986 2.73162E-04 9.82981E-02 2.06921E-03
 -1      6987 2.21609E-04 9.93795E-02 1.66443E-03
 -1      6988 3.00094E-04 9.94207E-02 1.67679E-03
 -1      6989 3.07648E-04 9.88398E-02 2.06504E-03
 -1      6990 1.64970E-04 9.94481E-02 1.47843E-03
 -1      6991 0.00000E+00 1.00000E-01 1.00000E-03
 -1      6992 0.00000E+00 1.00000E-01 1.00000E-03
 -1      6993 1.16977E-04 9.97771E-02 1.31159E-03
 -1      6994 0.00000E+00 1.00000E-01 1.00000E-03
 -1      6995 0.00000E+00 0.00000E+00 0.00000E+00
 -1      6996-1.10909E-04 6.84396E-04 7.04802E-04
 -1      6997 0.00000E+00 0.00000E+00 0.00000E+00
 -1      6998-1.70819E-04 6.66112E-04 7.06764E-04
 -1      6999 0.00000E+00 0.00000E+00 0.00000E+00
 -1      7000-5.80199E-05 2.55288E-04 3.30195E-04
 -1      7001-8.46157E-05 6.09157E-04 5.19367E-04
 -1      7002-1.87967E-04 1.92840E-03 1.56728E-03
 -1      7003-2.87797E-04 1.89283E-03 1.57464E-03
 -1      7004-1.54217E-04 1.25404E-03 1.12567E-03
 -1      7005-1.43906E-04 1.80874E-03 1.15759E-03
 -1      7006-2.24985E-04 3.58092E-03 2.45581E-03
 -1      7007-3.41729E-04 3.53308E-03 2.46437E-03
 -1      7008-2.10795E-04 2.70660E-03 2.01329E-03
 -1      7009-1.72321E-04 3.45554E-03 1.82610E-03
 -1      7010-2.33547E-04 5.60636E-03 3.29828E-03
 -1      7011-3.52026E-04 5.55188E-03 3.30405E-03
 -1      7012-2.32081E-04 4.54783E-03 2.88453E-03
 -1      7013-1.78745E-04 5.49047E-03 2.46784E-03
 -1      7014-2.25854E-04 7.99107E-03 4.07666E-03
 -1      7015-3.39143E-04 7.93444E-03 4.07849E-03
 -1      7016-2.31106E-04 6.75522E-03 3.69602E-03
 -1      7017-1.72732E-04 7.88619E-03 3.06141E-03
 -1      7018-2.10324E-04 1.07125E-02 4.78634E-03
 -1      7019-3.15370E-04 1.06570E-02 4.78487E-03
 -1      7020-2.18726E-04 9.31129E-03 4.44010E-03
 -1      7021-1.60823E-04 1.06183E-02 3.60301E-03
 -1      7022-1.91453E-04 1.37448E-02 5.42829E-03
 -1      7023-2.86941E-04 1.36924E-02 5.42444E-03
 -1      7024-2.01141E-04 1.21916E-02 5.11573E-03
 -1      7025-1.46461E-04 1.36604E-02 4.09317E-03
 -1      7026-1.71347E-04 1.70591E-02 6.00383E-03
 -1      7027-2.56808E-04 1.70113E-02 5.99845E-03
 -1      7028-1.81480E-04 1.53686E-02 5.72430E-03
 -1      7029-1.31237E-04 1.69840E-02 4.53314E-03
 -1      7030-1.50922E-04 2.06254E-02 6.51407E-03
 -1      7031-2.26229E-04 2.05828E-02 6.50776E-03
 -1      7032-1.61145E-04 1.88127E-02 6.26707E-03
 -1      7033-1.15824E-04 2.05592E-02 4.92395E-03
 -1      7034-1.30519E-04 2.44128E-02 6.95975E-03
 -1      7035-1.95678E-04 2.43760E-02 6.95290E-03
 -1      7036-1.40708E-04 2.24934E-02 6.74495E-03
 -1      7037-1.00463E-04 2.43555E-02 5.26623E-03
 -1      7038-1.10232E-04 2.83901E-02 7.34133E-03
 -1      7039-1.65288E-04 2.83592E-02 7.33419E-03
 -1      7040-1.20359E-04 2.63797E-02 7.15853E-03
 -1      7041-8.52133E-05 2.83415E-02 5.56041E-03
 -1      7042-9.00616E-05 3.25258E-02 7.65909E-03
 -1      7043-1.35058E-04 3.25010E-02 7.65180E-03
 -1      7044-1.00134E-04 3.04402E-02 7.50817E-03
 -1      7045-7.00656E-05 3.24860E-02 5.80669E-03
 -1      7046-6.99792E-05 3.67884E-02 7.91321E-03
 -1      7047-1.04951E-04 3.67697E-02 7.90584E-03
 -1      7048-8.00112E-05 3.46432E-02 7.79410E-03
 -1      7049-5.49928E-05 3.67572E-02 6.00523E-03
 -1      7050-4.99549E-05 4.11460E-02 8.10375E-03
 -1      7051-7.49232E-05 4.11336E-02 8.09635E-03
 -1      7052-5.99614E-05 3.89573E-02 8.01642E-03
 -1      7053-3.99685E-05 4.11236E-02 6.15609E-03
 -1      7054-2.99642E-05 4.55671E-02 8.23078E-03
 -1      7055-4.49427E-05 4.55609E-02 8.22336E-03
 -1      7056-3.99565E-05 4.33506E-02 8.17520E-03
 -1      7057-2.49723E-05 4.55534E-02 6.25932E-03
 -1      7058-9.98924E-06 5.00200E-02 8.29432E-03
 -1      7059-1.49839E-05 5.00200E-02 8.28690E-03
 -1      7060-1.99757E-05 4.77916E-02 8.27048E-03
 -1      7061-9.98908E-06 5.00150E-02 6.31491E-03
 -1      7062 9.98456E-06 5.44728E-02 8.29437E-03
 -1      7063 1.49733E-05 5.44790E-02 8.28695E-03
 -1      7064-3.04517E-09 5.22484E-02 8.30227E-03
 -1      7065 4.99300E-06 5.44765E-02 6.32290E-03
 -1      7066 2.99709E-05 5.88939E-02 8.23092E-03
 -1      7067 4.49480E-05 5.89064E-02 8.22352E-03
 -1      7068 1.99752E-05 5.66893E-02 8.27058E-03
 -1      7069 1.99850E-05 5.89064E-02 6.28326E-03
 -1      7070 4.99859E-05 6.32516E-02 8.10397E-03
 -1      7071 7.49624E-05 6.32703E-02 8.09660E-03
 -1      7072 3.99736E-05 6.10827E-02 8.17538E-03
 -1      7073 3.49999E-05 6.32728E-02 6.19599E-03
 -1      7074 7.00496E-05 6.75142E-02 7.91345E-03
 -1      7075 1.05045E-04 6.75390E-02 7.90616E-03
 -1      7076 6.00100E-05 6.53968E-02 8.01666E-03
 -1      7077 5.00541E-05 6.75441E-02 6.06106E-03
 -1      7078 9.01861E-05 7.16499E-02 7.65931E-03
 -1      7079 1.35227E-04 7.16808E-02 7.65216E-03
 -1      7080 8.01071E-05 6.95999E-02 7.79434E-03
 -1      7081 6.51675E-05 7.16885E-02 5.87840E-03
 -1      7082 1.10415E-04 7.56273E-02 7.34139E-03
 -1      7083 1.65538E-04 7.56642E-02 7.33451E-03
 -1      7084 1.00288E-04 7.36604E-02 7.50833E-03
 -1      7085 8.03585E-05 7.56747E-02 5.64791E-03
 -1      7086 1.30728E-04 7.94149E-02 6.95945E-03
 -1      7087 1.95964E-04 7.94575E-02 6.95306E-03
 -1      7088 1.20564E-04 7.75468E-02 7.15845E-03
 -1      7089 9.56264E-05 7.94711E-02 5.36942E-03
 -1      7090 1.51026E-04 8.29814E-02 6.51308E-03
 -1      7091 2.26367E-04 8.30293E-02 6.50754E-03
 -1      7092 1.40892E-04 8.12277E-02 6.74436E-03
 -1      7093 1.10907E-04 8.30465E-02 5.04258E-03
 -1      7094 1.70982E-04 8.62961E-02 6.00162E-03
 -1      7095 2.56288E-04 8.63484E-02 5.99748E-03
 -1      7096 1.61085E-04 8.46721E-02 6.26556E-03
 -1      7097 1.25969E-04 8.63703E-02 4.66686E-03
 -1      7098 1.89740E-04 8.93286E-02 5.42404E-03
 -1      7099 2.84550E-04 8.93841E-02 5.42208E-03
 -1      7100 1.80602E-04 8.78494E-02 5.72120E-03
 -1      7101 1.40196E-04 8.94126E-02 4.24135E-03
 -1      7102 2.05347E-04 9.20501E-02 4.77911E-03
 -1      7103 3.08415E-04 9.21066E-02 4.78019E-03
 -1      7104 1.98140E-04 9.07299E-02 5.11012E-03
 -1      7105 1.52154E-04 9.21447E-02 3.76486E-03
 -1      7106 2.13651E-04 9.44340E-02 4.06578E-03
 -1      7107 3.22121E-04 9.44883E-02 4.07051E-03
 -1      7108 2.10805E-04 9.32857E-02 4.43097E-03
 -1      7109 1.58743E-04 9.45397E-02 3.23676E-03
 -1      7110 2.06858E-04 9.64566E-02 3.28818E-03
 -1      7111 3.14285E-04 9.65042E-02 3.29558E-03
 -1      7112 2.12870E-04 9.54915E-02 3.68454E-03
 -1      7113 1.54060E-04 9.65723E-02 2.66022E-03
 -1      7114 1.73595E-04 9.81023E-02 2.46294E-03
 -1      7115 2.65850E-04 9.81376E-02 2.46937E-03
 -1      7116 1.94253E-04 9.73282E-02 2.87772E-03
 -1      7117 1.29402E-04 9.82136E-02 2.05476E-03
 -1      7118 1.02870E-04 9.93332E-02 1.65836E-03
 -1      7119 1.58454E-04 9.93513E-02 1.65999E-03
 -1      7120 1.42731E-04 9.87710E-02 2.05131E-03
 -1      7121 7.64926E-05 9.94035E-02 1.47354E-03
 -1      7122 0.00000E+00 1.00000E-01 1.00000E-03
 -1      7123 0.00000E+00 1.00000E-01 1.00000E-03
 -1      7124 5.39271E-05 9.97538E-02 1.30855E-03
 -1      7125 0.00000E+00 1.00000E-01 1.00000E-03
 -1      7126 0.00000E+00 0.00000E+00 0.00000E+00
 -1      7127 1.71921E-17 6.98335E-04 7.03158E-04
 -1      7128 0.00000E+00 0.00000E+00 0.00000E+00
 -1      7129-5.43232E-05 6.94938E-04 7.03579E-04
 -1      7130 0.00000E+00 0.00000E+00 0.00000E+00
 -1      7131 3.27208E-18 2.62020E-04 3.30478E-04
 -1      7132 2.54451E-17 6.22577E-04 5.17964E-04
 -1      7133 6.85033E-17 1.95566E-03 1.56191E-03
 -1      7134-9.25856E-05 1.94903E-03 1.56309E-03
 -1      7135 3.88269E-17 1.27482E-03 1.12255E-03
 -1      7136 8.48492E-17 1.83467E-03 1.15312E-03
 -1      7137 1.42476E-16 3.61797E-03 2.44942E-03
 -1      7138-1.11676E-04 3.60891E-03 2.45095E-03
 -1      7139 1.02385E-16 2.73929E-03 2.00709E-03
 -1      7140 1.68181E-16 3.49113E-03 1.82080E-03
 -1      7141 2.41669E-16 5.64900E-03 3.29356E-03
 -1      7142-1.16445E-04 5.63850E-03 3.29473E-03
 -1      7143 1.89398E-16 4.58817E-03 2.87867E-03
 -1      7144 2.73269E-16 5.53195E-03 2.46397E-03
 -1      7145 3.58336E-16 8.03569E-03 4.07470E-03
 -1      7146-1.12865E-04 8.02465E-03 4.07525E-03
 -1      7147 2.97193E-16 6.79924E-03 3.69263E-03
 -1      7148 3.97428E-16 7.93004E-03 3.05984E-03
 -1      7149 4.83547E-16 1.07565E-02 4.78698E-03
 -1      7150-1.05196E-04 1.07456E-02 4.78691E-03
 -1      7151 4.17641E-16 9.35588E-03 4.43950E-03
 -1      7152 5.29937E-16 1.06619E-02 3.60359E-03
 -1      7153 6.23946E-16 1.37864E-02 5.43086E-03
 -1      7154-9.57786E-05 1.37761E-02 5.43031E-03
 -1      7155 5.53203E-16 1.22346E-02 5.11741E-03
 -1      7156 6.79864E-16 1.37017E-02 4.09532E-03
 -1      7157 7.74563E-16 1.70972E-02 6.00767E-03
 -1      7158-8.57188E-05 1.70877E-02 6.00680E-03
 -1      7159 6.95889E-16 1.54086E-02 5.72758E-03
 -1      7160 8.28519E-16 1.70220E-02 4.53633E-03
 -1      7161 9.33593E-16 2.06594E-02 6.51869E-03
 -1      7162-7.54932E-05 2.06509E-02 6.51762E-03
 -1      7163 8.50014E-16 1.88488E-02 6.27135E-03
 -1      7164 9.93646E-16 2.05931E-02 4.92777E-03
 -1      7165 1.09733E-15 2.44423E-02 6.96483E-03
 -1      7166-6.52801E-05 2.44349E-02 6.96364E-03
 -1      7167 1.01232E-15 2.25252E-02 6.74983E-03
 -1      7168 1.16569E-15 2.43849E-02 5.27043E-03
 -1      7169 1.27349E-15 2.84148E-02 7.34666E-03
 -1      7170-5.51284E-05 2.84087E-02 7.34541E-03
 -1      7171 1.18311E-15 2.64068E-02 7.16375E-03
 -1      7172 1.32875E-15 2.83662E-02 5.56481E-03
 -1      7173 1.40361E-15 3.25457E-02 7.66456E-03
 -1      7174-4.50378E-05 3.25407E-02 7.66327E-03
 -1      7175 1.32952E-15 3.04624E-02 7.51358E-03
 -1      7176 1.49745E-15 3.25058E-02 5.81121E-03
 -1      7177 1.57179E-15 3.68033E-02 7.91874E-03
 -1      7178-3.49934E-05 3.67996E-02 7.91743E-03
 -1      7179 1.48784E-15 3.46606E-02 7.79960E-03
 -1      7180 1.65317E-15 3.67721E-02 6.00980E-03
 -1      7181 1.74243E-15 4.11560E-02 8.10931E-03
 -1      7182-2.49793E-05 4.11535E-02 8.10800E-03
 -1      7183 1.65994E-15 3.89697E-02 8.02197E-03
 -1      7184 1.83755E-15 4.11335E-02 6.16069E-03
 -1      7185 1.93557E-15 4.55721E-02 8.23636E-03
 -1      7186-1.49829E-05 4.55709E-02 8.23504E-03
 -1      7187 1.83527E-15 4.33581E-02 8.18077E-03
 -1      7188 2.02234E-15 4.55584E-02 6.26392E-03
 -1      7189 2.09929E-15 5.00200E-02 8.29990E-03
 -1      7190-4.99462E-06 5.00200E-02 8.29858E-03
 -1      7191 2.01972E-15 4.77941E-02 8.27606E-03
 -1      7192 2.19368E-15 5.00150E-02 6.31952E-03
 -1      7193 2.26975E-15 5.44678E-02 8.29994E-03
 -1      7194 4.99300E-06 5.44691E-02 8.29863E-03
 -1      7195 2.19398E-15 5.22459E-02 8.30785E-03
 -1      7196 2.32812E-15 5.44716E-02 6.32750E-03
 -1      7197 2.39683E-15 5.88840E-02 8.23648E-03
 -1      7198 1.49872E-05 5.88865E-02 8.23517E-03
 -1      7199 2.34379E-15 5.66818E-02 8.27615E-03
 -1      7200 2.46147E-15 5.88964E-02 6.28785E-03
 -1      7201 2.57270E-15 6.32367E-02 8.10950E-03
 -1      7202 2.49963E-05 6.32404E-02 8.10819E-03
 -1      7203 2.48311E-15 6.10702E-02 8.18093E-03
 -1      7204 2.60164E-15 6.32579E-02 6.20056E-03
 -1      7205 2.67235E-15 6.74943E-02 7.91892E-03
 -1      7206 3.50310E-05 6.74993E-02 7.91763E-03
 -1      7207 2.60414E-15 6.53794E-02 8.02216E-03
 -1      7208 2.70630E-15 6.75242E-02 6.06557E-03
 -1      7209 2.73058E-15 7.16252E-02 7.66465E-03
 -1      7210 4.51038E-05 7.16314E-02 7.66340E-03
 -1      7211 2.69179E-15 6.95776E-02 7.79976E-03
 -1      7212 2.70107E-15 7.16639E-02 5.88282E-03
 -1      7213 2.70801E-15 7.55979E-02 7.34650E-03
 -1      7214 5.52253E-05 7.56052E-02 7.34531E-03
 -1      7215 2.71552E-15 7.36333E-02 7.51358E-03
 -1      7216 2.68114E-15 7.56453E-02 5.65215E-03
 -1      7217 2.61074E-15 7.93809E-02 6.96415E-03
 -1      7218 6.53913E-05 7.93894E-02 6.96306E-03
 -1      7219 2.64921E-15 7.75151E-02 7.16338E-03
 -1      7220 2.59000E-15 7.94372E-02 5.37332E-03
 -1      7221 2.44666E-15 8.29433E-02 6.51707E-03
 -1      7222 7.55508E-05 8.29528E-02 6.51616E-03
 -1      7223 2.53098E-15 8.11916E-02 6.74875E-03
 -1      7224 2.47706E-15 8.30085E-02 5.04592E-03
 -1      7225 2.25899E-15 8.62545E-02 6.00444E-03
 -1      7226 8.55328E-05 8.62648E-02 6.00382E-03
 -1      7227 2.35480E-15 8.46322E-02 6.26903E-03
 -1      7228 2.23024E-15 8.63290E-02 4.66926E-03
 -1      7229 1.97183E-15 8.92847E-02 5.42511E-03
 -1      7230 9.48916E-05 8.92956E-02 5.42493E-03
 -1      7231 2.12302E-15 8.78065E-02 5.72322E-03
 -1      7232 1.98440E-15 8.93691E-02 4.24235E-03
 -1      7233 1.68114E-15 9.20056E-02 4.77778E-03
 -1      7234 1.02604E-04 9.20166E-02 4.77817E-03
 -1      7235 1.84202E-15 9.06854E-02 5.11006E-03
 -1      7236 1.65417E-15 9.21010E-02 3.76393E-03
 -1      7237 1.28495E-15 9.43915E-02 4.06189E-03
 -1      7238 1.06509E-04 9.44020E-02 4.06286E-03
 -1      7239 1.47516E-15 9.32418E-02 4.42831E-03
 -1      7240 1.31210E-15 9.44984E-02 3.23373E-03
 -1      7241 9.60122E-16 9.64198E-02 3.28269E-03
 -1      7242 1.02661E-04 9.64288E-02 3.28400E-03
 -1      7243 1.11470E-15 9.54513E-02 3.67958E-03
 -1      7244 9.59567E-16 9.65369E-02 2.65583E-03
 -1      7245 6.26870E-16 9.80752E-02 2.45827E-03
 -1      7246 8.54937E-05 9.80818E-02 2.45929E-03
 -1      7247 7.90607E-16 9.72957E-02 2.87235E-03
 -1      7248 6.13094E-16 9.81878E-02 2.05098E-03
 -1      7249 2.96706E-16 9.93194E-02 1.65699E-03
 -1      7250 5.03816E-05 9.93228E-02 1.65734E-03
 -1      7251 4.65139E-16 9.87504E-02 2.04865E-03
 -1      7252 3.06401E-16 9.93901E-02 1.47239E-03
 -1      7253 0.00000E+00 1.00000E-01 1.00000E-03
 -1      7254 0.00000E+00 1.00000E-01 1.00000E-03
 -1      7255 1.53044E-16 9.97471E-02 1.30889E-03
 -1      7256 0.00000E+00 1.00000E-01 1.00000E-03
 -1      7257 0.00000E+00 0.00000E+00 0.00000E+00
 -1      7258 1.10909E-04 6.84396E-04 7.04802E-04
 -1      7259 0.00000E+00 0.00000E+00 0.00000E+00
 -1      7260 5.43232E-05 6.94938E-04 7.03579E-04
 -1      7261 0.00000E+00 0.00000E+00 0.00000E+00
 -1      7262 5.80199E-05 2.55288E-04 3.30195E-04
 -1      7263 8.46157E-05 6.09157E-04 5.19367E-04
 -1      7264 1.87967E-04 1.92840E-03 1.56728E-03
 -1      7265 9.25856E-05 1.94903E-03 1.56309E-03
 -1      7266 1.54217E-04 1.25404E-03 1.12567E-03
 -1      7267 1.43906E-04 1.80874E-03 1.15759E-03
 -1      7268 2.24985E-04 3.58092E-03 2.45581E-03
 -1      7269 1.11676E-04 3.60891E-03 2.45095E-03
 -1      7270 2.10795E-04 2.70660E-03 2.01329E-03
 -1      7271 1.72321E-04 3.45554E-03 1.82610E-03
 -1      7272 2.33547E-04 5.60636E-03 3.29828E-03
 -1      7273 1.16445E-04 5.63850E-03 3.29473E-03
 -1      7274 2.32081E-04 4.54783E-03 2.88453E-03
 -1      7275 1.78745E-04 5.49047E-03 2.46784E-03
 -1      7276 2.25854E-04 7.99107E-03 4.07666E-03
 -1      7277 1.12865E-04 8.02465E-03 4.07525E-03
 -1      7278 2.31106E-04 6.75522E-03 3.69602E-03
 -1      7279 1.72732E-04 7.88619E-03 3.06141E-03
 -1      7280 2.10324E-04 1.07125E-02 4.78634E-03
 -1      7281 1.05196E-04 1.07456E-02 4.78691E-03
 -1      7282 2.18726E-04 9.31129E-03 4.44010E-03
 -1      7283 1.60823E-04 1.06183E-02 3.60301E-03
 -1      7284 1.91453E-04 1.37448E-02 5.42829E-03
 -1      7285 9.57786E-05 1.37761E-02 5.43031E-03
 -1      7286 2.01141E-04 1.21916E-02 5.11573E-03
 -1      7287 1.46461E-04 1.36604E-02 4.09317E-03
 -1      7288 1.71347E-04 1.70591E-02 6.00383E-03
 -1      7289 8.57188E-05 1.70877E-02 6.00680E-03
 -1      7290 1.81480E-04 1.53686E-02 5.72430E-03
 -1      7291 1.31237E-04 1.69840E-02 4.53314E-03
 -1      7292 1.50922E-04 2.06254E-02 6.51407E-03
 -1      7293 7.54932E-05 2.06509E-02 6.51762E-03
 -1      7294 1.61145E-04 1.88127E-02 6.26707E-03
 -1      7295 1.15824E-04 2.05592E-02 4.92395E-03
 -1      7296 1.30519E-04 2.44128E-02 6.95975E-03
 -1      7297 6.52801E-05 2.44349E-02 6.96364E-03
 -1      7298 1.40708E-04 2.24934E-02 6.74495E-03
 -1      7299 1.00463E-04 2.43555E-02 5.26623E-03
 -1      7300 1.10232E-04 2.83901E-02 7.34133E-03
 -1      7301 5.51284E-05 2.84087E-02 7.34541E-03
 -1      7302 1.20359E-04 2.63797E-02 7.15853E-03
 -1      7303 8.52133E-05 2.83415E-02 5.56041E-03
 -1      7304 9.00616E-05 3.25258E-02 7.65909E-03
 -1      7305 4.50378E-05 3.25407E-02 7.66327E-03
 -1      7306 1.00134E-04 3.04402E-02 7.50817E-03
 -1      7307 7.00656E-05 3.24860E-02 5.80669E-03
 -1      7308 6.99792E-05 3.67884E-02 7.91321E-03
 -1      7309 3.49934E-05 3.67996E-02 7.91743E-03
 -1      7310 8.00112E-05 3.46432E-02 7.79410E-03
 -1      7311 5.49928E-05 3.67572E-02 6.00523E-03
 -1      7312 4.99549E-05 4.11460E-02 8.10375E-03
 -1      7313 2.49793E-05 4.11535E-02 8.10800E-03
 -1      7314 5.99614E-05 3.89573E-02 8.01642E-03
 -1      7315 3.99685E-05 4.11236E-02 6.15609E-03
 -1      7316 2.99642E-05 4.55671E-02 8.23078E-03
 -1      7317 1.49829E-05 4.55709E-02 8.23504E-03
 -1      7318 3.99565E-05 4.33506E-02 8.17520E-03
 -1      7319 2.49723E-05 4.55534E-02 6.25932E-03
 -1      7320 9.98924E-06 5.00200E-02 8.29432E-03
 -1      7321 4.99462E-06 5.00200E-02 8.29858E-03
 -1      7322 1.99757E-05 4.77916E-02 8.27048E-03
 -1      7323 9.98908E-06 5.00150E-02 6.31491E-03
 -1      7324-9.98456E-06 5.44728E-02 8.29437E-03
 -1      7325-4.99300E-06 5.44691E-02 8.29863E-03
 -1      7326 3.04518E-09 5.22484E-02 8.30227E-03
 -1      7327-4.99300E-06 5.44765E-02 6.32290E-03
 -1      7328-2.99709E-05 5.88939E-02 8.23092E-03
 -1      7329-1.49872E-05 5.88865E-02 8.23517E-03
 -1      7330-1.99752E-05 5.66893E-02 8.27058E-03
 -1      7331-1.99850E-05 5.89064E-02 6.28326E-03
 -1      7332-4.99859E-05 6.32516E-02 8.10397E-03
 -1      7333-2.49963E-05 6.32404E-02 8.10819E-03
 -1      7334-3.99736E-05 6.10827E-02 8.17538E-03
 -1      7335-3.49999E-05 6.32728E-02 6.19599E-03
 -1      7336-7.00496E-05 6.75142E-02 7.91345E-03
 -1      7337-3.50310E-05 6.74993E-02 7.91763E-03
 -1      7338-6.00100E-05 6.53968E-02 8.01666E-03
 -1      7339-5.00541E-05 6.75441E-02 6.06106E-03
 -1      7340-9.01861E-05 7.16499E-02 7.65931E-03
 -1      7341-4.51038E-05 7.16314E-02 7.66340E-03
 -1      7342-8.01071E-05 6.95999E-02 7.79434E-03
 -1      7343-6.51675E-05 7.16885E-02 5.87840E-03
 -1      7344-1.10415E-04 7.56273E-02 7.34139E-03
 -1      7345-5.52253E-05 7.56052E-02 7.34531E-03
 -1      7346-1.00288E-04 7.36604E-02 7.50833E-03
 -1      7347-8.03585E-05 7.56747E-02 5.64791E-03
 -1      7348-1.30728E-04 7.94149E-02 6.95945E-03
 -1      7349-6.53913E-05 7.93894E-02 6.96306E-03
 -1      7350-1.20564E-04 7.75468E-02 7.15845E-03
 -1      7351-9.56264E-05 7.94711E-02 5.36942E-03
 -1      7352-1.51026E-04 8.29814E-02 6.51308E-03
 -1      7353-7.55508E-05 8.29528E-02 6.51616E-03
 -1      7354-1.40892E-04 8.12277E-02 6.74436E-03
 -1      7355-1.10907E-04 8.30465E-02 5.04258E-03
 -1      7356-1.70982E-04 8.62961E-02 6.00162E-03
 -1      7357-8.55328E-05 8.62648E-02 6.00382E-03
 -1      7358-1.61085E-04 8.46721E-02 6.26556E-03
 -1      7359-1.25969E-04 8.63703E-02 4.66686E-03
 -1      7360-1.89740E-04 8.93286E-02 5.42404E-03
 -1      7361-9.48916E-05 8.92956E-02 5.42493E-03
 -1      7362-1.80602E-04 8.78494E-02 5.72120E-03
 -1      7363-1.40196E-04 8.94126E-02 4.24135E-03
 -1      7364-2.05347E-04 9.20501E-02 4.77911E-03
 -1      7365-1.02604E-04 9.20166E-02 4.77817E-03
 -1      7366-1.98140E-04 9.07299E-02 5.11012E-03
 -1      7367-1.52154E-04 9.21447E-02 3.76486E-03
 -1      7368-2.13651E-04 9.44340E-02 4.06578E-03
 -1      7369-1.06509E-04 9.44020E-02 4.06286E-03
 -1      7370-2.10805E-04 9.32857E-02 4.43097E-03
 -1      7371-1.58743E-04 9.45397E-02 3.23676E-03
 -1      7372-2.06858E-04 9.64566E-02 3.28818E-03
 -1      7373-1.02661E-04 9.64288E-02 3.28400E-03
 -1      7374-2.12870E-04 9.54915E-02 3.68454E-03
 -1      7375-1.54060E-04 9.65723E-02 2.66022E-03
 -1      7376-1.73595E-04 9.81023E-02 2.46294E-03
 -1      7377-8.54937E-05 9.80818E-02 2.45929E-03
 -1      7378-1.94253E-04 9.73282E-02 2.87772E-03
 -1      7379-1.29402E-04 9.82136E-02 2.05476E-03
 -1      7380-1.02870E-04 9.93332E-02 1.65836E-03
 -1      7381-5.03816E-05 9.93228E-02 1.65734E-03
 -1      7382-1.42731E-04 9.87710E-02 2.05131E-03
 -1      7383-7.64926E-05 9.94035E-02 1.47354E-03
 -1      7384 0.00000E+00 1.00000E-01 1.00000E-03
 -1      7385 0.00000E+00 1.00000E-01 1.00000E-03
 -1      7386-5.39271E-05 9.97538E-02 1.30855E-03
 -1      7387 0.00000E+00 1.00000E-01 1.00000E-03
 -1      7388 0.00000E+00 0.00000E+00 0.00000E+00
 -1      7389 2.38860E-04 6.37759E-04 7.11849E-04
 -1      7390 0.00000E+00 0.00000E+00 0.00000E+00
 -1      7391 1.70819E-04 6.66112E-04 7.06764E-04
 -1      7392 0.00000E+00 0.00000E+00 0.00000E+00
 -1      7393 1.25829E-04 2.31762E-04 3.33732E-04
 -1      7394 1.82417E-04 5.64280E-04 5.25205E-04
 -1      7395 3.96340E-04 1.83943E-03 1.58796E-03
 -1      7396 2.87797E-04 1.89283E-03 1.57464E-03
 -1      7397 3.32248E-04 1.18478E-03 1.14123E-03
 -1      7398 3.03577E-04 1.72390E-03 1.17448E-03
 -1      7399 4.62623E-04 3.46287E-03 2.47774E-03
 -1      7400 3.41729E-04 3.53308E-03 2.46437E-03
 -1      7401 4.38721E-04 2.60143E-03 2.03614E-03
 -1      7402 3.54318E-04 3.34175E-03 1.84405E-03
 -1      7403 4.71623E-04 5.47311E-03 3.31127E-03
 -1      7404 3.52026E-04 5.55188E-03 3.30405E-03
 -1      7405 4.72113E-04 4.42059E-03 2.90269E-03
 -1      7406 3.60818E-04 5.36041E-03 2.47851E-03
 -1      7407 4.52513E-04 7.85346E-03 4.07971E-03
 -1      7408 3.39143E-04 7.93444E-03 4.07849E-03
 -1      7409 4.64481E-04 6.61863E-03 3.70397E-03
 -1      7410 3.45917E-04 7.75066E-03 3.06394E-03
 -1      7411 4.20103E-04 1.05781E-02 4.78130E-03
 -1      7412 3.15370E-04 1.06570E-02 4.78487E-03
 -1      7413 4.37375E-04 9.17452E-03 4.43881E-03
 -1      7414 3.21097E-04 1.04852E-02 3.59893E-03
 -1      7415 3.82103E-04 1.36185E-02 5.41765E-03
 -1      7416 2.86941E-04 1.36924E-02 5.42444E-03
 -1      7417 4.01528E-04 1.20608E-02 5.10759E-03
 -1      7418 2.92218E-04 1.35348E-02 4.08452E-03
 -1      7419 3.42012E-04 1.69439E-02 5.98963E-03
 -1      7420 2.56808E-04 1.70113E-02 5.99845E-03
 -1      7421 3.62194E-04 1.52475E-02 5.71166E-03
 -1      7422 2.61895E-04 1.68691E-02 4.52160E-03
 -1      7423 3.01362E-04 2.05230E-02 6.49775E-03
 -1      7424 2.26229E-04 2.05828E-02 6.50776E-03
 -1      7425 3.21708E-04 1.87037E-02 6.25166E-03
 -1      7426 2.31245E-04 2.04570E-02 4.91069E-03
 -1      7427 2.60729E-04 2.43242E-02 6.94222E-03
 -1      7428 1.95678E-04 2.43760E-02 6.95290E-03
 -1      7429 2.81027E-04 2.23978E-02 6.72793E-03
 -1      7430 2.00671E-04 2.42669E-02 5.25200E-03
 -1      7431 2.20280E-04 2.83159E-02 7.32315E-03
 -1      7432 1.65288E-04 2.83592E-02 7.33419E-03
 -1      7433 2.40479E-04 2.62982E-02 7.14062E-03
 -1      7434 1.70275E-04 2.82673E-02 5.54565E-03
 -1      7435 1.80020E-04 3.24663E-02 7.64058E-03
 -1      7436 1.35058E-04 3.25010E-02 7.65180E-03
 -1      7437 2.00128E-04 3.03732E-02 7.48980E-03
 -1      7438 1.40046E-04 3.24264E-02 5.79166E-03
 -1      7439 1.39903E-04 3.67436E-02 7.89452E-03
 -1      7440 1.04951E-04 3.67697E-02 7.90584E-03
 -1      7441 1.59946E-04 3.45910E-02 7.77548E-03
 -1      7442 1.09941E-04 3.67125E-02 5.99007E-03
 -1      7443 9.98825E-05 4.11162E-02 8.08499E-03
 -1      7444 7.49232E-05 4.11336E-02 8.09635E-03
 -1      7445 1.19884E-04 3.89200E-02 7.99769E-03
 -1      7446 7.99150E-05 4.10937E-02 6.14087E-03
 -1      7447 5.99176E-05 4.55522E-02 8.21199E-03
 -1      7448 4.49427E-05 4.55609E-02 8.22336E-03
 -1      7449 7.98951E-05 4.33282E-02 8.15642E-03
 -1      7450 4.99359E-05 4.55385E-02 6.24406E-03
 -1      7451 1.99786E-05 5.00200E-02 8.27552E-03
 -1      7452 1.49839E-05 5.00200E-02 8.28690E-03
 -1      7453 3.99464E-05 4.77841E-02 8.25168E-03
 -1      7454 1.99782E-05 5.00150E-02 6.29966E-03
 -1      7455-1.99586E-05 5.44878E-02 8.27558E-03
 -1      7456-1.49733E-05 5.44790E-02 8.28695E-03
 -1      7457 1.11759E-08 5.22559E-02 8.28348E-03
 -1      7458-9.97757E-06 5.44915E-02 6.30765E-03
 -1      7459-5.99167E-05 5.89238E-02 8.21217E-03
 -1      7460-4.49480E-05 5.89064E-02 8.22352E-03
 -1      7461-3.99334E-05 5.67117E-02 8.25180E-03
 -1      7462-3.99500E-05 5.89362E-02 6.26804E-03
 -1      7463-9.99221E-05 6.32964E-02 8.08529E-03
 -1      7464-7.49624E-05 6.32703E-02 8.09660E-03
 -1      7465-7.99114E-05 6.11200E-02 8.15666E-03
 -1      7466-6.99604E-05 6.33175E-02 6.18083E-03
 -1      7467-1.40008E-04 6.75737E-02 7.89493E-03
 -1      7468-1.05045E-04 6.75390E-02 7.90616E-03
 -1      7469-1.19952E-04 6.54489E-02 7.99804E-03
 -1      7470-1.00036E-04 6.76036E-02 6.04602E-03
 -1      7471-1.80213E-04 7.17242E-02 7.64110E-03
 -1      7472-1.35227E-04 7.16808E-02 7.65216E-03
 -1      7473-1.60093E-04 6.96668E-02 7.77595E-03
 -1      7474-1.30209E-04 7.17627E-02 5.86361E-03
 -1      7475-2.20567E-04 7.57160E-02 7.32378E-03
 -1      7476-1.65538E-04 7.56642E-02 7.33451E-03
 -1      7477-2.00371E-04 7.37419E-02 7.49038E-03
 -1      7478-1.60507E-04 7.57632E-02 5.63361E-03
 -1      7479-2.61051E-04 7.95173E-02 6.94295E-03
 -1      7480-1.95964E-04 7.94575E-02 6.95306E-03
 -1      7481-2.40798E-04 7.76424E-02 7.14131E-03
 -1      7482-1.90926E-04 7.95733E-02 5.35598E-03
 -1      7483-3.01490E-04 8.30967E-02 6.49853E-03
 -1      7484-2.26367E-04 8.30293E-02 6.50754E-03
 -1      7485-2.81299E-04 8.13367E-02 6.72870E-03
 -1      7486-2.21351E-04 8.31613E-02 5.03069E-03
 -1      7487-3.41326E-04 8.64223E-02 5.99033E-03
 -1      7488-2.56288E-04 8.63484E-02 5.99748E-03
 -1      7489-3.21547E-04 8.47932E-02 6.25243E-03
 -1      7490-2.51395E-04 8.64959E-02 4.65755E-03
 -1      7491-3.79120E-04 8.94628E-02 5.41790E-03
 -1      7492-2.84550E-04 8.93841E-02 5.42208E-03
 -1      7493-3.60631E-04 8.79801E-02 5.71220E-03
 -1      7494-2.80025E-04 8.95456E-02 4.23615E-03
 -1      7495-4.11621E-04 9.21874E-02 4.78042E-03
 -1      7496-3.08415E-04 9.21066E-02 4.78019E-03
 -1      7497-3.96373E-04 9.08665E-02 5.10743E-03
 -1      7498-3.04873E-04 9.22801E-02 3.76563E-03
 -1      7499-4.31695E-04 9.45668E-02 4.07634E-03
 -1      7500-3.22121E-04 9.44883E-02 4.07051E-03
 -1      7501-4.23906E-04 9.34219E-02 4.43683E-03
 -1      7502-3.20655E-04 9.46695E-02 3.24497E-03
 -1      7503-4.25621E-04 9.65741E-02 3.30720E-03
 -1      7504-3.14285E-04 9.65042E-02 3.29558E-03
 -1      7505-4.33297E-04 9.56182E-02 3.69996E-03
 -1      7506-3.17008E-04 9.66857E-02 2.67525E-03
 -1      7507-3.66235E-04 9.81907E-02 2.48118E-03
 -1      7508-2.65850E-04 9.81376E-02 2.46937E-03
 -1      7509-4.04539E-04 9.74328E-02 2.89776E-03
 -1      7510-2.73162E-04 9.82981E-02 2.06921E-03
 -1      7511-2.21609E-04 9.93795E-02 1.66443E-03
 -1      7512-1.58454E-04 9.93513E-02 1.65999E-03
 -1      7513-3.07648E-04 9.88398E-02 2.06504E-03
 -1      7514-1.64970E-04 9.94481E-02 1.47843E-03
 -1      7515 0.00000E+00 1.00000E-01 1.00000E-03
 -1      7516 0.00000E+00 1.00000E-01 1.00000E-03
 -1      7517-1.16977E-04 9.97771E-02 1.31159E-03
 -1      7518 0.00000E+00 1.00000E-01 1.00000E-03
 -1      7519 0.00000E+00 0.00000E+00 0.00000E+00
 -1      7520 4.34048E-04 5.35883E-04 7.62761E-04
 -1      7521 0.00000E+00 0.00000E+00 0.00000E+00
 -1      7522 3.23377E-04 5.96351E-04 7.25527E-04
 -1      7523 0.00000E+00 0.00000E+00 0.00000E+00
 -1      7524 2.22019E-04 1.82679E-04 3.41429E-04
 -1      7525 3.31295E-04 4.65251E-04 5.64163E-04
 -1      7526 6.44215E-04 1.66439E-03 1.64380E-03
 -1      7527 5.16130E-04 1.76527E-03 1.61170E-03
 -1      7528 5.61617E-04 1.04268E-03 1.19897E-03
 -1      7529 4.93338E-04 1.55478E-03 1.21851E-03
 -1      7530 7.15853E-04 3.24213E-03 2.51691E-03
 -1      7531 5.87766E-04 3.36753E-03 2.49501E-03
 -1      7532 6.93265E-04 2.39973E-03 2.08764E-03
 -1      7533 5.47831E-04 3.12657E-03 1.87557E-03
 -1      7534 7.13359E-04 5.23338E-03 3.32514E-03
 -1      7535 5.92660E-04 5.36793E-03 3.31930E-03
 -1      7536 7.20539E-04 4.18754E-03 2.92881E-03
 -1      7537 5.45202E-04 5.12450E-03 2.49004E-03
 -1      7538 6.78374E-04 7.61233E-03 4.07378E-03
 -1      7539 5.65807E-04 7.74673E-03 4.07893E-03
 -1      7540 6.98612E-04 6.37639E-03 3.70710E-03
 -1      7541 5.18103E-04 7.51190E-03 3.05967E-03
 -1      7542 6.28029E-04 1.03468E-02 4.76206E-03
 -1      7543 5.24441E-04 1.04751E-02 4.77439E-03
 -1      7544 6.54437E-04 8.93716E-03 4.42544E-03
 -1      7545 4.79680E-04 1.02552E-02 3.58400E-03
 -1      7546 5.71046E-04 1.34035E-02 5.39016E-03
 -1      7547 4.76850E-04 1.35224E-02 5.40678E-03
 -1      7548 6.00054E-04 1.18369E-02 5.08367E-03
 -1      7549 4.36495E-04 1.33206E-02 4.06297E-03
 -1      7550 5.11425E-04 1.67492E-02 5.95731E-03
 -1      7551 4.26903E-04 1.68566E-02 5.97640E-03
 -1      7552 5.41420E-04 1.50423E-02 5.68139E-03
 -1      7553 3.91491E-04 1.66748E-02 4.49619E-03
 -1      7554 4.50981E-04 2.03508E-02 6.46273E-03
 -1      7555 3.76285E-04 2.04457E-02 6.48316E-03
 -1      7556 4.81245E-04 1.85201E-02 6.21777E-03
 -1      7557 3.45978E-04 2.02850E-02 4.88311E-03
 -1      7558 3.90440E-04 2.41758E-02 6.90575E-03
 -1      7559 3.25651E-04 2.42575E-02 6.92689E-03
 -1      7560 4.20701E-04 2.22374E-02 6.69206E-03
 -1      7561 3.00463E-04 2.41186E-02 5.22326E-03
 -1      7562 3.30041E-04 2.81917E-02 7.28594E-03
 -1      7563 2.75197E-04 2.82601E-02 7.30744E-03
 -1      7564 3.60218E-04 2.61619E-02 7.10372E-03
 -1      7565 2.55100E-04 2.81432E-02 5.51632E-03
 -1      7566 2.69821E-04 3.23668E-02 7.60301E-03
 -1      7567 2.24940E-04 3.24215E-02 7.62467E-03
 -1      7568 2.99910E-04 3.02614E-02 7.45237E-03
 -1      7569 2.09898E-04 3.23269E-02 5.76205E-03
 -1      7570 2.09746E-04 3.66689E-02 7.85679E-03
 -1      7571 1.74834E-04 3.67100E-02 7.87853E-03
 -1      7572 2.39768E-04 3.45039E-02 7.73781E-03
 -1      7573 1.64822E-04 3.66378E-02 5.96032E-03
 -1      7574 1.49771E-04 4.10663E-02 8.04719E-03
 -1      7575 1.24831E-04 4.10937E-02 8.06895E-03
 -1      7576 1.79749E-04 3.88577E-02 7.95991E-03
 -1      7577 1.19830E-04 4.10439E-02 6.11106E-03
 -1      7578 8.98559E-05 4.55273E-02 8.17416E-03
 -1      7579 7.48885E-05 4.55410E-02 8.19594E-03
 -1      7580 1.19808E-04 4.32909E-02 8.11860E-03
 -1      7581 7.48873E-05 4.55136E-02 6.21423E-03
 -1      7582 2.99683E-05 5.00200E-02 8.23768E-03
 -1      7583 2.49734E-05 5.00200E-02 8.25946E-03
 -1      7584 5.99103E-05 4.77716E-02 8.21385E-03
 -1      7585 2.99678E-05 5.00150E-02 6.26982E-03
 -1      7586-2.99172E-05 5.45127E-02 8.23775E-03
 -1      7587-2.49397E-05 5.44990E-02 8.25953E-03
 -1      7588 2.68201E-08 5.22683E-02 8.24564E-03
 -1      7589-1.49497E-05 5.45164E-02 6.27782E-03
 -1      7590-8.98254E-05 5.89736E-02 8.17437E-03
 -1      7591-7.48754E-05 5.89462E-02 8.19613E-03
 -1      7592-5.98668E-05 5.67491E-02 8.21398E-03
 -1      7593-5.98852E-05 5.89861E-02 6.23824E-03
 -1      7594-1.49784E-04 6.33711E-02 8.04756E-03
 -1      7595-1.24862E-04 6.33300E-02 8.06929E-03
 -1      7596-1.19796E-04 6.11823E-02 8.11889E-03
 -1      7597-1.04861E-04 6.33922E-02 6.15109E-03
 -1      7598-2.09826E-04 6.76733E-02 7.85737E-03
 -1      7599-1.74935E-04 6.76185E-02 7.87903E-03
 -1      7600-1.79792E-04 6.55361E-02 7.96038E-03
 -1      7601-1.49905E-04 6.77031E-02 6.01641E-03
 -1      7602-2.69988E-04 7.18483E-02 7.60388E-03
 -1      7603-2.25133E-04 7.17800E-02 7.62538E-03
 -1      7604-2.39890E-04 6.97787E-02 7.73852E-03
 -1      7605-1.95047E-04 7.18869E-02 5.83427E-03
 -1      7606-3.30287E-04 7.58644E-02 7.28726E-03
 -1      7607-2.75486E-04 7.57826E-02 7.30842E-03
 -1      7608-3.00121E-04 7.38782E-02 7.45344E-03
 -1      7609-2.40306E-04 7.59116E-02 5.60481E-03
 -1      7610-3.90670E-04 7.96895E-02 6.90778E-03
 -1      7611-3.25960E-04 7.95946E-02 6.92827E-03
 -1      7612-3.60477E-04 7.78028E-02 7.10534E-03
 -1      7613-2.85653E-04 7.97452E-02 5.32826E-03
 -1      7614-4.50891E-04 8.32913E-02 6.46586E-03
 -1      7615-3.76351E-04 8.31839E-02 6.48510E-03
 -1      7616-4.20831E-04 8.15203E-02 6.69458E-03
 -1      7617-3.30923E-04 8.33556E-02 5.00493E-03
 -1      7618-5.10243E-04 8.66372E-02 5.96213E-03
 -1      7619-4.26023E-04 8.65183E-02 5.97909E-03
 -1      7620-4.80753E-04 8.49983E-02 6.22167E-03
 -1      7621-3.75620E-04 8.67100E-02 4.63531E-03
 -1      7622-5.67009E-04 8.96941E-02 5.39735E-03
 -1      7623-4.73385E-04 8.95658E-02 5.41031E-03
 -1      7624-5.39123E-04 8.82039E-02 5.68732E-03
 -1      7625-4.18521E-04 8.97756E-02 4.21991E-03
 -1      7626-6.17449E-04 9.24283E-02 4.77224E-03
 -1      7627-5.14837E-04 9.22940E-02 4.77852E-03
 -1      7628-5.93396E-04 9.11037E-02 5.09233E-03
 -1      7629-4.56935E-04 9.25187E-02 3.75910E-03
 -1      7630-6.53461E-04 9.48062E-02 4.08663E-03
 -1      7631-5.42695E-04 9.46718E-02 4.08264E-03
 -1      7632-6.38024E-04 9.36639E-02 4.43708E-03
 -1      7633-4.84923E-04 9.49052E-02 3.25290E-03
 -1      7634-6.59143E-04 9.67944E-02 3.34127E-03
 -1      7635-5.40979E-04 9.66692E-02 3.32222E-03
 -1      7636-6.61833E-04 9.58508E-02 3.72173E-03
 -1      7637-4.90604E-04 9.69006E-02 2.70164E-03
 -1      7638-5.95732E-04 9.83652E-02 2.53136E-03
 -1      7639-4.77115E-04 9.82645E-02 2.50249E-03
 -1      7640-6.39777E-04 9.76339E-02 2.94356E-03
 -1      7641-4.44313E-04 9.84668E-02 2.10757E-03
 -1      7642-4.02904E-04 9.94810E-02 1.71092E-03
 -1      7643-3.00094E-04 9.94207E-02 1.67679E-03
 -1      7644-5.20375E-04 9.89814E-02 2.11742E-03
 -1      7645-2.99831E-04 9.95469E-02 1.51300E-03
 -1      7646 0.00000E+00 1.00000E-01 1.00000E-03
 -1      7647 0.00000E+00 1.00000E-01 1.00000E-03
 -1      7648-2.06426E-04 9.98260E-02 1.31830E-03
 -1      7649 0.00000E+00 1.00000E-01 1.00000E-03
 -1      7650 0.00000E+00 0.00000E+00 0.00000E+00
 -1      7651 7.02931E-04 3.20377E-04 9.56797E-04
 -1      7652 0.00000E+00 0.00000E+00 0.00000E+00
 -1      7653 5.46836E-04 4.55766E-04 8.10806E-04
 -1      7654 0.00000E+00 0.00000E+00 0.00000E+00
 -1      7655 4.65672E-04 4.90434E-05 4.97013E-04
 -1      7656 5.34641E-04 2.48645E-04 7.12801E-04
 -1      7657 9.13303E-04 1.34476E-03 1.75561E-03
 -1      7658 7.86732E-04 1.52796E-03 1.69862E-03
 -1      7659 8.44890E-04 7.66129E-04 1.36473E-03
 -1      7660 6.97917E-04 1.23523E-03 1.30492E-03
 -1      7661 9.67551E-04 2.87898E-03 2.54957E-03
 -1      7662 8.43109E-04 3.08183E-03 2.53819E-03
 -1      7663 9.52640E-04 2.05236E-03 2.15462E-03
 -1      7664 7.39116E-04 2.76347E-03 1.90101E-03
 -1      7665 9.49032E-04 4.86185E-03 3.31503E-03
 -1      7666 8.33019E-04 5.06594E-03 3.32577E-03
 -1      7667 9.63529E-04 3.81694E-03 2.93765E-03
 -1      7668 7.24229E-04 4.75316E-03 2.48260E-03
 -1      7669 8.99051E-04 7.25231E-03 4.03791E-03
 -1      7670 7.89632E-04 7.44825E-03 4.06132E-03
 -1      7671 9.26874E-04 6.00873E-03 3.68221E-03
 -1      7672 6.85803E-04 7.15199E-03 3.03250E-03
 -1      7673 8.32220E-04 1.00094E-02 4.71214E-03
 -1      7674 7.30702E-04 1.01919E-02 4.74206E-03
 -1      7675 8.66968E-04 8.58742E-03 4.38148E-03
 -1      7676 6.35096E-04 9.91781E-03 3.54606E-03
 -1      7677 7.57579E-04 1.30948E-02 5.33269E-03
 -1      7678 6.64629E-04 1.32612E-02 5.36594E-03
 -1      7679 7.95516E-04 1.15134E-02 5.02935E-03
 -1      7680 5.78738E-04 1.30119E-02 4.01924E-03
 -1      7681 6.79372E-04 1.64724E-02 5.89600E-03
 -1      7682 5.95572E-04 1.66213E-02 5.93084E-03
 -1      7683 7.18726E-04 1.47493E-02 5.62166E-03
 -1      7684 5.19857E-04 1.63980E-02 4.44951E-03
 -1      7685 5.99753E-04 2.01075E-02 6.39955E-03
 -1      7686 5.25458E-04 2.02381E-02 6.43510E-03
 -1      7687 6.39646E-04 1.82599E-02 6.15535E-03
 -1      7688 4.60003E-04 2.00416E-02 4.83500E-03
 -1      7689 5.19683E-04 2.39667E-02 6.84174E-03
 -1      7690 4.55107E-04 2.40788E-02 6.87756E-03
 -1      7691 5.59732E-04 2.20111E-02 6.62838E-03
 -1      7692 3.99866E-04 2.39095E-02 5.17451E-03
 -1      7693 4.39556E-04 2.80173E-02 7.22158E-03
 -1      7694 3.84820E-04 2.81108E-02 7.25749E-03
 -1      7695 4.79610E-04 2.59701E-02 7.03948E-03
 -1      7696 3.39720E-04 2.79688E-02 5.46730E-03
 -1      7697 3.59498E-04 3.22272E-02 7.53852E-03
 -1      7698 3.14669E-04 3.23020E-02 7.57445E-03
 -1      7699 3.99512E-04 3.01044E-02 7.38793E-03
 -1      7700 2.79647E-04 3.21873E-02 5.71294E-03
 -1      7701 2.79530E-04 3.65642E-02 7.79227E-03
 -1      7702 2.44642E-04 3.66203E-02 7.82819E-03
 -1      7703 3.19502E-04 3.43818E-02 7.67330E-03
 -1      7704 2.19654E-04 3.65330E-02 5.91119E-03
 -1      7705 1.99634E-04 4.09965E-02 7.98267E-03
 -1      7706 1.74704E-04 4.10339E-02 8.01858E-03
 -1      7707 2.39574E-04 3.87704E-02 7.89539E-03
 -1      7708 1.59723E-04 4.09741E-02 6.06194E-03
 -1      7709 1.19785E-04 4.54924E-02 8.10965E-03
 -1      7710 1.04821E-04 4.55111E-02 8.14555E-03
 -1      7711 1.59705E-04 4.32385E-02 8.05409E-03
 -1      7712 9.98313E-05 4.54787E-02 6.16512E-03
 -1      7713 3.99590E-05 5.00200E-02 8.17318E-03
 -1      7714 3.49635E-05 5.00200E-02 8.20907E-03
 -1      7715 7.98704E-05 4.77542E-02 8.14934E-03
 -1      7716 3.99583E-05 5.00150E-02 6.22071E-03
 -1      7717-3.98651E-05 5.45476E-02 8.17325E-03
 -1      7718-3.48918E-05 5.45289E-02 8.20914E-03
 -1      7719 4.80598E-08 5.22858E-02 8.18114E-03
 -1      7720-1.99128E-05 5.45513E-02 6.22871E-03
 -1      7721-1.19707E-04 5.90434E-02 8.10986E-03
 -1      7722-1.04768E-04 5.90060E-02 8.14576E-03
 -1      7723-7.97823E-05 5.68015E-02 8.14948E-03
 -1      7724-7.97983E-05 5.90559E-02 6.18913E-03
 -1      7725-1.99588E-04 6.34758E-02 7.98306E-03
 -1      7726-1.74691E-04 6.34197E-02 8.01897E-03
 -1      7727-1.59641E-04 6.12695E-02 8.05438E-03
 -1      7728-1.39715E-04 6.34970E-02 6.10198E-03
 -1      7729-2.79528E-04 6.78128E-02 7.79291E-03
 -1      7730-2.44687E-04 6.77380E-02 7.82882E-03
 -1      7731-2.39548E-04 6.56582E-02 7.89589E-03
 -1      7732-1.99679E-04 6.78427E-02 5.96733E-03
 -1      7733-3.59536E-04 7.20227E-02 7.53955E-03
 -1      7734-3.14783E-04 7.19292E-02 7.57544E-03
 -1      7735-3.19521E-04 6.99357E-02 7.67411E-03
 -1      7736-2.59701E-04 7.20613E-02 5.78530E-03
 -1      7737-4.39583E-04 7.60735E-02 7.22329E-03
 -1      7738-3.84978E-04 7.59613E-02 7.25908E-03
 -1      7739-3.99555E-04 7.40700E-02 7.38925E-03
 -1      7740-3.19760E-04 7.61207E-02 5.55611E-03
 -1      7741-5.19529E-04 7.99328E-02 6.84463E-03
 -1      7742-4.55185E-04 7.98022E-02 6.88013E-03
 -1      7743-4.79576E-04 7.80291E-02 7.04170E-03
 -1      7744-3.79760E-04 7.99886E-02 5.28019E-03
 -1      7745-5.98982E-04 8.35681E-02 6.40450E-03
 -1      7746-5.25099E-04 8.34193E-02 6.43931E-03
 -1      7747-5.59344E-04 8.17806E-02 6.63215E-03
 -1      7748-4.39421E-04 8.36325E-02 4.95823E-03
 -1      7749-6.77014E-04 8.69460E-02 5.90442E-03
 -1      7750-5.93923E-04 8.67795E-02 5.93771E-03
 -1      7751-6.38247E-04 8.52914E-02 6.16181E-03
 -1      7752-4.98075E-04 8.70188E-02 4.59138E-03
 -1      7753-7.51571E-04 9.00316E-02 5.34676E-03
 -1      7754-6.59826E-04 8.98490E-02 5.37687E-03
 -1      7755-7.14889E-04 8.85276E-02 5.63258E-03
 -1      7756-5.54260E-04 9.01131E-02 4.18135E-03
 -1      7757-8.18660E-04 9.27886E-02 4.73484E-03
 -1      7758-7.18907E-04 9.25925E-02 4.75882E-03
 -1      7759-7.86384E-04 9.14536E-02 5.04734E-03
 -1      7760-6.05085E-04 9.28789E-02 3.73049E-03
 -1      7761-8.69821E-04 9.51781E-02 4.07338E-03
 -1      7762-7.63336E-04 9.49737E-02 4.08546E-03
 -1      7763-8.46908E-04 9.40319E-02 4.40999E-03
 -1      7764-6.44500E-04 9.52769E-02 3.24241E-03
 -1      7765-8.91431E-04 9.71580E-02 3.36813E-03
 -1      7766-7.76605E-04 9.69547E-02 3.35947E-03
 -1      7767-8.85533E-04 9.62219E-02 3.72624E-03
 -1      7768-6.62289E-04 9.72641E-02 2.72134E-03
 -1      7769-8.44995E-04 9.86853E-02 2.63244E-03
 -1      7770-7.27813E-04 9.85016E-02 2.58110E-03
 -1      7771-8.79617E-04 9.79818E-02 3.00260E-03
 -1      7772-6.28863E-04 9.87869E-02 2.18320E-03
 -1      7773-6.52550E-04 9.96968E-02 1.88974E-03
 -1      7774-5.07683E-04 9.95612E-02 1.75496E-03
 -1      7775-7.83125E-04 9.92584E-02 2.26923E-03
 -1      7776-4.83851E-04 9.97638E-02 1.64627E-03
 -1      7777 0.00000E+00 1.00000E-01 1.00000E-03
 -1      7778 0.00000E+00 1.00000E-01 1.00000E-03
 -1      7779-4.32896E-04 9.99598E-02 1.46214E-03
 -1      7780 0.00000E+00 1.00000E-01 1.00000E-03
 -1      7781 0.00000E+00 0.00000E+00 0.00000E+00
 -1      7782-1.03293E-03 6.04357E-04 1.53825E-03
 -1      7783 0.00000E+00 0.00000E+00 0.00000E+00
 -1      7784-6.30953E-04 8.24155E-04 1.26235E-03
 -1      7785 0.00000E+00 0.00000E+00 0.00000E+00
 -1      7786-6.78469E-04 1.93254E-04 7.71892E-04
 -1      7787-8.70040E-04 4.32975E-04 1.22294E-03
 -1      7788 0.00000E+00 0.00000E+00 0.00000E+00
 -1      7789-7.98203E-04 7.36474E-04 1.32842E-03
 -1      7790 0.00000E+00 0.00000E+00 0.00000E+00
 -1      7791-3.25751E-04 3.26978E-04 5.42216E-04
 -1      7792-5.34071E-04 6.47592E-04 9.85607E-04
 -1      7793-1.32744E-03 1.67516E-03 2.77319E-03
 -1      7794-9.33263E-04 2.00335E-03 2.61557E-03
 -1      7795-1.22961E-03 1.08119E-03 2.17322E-03
 -1      7796-1.12406E-03 1.49388E-03 2.24522E-03
 -1      7797-1.14004E-03 1.85582E-03 2.69098E-03
 -1      7798-8.13536E-04 1.36674E-03 1.94096E-03
 -1      7799-7.91010E-04 1.81464E-03 2.10869E-03
 -1      7800-1.41531E-03 3.20192E-03 3.96689E-03
 -1      7801-1.04171E-03 3.57290E-03 3.92181E-03
 -1      7802-1.38880E-03 2.38311E-03 3.37837E-03
 -1      7803-1.19246E-03 3.02534E-03 3.23491E-03
 -1      7804-1.22945E-03 3.40538E-03 3.94929E-03
 -1      7805-1.00631E-03 2.73941E-03 3.28505E-03
 -1      7806-8.80322E-04 3.39049E-03 3.19517E-03
 -1      7807-1.39375E-03 5.16347E-03 5.10152E-03
 -1      7808-1.04287E-03 5.53983E-03 5.11666E-03
 -1      7809-1.41297E-03 4.12974E-03 4.54224E-03
 -1      7810-1.17225E-03 4.99922E-03 4.18550E-03
 -1      7811-1.22028E-03 5.36786E-03 5.11658E-03
 -1      7812-1.05116E-03 4.50665E-03 4.53088E-03
 -1      7813-8.79154E-04 5.37216E-03 4.19819E-03
 -1      7814-1.32270E-03 7.53107E-03 6.17181E-03
 -1      7815-9.94595E-04 7.89380E-03 6.22300E-03
 -1      7816-1.36277E-03 6.29901E-03 5.64521E-03
 -1      7817-1.11126E-03 7.37877E-03 5.08108E-03
 -1      7818-1.15960E-03 7.72720E-03 6.20553E-03
 -1      7819-1.02304E-03 6.67031E-03 5.68106E-03
 -1      7820-8.37168E-04 7.73960E-03 5.12519E-03
 -1      7821-1.22477E-03 1.02650E-02 7.16959E-03
 -1      7822-9.22020E-04 1.06037E-02 7.24036E-03
 -1      7823-1.27592E-03 8.85465E-03 6.68035E-03
 -1      7824-1.02877E-03 1.01252E-02 5.91643E-03
 -1      7825-1.07401E-03 1.04475E-02 7.21291E-03
 -1      7826-9.60327E-04 9.20630E-03 6.74284E-03
 -1      7827-7.75466E-04 1.04629E-02 5.97765E-03
 -1      7828-1.11418E-03 1.33269E-02 8.08662E-03
 -1      7829-8.38482E-04 1.36361E-02 8.16783E-03
 -1      7830-1.17050E-03 1.17572E-02 7.63859E-03
 -1      7831-9.36048E-04 1.31999E-02 6.68475E-03
 -1      7832-9.76669E-04 1.34932E-02 8.13483E-03
 -1      7833-8.81141E-04 1.20817E-02 7.71546E-03
 -1      7834-7.05043E-04 1.35087E-02 6.75513E-03
 -1      7835-9.97723E-04 1.66805E-02 8.91720E-03
 -1      7836-7.50287E-04 1.69575E-02 9.00371E-03
 -1      7837-1.05639E-03 1.49694E-02 8.51298E-03
 -1      7838-8.38657E-04 1.65666E-02 7.38141E-03
 -1      7839-8.74191E-04 1.68292E-02 8.96775E-03
 -1      7840-7.94737E-04 1.52628E-02 8.59732E-03
 -1      7841-6.31027E-04 1.68434E-02 7.45645E-03
 -1      7842-8.78831E-04 2.02913E-02 9.65759E-03
 -1      7843-6.60392E-04 2.05346E-02 9.74666E-03
 -1      7844-9.38440E-04 1.84558E-02 9.29884E-03
 -1      7845-7.39361E-04 2.01907E-02 8.00322E-03
 -1      7846-7.69708E-04 2.04218E-02 9.70918E-03
 -1      7847-7.05452E-04 1.87161E-02 9.38688E-03
 -1      7848-5.55788E-04 2.04340E-02 8.08052E-03
 -1      7849-7.59062E-04 2.41259E-02 1.03055E-02
 -1      7850-5.70051E-04 2.43349E-02 1.03957E-02
 -1      7851-8.18991E-04 2.21827E-02 9.99321E-03
 -1      7852-6.39415E-04 2.40389E-02 8.54819E-03
 -1      7853-6.64605E-04 2.42380E-02 1.03575E-02
 -1      7854-6.15238E-04 2.24089E-02 1.00830E-02
 -1      7855-4.80304E-04 2.42479E-02 8.62651E-03
 -1      7856-6.39077E-04 2.81518E-02 1.08597E-02
 -1      7857-4.79732E-04 2.83262E-02 1.09504E-02
 -1      7858-6.99070E-04 2.61170E-02 1.05944E-02
 -1      7859-5.39341E-04 2.80784E-02 9.01514E-03
 -1      7860-5.59427E-04 2.82453E-02 1.09118E-02
 -1      7861-5.24877E-04 2.63087E-02 1.06849E-02
 -1      7862-4.04919E-04 2.82527E-02 9.09389E-03
 -1      7863-5.19114E-04 3.23368E-02 1.13193E-02
 -1      7864-3.89562E-04 3.24764E-02 1.14102E-02
 -1      7865-5.79083E-04 3.02264E-02 1.11013E-02
 -1      7866-4.39320E-04 3.22770E-02 9.40342E-03
 -1      7867-4.54348E-04 3.24116E-02 1.13715E-02
 -1      7868-4.34627E-04 3.03834E-02 1.11922E-02
 -1      7869-3.29709E-04 3.24166E-02 9.48232E-03
 -1      7870-3.99234E-04 3.66489E-02 1.16841E-02
 -1      7871-2.99540E-04 3.67536E-02 1.17750E-02
 -1      7872-4.59162E-04 3.44790E-02 1.15136E-02
 -1      7873-3.39390E-04 3.66028E-02 9.71268E-03
 -1      7874-3.49391E-04 3.67050E-02 1.17363E-02
 -1      7875-3.44535E-04 3.46011E-02 1.16045E-02
 -1      7876-2.54652E-04 3.67075E-02 9.79162E-03
 -1      7877-2.79432E-04 4.10564E-02 1.19538E-02
 -1      7878-2.09627E-04 4.11262E-02 1.20448E-02
 -1      7879-3.39324E-04 3.88427E-02 1.18309E-02
 -1      7880-2.39537E-04 4.10240E-02 9.94274E-03
 -1      7881-2.44531E-04 4.10938E-02 1.20060E-02
 -1      7882-2.54573E-04 3.89300E-02 1.19218E-02
 -1      7883-1.79704E-04 4.10938E-02 1.00217E-02
 -1      7884-1.59683E-04 4.55273E-02 1.21284E-02
 -1      7885-1.19782E-04 4.55622E-02 1.22193E-02
 -1      7886-2.19552E-04 4.32859E-02 1.20530E-02
 -1      7887-1.39736E-04 4.55086E-02 1.00935E-02
 -1      7888-1.39733E-04 4.55460E-02 1.21806E-02
 -1      7889-1.64699E-04 4.33382E-02 1.21440E-02
 -1      7890-1.04821E-04 4.55435E-02 1.01725E-02
 -1      7891-3.99603E-05 5.00300E-02 1.22078E-02
 -1      7892-2.99692E-05 5.00300E-02 1.22987E-02
 -1      7893-9.98196E-05 4.77766E-02 1.21800E-02
 -1      7894-3.99597E-05 5.00250E-02 1.01650E-02
 -1      7895-3.49646E-05 5.00300E-02 1.22600E-02
 -1      7896-7.48736E-05 4.77941E-02 1.22709E-02
 -1      7897-2.99688E-05 5.00250E-02 1.02439E-02
 -1      7898 7.97600E-05 5.45326E-02 1.21920E-02
 -1      7899 5.98416E-05 5.44977E-02 1.22829E-02
 -1      7900 1.98986E-05 5.22833E-02 1.22118E-02
 -1      7901 5.98141E-05 5.45414E-02 1.01571E-02
 -1      7902 6.98014E-05 5.45139E-02 1.22442E-02
 -1      7903 1.49347E-05 5.22658E-02 1.23027E-02
 -1      7904 4.48811E-05 5.45065E-02 1.02360E-02
 -1      7905 1.99502E-04 5.90036E-02 1.20810E-02
 -1      7906 1.49679E-04 5.89338E-02 1.21719E-02
 -1      7907 1.39626E-04 5.67741E-02 1.21484E-02
 -1      7908 1.59608E-04 5.90260E-02 1.00699E-02
 -1      7909 1.74592E-04 5.89662E-02 1.21332E-02
 -1      7910 1.04755E-04 5.67217E-02 1.22393E-02
 -1      7911 1.19757E-04 5.89562E-02 1.01489E-02
 -1      7912 3.19288E-04 6.34110E-02 1.18749E-02
 -1      7913 2.39575E-04 6.33063E-02 1.19658E-02
 -1      7914 2.59387E-04 6.12172E-02 1.19899E-02
 -1      7915 2.59446E-04 6.34471E-02 9.90347E-03
 -1      7916 2.79436E-04 6.33549E-02 1.19271E-02
 -1      7917 1.94617E-04 6.11300E-02 1.20808E-02
 -1      7918 1.94688E-04 6.33424E-02 9.98239E-03
 -1      7919 4.39140E-04 6.77232E-02 1.15737E-02
 -1      7920 3.29564E-04 6.75836E-02 1.16646E-02
 -1      7921 3.79204E-04 6.55810E-02 1.17362E-02
 -1      7922 3.59348E-04 6.77730E-02 9.65781E-03
 -1      7923 3.84362E-04 6.76484E-02 1.16259E-02
 -1      7924 2.84555E-04 6.54589E-02 1.18271E-02
 -1      7925 2.69713E-04 6.76334E-02 9.73668E-03
 -1      7926 5.59055E-04 7.19082E-02 1.11776E-02
 -1      7927 4.19676E-04 7.17339E-02 1.12683E-02
 -1      7928 4.99088E-04 6.98336E-02 1.13875E-02
 -1      7929 4.59321E-04 7.19717E-02 9.33310E-03
 -1      7930 4.89387E-04 7.18148E-02 1.12298E-02
 -1      7931 3.74603E-04 6.96766E-02 1.14783E-02
 -1      7932 3.44865E-04 7.17973E-02 9.41182E-03
 -1      7933 6.78966E-04 7.59342E-02 1.06870E-02
 -1      7934 5.09900E-04 7.57252E-02 1.07772E-02
 -1      7935 6.19015E-04 7.39431E-02 1.09441E-02
 -1      7936 5.59318E-04 7.60113E-02 8.92969E-03
 -1      7937 5.94479E-04 7.58222E-02 1.07390E-02
 -1      7938 4.64778E-04 7.37514E-02 1.10346E-02
 -1      7939 4.20153E-04 7.58023E-02 9.00798E-03
 -1      7940 7.98632E-04 7.97690E-02 1.01025E-02
 -1      7941 6.00097E-04 7.95257E-02 1.01915E-02
 -1      7942 7.38848E-04 7.78776E-02 1.04064E-02
 -1      7943 6.59153E-04 7.98596E-02 8.44819E-03
 -1      7944 6.99455E-04 7.96385E-02 1.01540E-02
 -1      7945 5.55021E-04 7.76513E-02 1.04962E-02
 -1      7946 4.95488E-04 7.96163E-02 8.52548E-03
 -1      7947 9.17407E-04 8.33800E-02 9.42529E-03
 -1      7948 6.89799E-04 8.31030E-02 9.51190E-03
 -1      7949 8.58183E-04 8.16046E-02 9.77536E-03
 -1      7950 7.58311E-04 8.34840E-02 7.88969E-03
 -1      7951 8.03777E-04 8.32313E-02 9.47584E-03
 -1      7952 6.45065E-04 8.13443E-02 9.86344E-03
 -1      7953 5.70522E-04 8.32071E-02 7.96480E-03
 -1      7954 1.03378E-03 8.67338E-02 8.65755E-03
 -1      7955 7.77788E-04 8.64246E-02 8.73909E-03
 -1      7956 9.76021E-04 8.50912E-02 9.05255E-03
 -1      7957 8.55577E-04 8.68509E-02 7.25606E-03
 -1      7958 9.06100E-04 8.65675E-02 8.70584E-03
 -1      7959 7.34141E-04 8.47978E-02 9.13708E-03
 -1      7960 6.44306E-04 8.65420E-02 7.32672E-03
 -1      7961 1.14446E-03 8.97959E-02 7.80276E-03
 -1      7962 8.61222E-04 8.94571E-02 7.87433E-03
 -1      7963 1.09011E-03 8.83036E-02 8.24073E-03
 -1      7964 9.48303E-04 8.99258E-02 6.55031E-03
 -1      7965 1.00342E-03 8.96133E-02 7.84636E-03
 -1      7966 8.20368E-04 8.79791E-02 8.31812E-03
 -1      7967 7.14577E-04 8.95880E-02 6.61226E-03
 -1      7968 1.24293E-03 9.25295E-02 6.86630E-03
 -1      7969 9.34084E-04 9.21667E-02 6.91919E-03
 -1      7970 1.19579E-03 9.12061E-02 7.34431E-03
 -1      7971 1.03120E-03 9.26721E-02 5.77681E-03
 -1      7972 1.08940E-03 9.23333E-02 6.90071E-03
 -1      7973 8.99592E-04 9.08544E-02 7.40798E-03
 -1      7974 7.76481E-04 9.23111E-02 5.82252E-03
 -1      7975 1.31560E-03 9.48958E-02 5.85610E-03
 -1      7976 9.83667E-04 9.45194E-02 5.87458E-03
 -1      7977 1.28362E-03 9.37611E-02 6.36992E-03
 -1      7978 1.09359E-03 9.50505E-02 4.94204E-03
 -1      7979 1.15148E-03 9.46912E-02 5.87266E-03
 -1      7980 9.62995E-04 9.33897E-02 6.40817E-03
 -1      7981 8.19649E-04 9.46773E-02 4.95796E-03
 -1      7982 1.34079E-03 9.68539E-02 4.78025E-03
 -1      7983 9.86033E-04 9.64828E-02 4.74114E-03
 -1      7984 1.33629E-03 9.59282E-02 5.32633E-03
 -1      7985 1.11717E-03 9.70211E-02 4.05117E-03
 -1      7986 1.16428E-03 9.66501E-02 4.76554E-03
 -1      7987 9.93323E-04 9.55512E-02 5.31949E-03
 -1      7988 8.24178E-04 9.66555E-02 4.01731E-03
 -1      7989 1.26117E-03 9.83723E-02 3.64445E-03
 -1      7990 8.85980E-04 9.80439E-02 3.49749E-03
 -1      7991 1.31766E-03 9.76694E-02 4.22065E-03
 -1      7992 1.05668E-03 9.85447E-02 3.11966E-03
 -1      7993 1.08281E-03 9.81911E-02 3.56785E-03
 -1      7994 9.53978E-04 9.73129E-02 4.13536E-03
 -1      7995 7.43156E-04 9.82235E-02 2.99383E-03
 -1      7996 9.83533E-04 9.94261E-02 2.46702E-03
 -1      7997 6.00647E-04 9.92061E-02 2.20606E-03
 -1      7998 1.16963E-03 9.89590E-02 3.07260E-03
 -1      7999 8.20093E-04 9.95901E-02 2.15471E-03
 -1      8000 7.60009E-04 9.92936E-02 2.26809E-03
 -1      8001 7.73406E-04 9.86734E-02 2.85398E-03
 -1      8002 5.03340E-04 9.93751E-02 1.93243E-03
 -1      8003 0.00000E+00 1.00000E-01 1.00000E-03
 -1      8004 0.00000E+00 1.00000E-01 1.00000E-03
 -1      8005 6.46487E-04 9.98220E-02 1.73612E-03
 -1      8006 0.00000E+00 1.00000E-01 1.00000E-03
 -1      8007 0.00000E+00 1.00000E-01 1.00000E-03
 -1      8008 3.10490E-04 9.96883E-02 1.51803E-03
 -1      8009 0.00000E+00 1.00000E-01 1.00000E-03
 -1      8010 0.00000E+00 0.00000E+00 0.00000E+00
 -1      8011-3.48685E-04 9.41837E-04 1.19852E-03
 -1      8012 0.00000E+00 0.00000E+00 0.00000E+00
 -1      8013-4.70821E-04 8.93353E-04 1.21277E-03
 -1      8014 0.00000E+00 0.00000E+00 0.00000E+00
 -1      8015-1.84219E-04 3.77753E-04 5.33986E-04
 -1      8016-2.94160E-04 7.55427E-04 9.25045E-04
 -1      8017-5.74272E-04 2.19997E-03 2.54695E-03
 -1      8018-7.47570E-04 2.11573E-03 2.57517E-03
 -1      8019-4.82255E-04 1.52883E-03 1.86749E-03
 -1      8020-4.86758E-04 1.99838E-03 2.04381E-03
 -1      8021-6.71855E-04 3.81143E-03 3.87453E-03
 -1      8022-8.54115E-04 3.70738E-03 3.89484E-03
 -1      8023-6.35961E-04 2.96142E-03 3.22289E-03
 -1      8024-5.68495E-04 3.61901E-03 3.15010E-03
 -1      8025-6.87609E-04 5.79111E-03 5.10018E-03
 -1      8026-8.65058E-04 5.68013E-03 5.10992E-03
 -1      8027-6.87019E-04 4.75429E-03 4.49953E-03
 -1      8028-5.80602E-04 5.61704E-03 4.18269E-03
 -1      8029-6.61824E-04 8.14186E-03 6.23062E-03
 -1      8030-8.28419E-04 8.03160E-03 6.22998E-03
 -1      8031-6.78368E-04 6.92154E-03 5.67767E-03
 -1      8032-5.57850E-04 7.98385E-03 5.13247E-03
 -1      8033-6.15586E-04 1.08390E-02 7.26421E-03
 -1      8034-7.69147E-04 1.07339E-02 7.25627E-03
 -1      8035-6.40396E-04 9.44889E-03 6.75951E-03
 -1      8036-5.18299E-04 1.06961E-02 6.00024E-03
 -1      8037-5.60283E-04 1.38532E-02 8.20178E-03
 -1      8038-6.99661E-04 1.37560E-02 8.18909E-03
 -1      8039-5.88654E-04 1.23084E-02 7.74502E-03
 -1      8040-4.71481E-04 1.37246E-02 6.78719E-03
 -1      8041-5.01280E-04 1.71532E-02 9.04360E-03
 -1      8042-6.25981E-04 1.70654E-02 9.02804E-03
 -1      8043-5.31049E-04 1.54695E-02 8.63467E-03
 -1      8044-4.21822E-04 1.70386E-02 7.49407E-03
 -1      8045-4.41027E-04 2.07073E-02 9.78987E-03
 -1      8046-5.50835E-04 2.06297E-02 9.77267E-03
 -1      8047-4.71227E-04 1.89005E-02 9.42869E-03
 -1      8048-3.71298E-04 2.06064E-02 8.12124E-03
 -1      8049-3.80520E-04 2.44836E-02 1.04407E-02
 -1      8050-4.75361E-04 2.44168E-02 1.04226E-02
 -1      8051-4.10774E-04 2.25697E-02 1.01272E-02
 -1      8052-3.20684E-04 2.43964E-02 8.66890E-03
 -1      8053-3.20109E-04 2.84504E-02 1.09963E-02
 -1      8054-3.99963E-04 2.83945E-02 1.09777E-02
 -1      8055-3.50294E-04 2.64452E-02 1.07304E-02
 -1      8056-2.70227E-04 2.83769E-02 9.13713E-03
 -1      8057-2.59869E-04 3.25759E-02 1.14565E-02
 -1      8058-3.24738E-04 3.25311E-02 1.14377E-02
 -1      8059-2.89968E-04 3.04953E-02 1.12383E-02
 -1      8060-2.19962E-04 3.25161E-02 9.52598E-03
 -1      8061-1.99778E-04 3.68283E-02 1.18216E-02
 -1      8062-2.49671E-04 3.67947E-02 1.18027E-02
 -1      8063-2.29807E-04 3.46882E-02 1.16510E-02
 -1      8064-1.69850E-04 3.67822E-02 9.83546E-03
 -1      8065-1.39793E-04 4.11760E-02 1.20914E-02
 -1      8066-1.74715E-04 4.11536E-02 1.20724E-02
 -1      8067-1.69775E-04 3.89922E-02 1.19684E-02
 -1      8068-1.19842E-04 4.11436E-02 1.00656E-02
 -1      8069-7.98711E-05 4.55871E-02 1.22660E-02
 -1      8070-9.98286E-05 4.55759E-02 1.22470E-02
 -1      8071-1.09826E-04 4.33756E-02 1.21906E-02
 -1      8072-6.98961E-05 4.55684E-02 1.02164E-02
 -1      8073-1.99790E-05 5.00300E-02 1.23454E-02
 -1      8074-2.49740E-05 5.00300E-02 1.23264E-02
 -1      8075-4.99231E-05 4.78066E-02 1.23176E-02
 -1      8076-1.99789E-05 5.00250E-02 1.02879E-02
 -1      8077 3.99109E-05 5.44728E-02 1.23296E-02
 -1      8078 4.98784E-05 5.44840E-02 1.23106E-02
 -1      8079 9.96454E-06 5.22534E-02 1.23494E-02
 -1      8080 2.99364E-05 5.44815E-02 1.02800E-02
 -1      8081 9.98256E-05 5.88840E-02 1.22186E-02
 -1      8082 1.24757E-04 5.89064E-02 1.21996E-02
 -1      8083 6.98633E-05 5.66843E-02 1.22860E-02
 -1      8084 7.98753E-05 5.89064E-02 1.01928E-02
 -1      8085 1.59795E-04 6.32316E-02 1.20124E-02
 -1      8086 1.99696E-04 6.32652E-02 1.19934E-02
 -1      8087 1.29801E-04 6.10677E-02 1.21274E-02
 -1      8088 1.29867E-04 6.32677E-02 1.00262E-02
 -1      8089 2.19855E-04 6.74841E-02 1.17109E-02
 -1      8090 2.74730E-04 6.75289E-02 1.16921E-02
 -1      8091 1.89811E-04 6.53717E-02 1.18735E-02
 -1      8092 1.79949E-04 6.75339E-02 9.78033E-03
 -1      8093 2.80040E-04 7.16096E-02 1.13142E-02
 -1      8094 3.49896E-04 7.16655E-02 1.12956E-02
 -1      8095 2.49930E-04 6.95647E-02 1.15245E-02
 -1      8096 2.30160E-04 7.16731E-02 9.45507E-03
 -1      8097 3.40359E-04 7.55765E-02 1.08222E-02
 -1      8098 4.25196E-04 7.56434E-02 1.08041E-02
 -1      8099 3.10184E-04 7.36149E-02 1.10802E-02
 -1      8100 2.80523E-04 7.56537E-02 9.05043E-03
 -1      8101 4.00723E-04 7.93530E-02 1.02349E-02
 -1      8102 5.00521E-04 7.94306E-02 1.02176E-02
 -1      8103 3.70548E-04 7.74906E-02 1.05405E-02
 -1      8104 3.30993E-04 7.94439E-02 8.56636E-03
 -1      8105 4.60781E-04 8.29073E-02 9.55215E-03
 -1      8106 5.75463E-04 8.29951E-02 9.53639E-03
 -1      8107 4.30831E-04 8.11599E-02 9.90550E-03
 -1      8108 3.81317E-04 8.30120E-02 8.00278E-03
 -1      8109 5.19562E-04 8.62076E-02 8.77376E-03
 -1      8110 6.48914E-04 8.63047E-02 8.76069E-03
 -1      8111 4.90438E-04 8.45912E-02 9.17495E-03
 -1      8112 4.30742E-04 8.63262E-02 7.35950E-03
 -1      8113 5.74719E-04 8.92221E-02 7.89950E-03
 -1      8114 7.18259E-04 8.93270E-02 7.89088E-03
 -1      8115 5.47838E-04 8.77525E-02 8.34867E-03
 -1      8116 4.77393E-04 8.93550E-02 6.63616E-03
 -1      8117 6.21148E-04 9.19191E-02 6.92908E-03
 -1      8118 7.77760E-04 9.20291E-02 6.92732E-03
 -1      8119 5.99554E-04 9.06122E-02 7.42640E-03
 -1      8120 5.17097E-04 9.20671E-02 5.83206E-03
 -1      8121 6.48036E-04 9.42688E-02 5.86166E-03
 -1      8122 8.15609E-04 9.43794E-02 5.86970E-03
 -1      8123 6.38074E-04 9.31390E-02 6.40765E-03
 -1      8124 5.40896E-04 9.44329E-02 4.94603E-03
 -1      8125 6.35353E-04 9.62453E-02 4.69890E-03
 -1      8126 8.08080E-04 9.63488E-02 4.71698E-03
 -1      8127 6.48635E-04 9.53044E-02 5.29244E-03
 -1      8128 5.31796E-04 9.64278E-02 3.97730E-03
 -1      8129 5.44708E-04 9.78485E-02 3.43450E-03
 -1      8130 7.09388E-04 9.79321E-02 3.46030E-03
 -1      8131 6.02329E-04 9.70921E-02 4.07881E-03
 -1      8132 4.56969E-04 9.80406E-02 2.93460E-03
 -1      8133 3.31773E-04 9.90893E-02 2.14668E-03
 -1      8134 4.48104E-04 9.91374E-02 2.15959E-03
 -1      8135 4.58139E-04 9.85124E-02 2.78594E-03
 -1      8136 2.77111E-04 9.92679E-02 1.87631E-03
 -1      8137 0.00000E+00 1.00000E-01 1.00000E-03
 -1      8138 0.00000E+00 1.00000E-01 1.00000E-03
 -1      8139 1.75571E-04 9.96378E-02 1.51086E-03
 -1      8140 0.00000E+00 1.00000E-01 1.00000E-03
 -1      8141 0.00000E+00 0.00000E+00 0.00000E+00
 -1      8142-1.62197E-04 9.95371E-04 1.19416E-03
 -1      8143 0.00000E+00 0.00000E+00 0.00000E+00
 -1      8144-2.49936E-04 9.74383E-04 1.19415E-03
 -1      8145 0.00000E+00 0.00000E+00 0.00000E+00
 -1      8146-8.55975E-05 4.03237E-04 5.30755E-04
 -1      8147-1.36701E-04 8.05000E-04 9.17728E-04
 -1      8148-2.72613E-04 2.30177E-03 2.52547E-03
 -1      8149-4.17350E-04 2.26117E-03 2.53252E-03
 -1      8150-2.24289E-04 1.60865E-03 1.85275E-03
 -1      8151-2.30950E-04 2.09307E-03 2.02117E-03
 -1      8152-3.26547E-04 3.94140E-03 3.84986E-03
 -1      8153-4.96148E-04 3.88865E-03 3.85924E-03
 -1      8154-3.05638E-04 3.07972E-03 3.19820E-03
 -1      8155-2.76447E-04 3.74254E-03 3.12567E-03
 -1      8156-3.40044E-04 5.93289E-03 5.08461E-03
 -1      8157-5.12829E-04 5.87478E-03 5.09155E-03
 -1      8158-3.37344E-04 4.89185E-03 4.47852E-03
 -1      8159-2.87366E-04 5.75431E-03 4.16803E-03
 -1      8160-3.29850E-04 8.28488E-03 6.22595E-03
 -1      8161-4.95613E-04 8.22592E-03 6.22868E-03
 -1      8162-3.37036E-04 7.06502E-03 5.66755E-03
 -1      8163-2.78267E-04 8.12401E-03 5.12878E-03
 -1      8164-3.07819E-04 1.09766E-02 7.26879E-03
 -1      8165-4.61803E-04 1.09196E-02 7.26780E-03
 -1      8166-3.19823E-04 9.58986E-03 6.75977E-03
 -1      8167-2.59353E-04 1.08320E-02 6.00557E-03
 -1      8168-2.80473E-04 1.39813E-02 8.21292E-03
 -1      8169-4.20533E-04 1.39282E-02 8.20918E-03
 -1      8170-2.94566E-04 1.24417E-02 7.75321E-03
 -1      8171-2.36143E-04 1.38518E-02 6.79883E-03
 -1      8172-2.50977E-04 1.72695E-02 9.05896E-03
 -1      8173-3.76265E-04 1.72212E-02 9.05341E-03
 -1      8174-2.65879E-04 1.55919E-02 8.64818E-03
 -1      8175-2.11273E-04 1.71543E-02 7.50972E-03
 -1      8176-2.20769E-04 2.08102E-02 9.80777E-03
 -1      8177-3.30995E-04 2.07674E-02 9.80112E-03
 -1      8178-2.35914E-04 1.90102E-02 9.44550E-03
 -1      8179-1.85911E-04 2.07091E-02 8.13930E-03
 -1      8180-1.90430E-04 2.45725E-02 1.04601E-02
 -1      8181-2.85538E-04 2.45355E-02 1.04528E-02
 -1      8182-2.05598E-04 2.26657E-02 1.01460E-02
 -1      8183-1.60512E-04 2.44852E-02 8.68832E-03
 -1      8184-1.60159E-04 2.85248E-02 1.10164E-02
 -1      8185-2.40171E-04 2.84938E-02 1.10088E-02
 -1      8186-1.75281E-04 2.65269E-02 1.07502E-02
 -1      8187-1.35216E-04 2.84512E-02 9.15729E-03
 -1      8188-1.29994E-04 3.26355E-02 1.14771E-02
 -1      8189-1.94952E-04 3.26107E-02 1.14693E-02
 -1      8190-1.45063E-04 3.05623E-02 1.12587E-02
 -1      8191-1.10039E-04 3.25757E-02 9.54652E-03
 -1      8192-9.99214E-05 3.68731E-02 1.18423E-02
 -1      8193-1.49861E-04 3.68545E-02 1.18344E-02
 -1      8194-1.14948E-04 3.47405E-02 1.16716E-02
 -1      8195-8.49559E-05 3.68270E-02 9.85620E-03
 -1      8196-6.99125E-05 4.12059E-02 1.21122E-02
 -1      8197-1.04858E-04 4.11934E-02 1.21043E-02
 -1      8198-8.49105E-05 3.90296E-02 1.19892E-02
 -1      8199-5.99364E-05 4.11735E-02 1.00864E-02
 -1      8200-3.99420E-05 4.56021E-02 1.22869E-02
 -1      8201-5.99086E-05 4.55958E-02 1.22789E-02
 -1      8202-5.49237E-05 4.33980E-02 1.22115E-02
 -1      8203-3.49542E-05 4.55834E-02 1.02373E-02
 -1      8204-9.98943E-06 5.00300E-02 1.23663E-02
 -1      8205-1.49842E-05 5.00300E-02 1.23583E-02
 -1      8206-2.49645E-05 4.78140E-02 1.23385E-02
 -1      8207-9.98938E-06 5.00250E-02 1.03087E-02
 -1      8208 1.99619E-05 5.44579E-02 1.23505E-02
 -1      8209 2.99386E-05 5.44641E-02 1.23425E-02
 -1      8210 4.98536E-06 5.22459E-02 1.23703E-02
 -1      8211 1.49742E-05 5.44666E-02 1.03009E-02
 -1      8212 4.99280E-05 5.88541E-02 1.22394E-02
 -1      8213 7.48820E-05 5.88665E-02 1.22314E-02
 -1      8214 3.49419E-05 5.66619E-02 1.23069E-02
 -1      8215 3.99521E-05 5.88765E-02 1.02136E-02
 -1      8216 7.99272E-05 6.31868E-02 1.20331E-02
 -1      8217 1.19871E-04 6.32055E-02 1.20252E-02
 -1      8218 6.49220E-05 6.10304E-02 1.21482E-02
 -1      8219 6.49620E-05 6.32230E-02 1.00470E-02
 -1      8220 1.09981E-04 6.74245E-02 1.17314E-02
 -1      8221 1.64937E-04 6.74493E-02 1.17236E-02
 -1      8222 9.49456E-05 6.53195E-02 1.18942E-02
 -1      8223 9.00263E-05 6.74743E-02 9.80088E-03
 -1      8224 1.40112E-04 7.15353E-02 1.13344E-02
 -1      8225 2.10109E-04 7.15662E-02 1.13267E-02
 -1      8226 1.25035E-04 6.94977E-02 1.15449E-02
 -1      8227 1.15170E-04 7.15988E-02 9.47526E-03
 -1      8228 1.70327E-04 7.54877E-02 1.08417E-02
 -1      8229 2.55397E-04 7.55247E-02 1.08343E-02
 -1      8230 1.55209E-04 7.35332E-02 1.11000E-02
 -1      8231 1.40409E-04 7.55650E-02 9.06993E-03
 -1      8232 2.00578E-04 7.92501E-02 1.02530E-02
 -1      8233 3.00734E-04 7.92929E-02 1.02463E-02
 -1      8234 1.85455E-04 7.73946E-02 1.05594E-02
 -1      8235 1.65720E-04 7.93413E-02 8.58460E-03
 -1      8236 2.30665E-04 8.27911E-02 9.56787E-03
 -1      8237 3.45838E-04 8.28394E-02 9.56216E-03
 -1      8238 2.15665E-04 8.10502E-02 9.92257E-03
 -1      8239 1.90960E-04 8.28963E-02 8.01878E-03
 -1      8240 2.60024E-04 8.60796E-02 8.78556E-03
 -1      8241 3.89917E-04 8.61327E-02 8.78152E-03
 -1      8242 2.45497E-04 8.44689E-02 9.18895E-03
 -1      8243 2.15690E-04 8.61992E-02 7.37178E-03
 -1      8244 2.87279E-04 8.90847E-02 7.90519E-03
 -1      8245 4.31060E-04 8.91416E-02 7.90371E-03
 -1      8246 2.74058E-04 8.76195E-02 8.35773E-03
 -1      8247 2.38802E-04 8.92193E-02 6.64259E-03
 -1      8248 3.09425E-04 9.17765E-02 6.92614E-03
 -1      8249 4.65027E-04 9.18353E-02 6.92812E-03
 -1      8250 2.99297E-04 9.04715E-02 7.42806E-03
 -1      8251 2.57819E-04 9.19273E-02 5.83009E-03
 -1      8252 3.20281E-04 9.41277E-02 5.84850E-03
 -1      8253 4.83154E-04 9.41855E-02 5.85441E-03
 -1      8254 3.16842E-04 9.29961E-02 6.39960E-03
 -1      8255 2.67563E-04 9.42962E-02 4.93378E-03
 -1      8256 3.08598E-04 9.61162E-02 4.67709E-03
 -1      8257 4.69018E-04 9.61686E-02 4.68531E-03
 -1      8258 3.18291E-04 9.51677E-02 5.27413E-03
 -1      8259 2.58441E-04 9.63050E-02 3.95576E-03
 -1      8260 2.58424E-04 9.77477E-02 3.41547E-03
 -1      8261 3.95729E-04 9.77879E-02 3.42159E-03
 -1      8262 2.89286E-04 9.69748E-02 4.05690E-03
 -1      8263 2.16701E-04 9.79467E-02 2.91441E-03
 -1      8264 1.54273E-04 9.90363E-02 2.14335E-03
 -1      8265 2.37767E-04 9.90571E-02 2.14299E-03
 -1      8266 2.12960E-04 9.84334E-02 2.77305E-03
 -1      8267 1.28742E-04 9.92187E-02 1.87000E-03
 -1      8268 0.00000E+00 1.00000E-01 1.00000E-03
 -1      8269 0.00000E+00 1.00000E-01 1.00000E-03
 -1      8270 8.15610E-05 9.96126E-02 1.50816E-03
 -1      8271 0.00000E+00 1.00000E-01 1.00000E-03
 -1      8272 0.00000E+00 0.00000E+00 0.00000E+00
 -1      8273-2.69751E-18 1.01167E-03 1.19401E-03
 -1      8274 0.00000E+00 0.00000E+00 0.00000E+00
 -1      8275-7.94841E-05 1.00756E-03 1.19381E-03
 -1      8276 0.00000E+00 0.00000E+00 0.00000E+00
 -1      8277-7.52971E-18 4.10186E-04 5.32039E-04
 -1      8278 7.32390E-18 8.19885E-04 9.16319E-04
 -1      8279 3.17385E-17 2.33302E-03 2.52064E-03
 -1      8280-1.34338E-04 2.32557E-03 2.52157E-03
 -1      8281 1.09126E-17 1.63266E-03 1.85077E-03
 -1      8282 5.06203E-17 2.12210E-03 2.01557E-03
 -1      8283 9.39982E-17 3.98240E-03 3.84309E-03
 -1      8284-1.62081E-04 3.97243E-03 3.84467E-03
 -1      8285 5.90533E-17 3.11652E-03 3.19213E-03
 -1      8286 1.18703E-16 3.78143E-03 3.11869E-03
 -1      8287 1.74136E-16 5.97848E-03 5.07900E-03
 -1      8288-1.69494E-04 5.96728E-03 5.08039E-03
 -1      8289 1.29771E-16 4.93570E-03 4.47192E-03
 -1      8290 2.08682E-16 5.79834E-03 4.16271E-03
 -1      8291 2.74151E-16 8.33145E-03 6.22313E-03
 -1      8292-1.64777E-04 8.31993E-03 6.22392E-03
 -1      8293 2.20356E-16 7.11148E-03 5.66323E-03
 -1      8294 3.16556E-16 8.16956E-03 5.12641E-03
 -1      8295 3.89798E-16 1.10217E-02 7.26884E-03
 -1      8296-1.53913E-04 1.10105E-02 7.26895E-03
 -1      8297 3.29286E-16 9.63597E-03 6.75843E-03
 -1      8298 4.37106E-16 1.08765E-02 6.00606E-03
 -1      8299 5.15788E-16 1.40236E-02 8.21517E-03
 -1      8300-1.40281E-04 1.40131E-02 8.21475E-03
 -1      8301 4.51479E-16 1.24855E-02 7.75445E-03
 -1      8302 5.70313E-16 1.38937E-02 6.80146E-03
 -1      8303 6.62113E-16 1.73080E-02 9.06270E-03
 -1      8304-1.25535E-04 1.72984E-02 9.06190E-03
 -1      8305 5.91512E-16 1.56324E-02 8.65126E-03
 -1      8306 7.16224E-16 1.71926E-02 7.51379E-03
 -1      8307 7.99791E-16 2.08444E-02 9.81244E-03
 -1      8308-1.10420E-04 2.08359E-02 9.81141E-03
 -1      8309 7.27378E-16 1.90466E-02 9.44976E-03
 -1      8310 8.70666E-16 2.07432E-02 8.14425E-03
 -1      8311 9.64945E-16 2.46020E-02 1.04653E-02
 -1      8312-9.52385E-05 2.45947E-02 1.04641E-02
 -1      8313 8.84568E-16 2.26975E-02 1.01510E-02
 -1      8314 1.02856E-15 2.45147E-02 8.69379E-03
 -1      8315 1.12765E-15 2.85495E-02 1.10219E-02
 -1      8316-8.00937E-05 2.85433E-02 1.10207E-02
 -1      8317 1.04745E-15 2.65540E-02 1.07556E-02
 -1      8318 1.19520E-15 2.84759E-02 9.16305E-03
 -1      8319 1.26415E-15 3.26554E-02 1.14828E-02
 -1      8320-6.50053E-05 3.26504E-02 1.14815E-02
 -1      8321 1.20521E-15 3.05846E-02 1.12643E-02
 -1      8322 1.34055E-15 3.25956E-02 9.55243E-03
 -1      8323 1.43229E-15 3.68880E-02 1.18481E-02
 -1      8324-4.99651E-05 3.68843E-02 1.18468E-02
 -1      8325 1.34905E-15 3.47579E-02 1.16774E-02
 -1      8326 1.50631E-15 3.68419E-02 9.86218E-03
 -1      8327 1.59182E-15 4.12158E-02 1.21180E-02
 -1      8328-3.49585E-05 4.12133E-02 1.21167E-02
 -1      8329 1.50804E-15 3.90420E-02 1.19950E-02
 -1      8330 1.66936E-15 4.11834E-02 1.00925E-02
 -1      8331 1.74828E-15 4.56070E-02 1.22927E-02
 -1      8332-1.99719E-05 4.56058E-02 1.22914E-02
 -1      8333 1.67758E-15 4.34055E-02 1.22173E-02
 -1      8334 1.84870E-15 4.55883E-02 1.02433E-02
 -1      8335 1.96001E-15 5.00300E-02 1.23721E-02
 -1      8336-4.99471E-06 5.00300E-02 1.23708E-02
 -1      8337 1.85488E-15 4.78165E-02 1.23443E-02
 -1      8338 2.01604E-15 5.00250E-02 1.03148E-02
 -1      8339 2.12541E-15 5.44529E-02 1.23563E-02
 -1      8340 9.98181E-06 5.44541E-02 1.23549E-02
 -1      8341 2.04871E-15 5.22434E-02 1.23761E-02
 -1      8342 2.19723E-15 5.44616E-02 1.03069E-02
 -1      8343 2.29387E-15 5.88441E-02 1.22452E-02
 -1      8344 2.49661E-05 5.88466E-02 1.22439E-02
 -1      8345 2.20817E-15 5.66545E-02 1.23127E-02
 -1      8346 2.35835E-15 5.88665E-02 1.02196E-02
 -1      8347 2.46891E-15 6.31719E-02 1.20388E-02
 -1      8348 3.99677E-05 6.31756E-02 1.20375E-02
 -1      8349 2.37104E-15 6.10179E-02 1.21540E-02
 -1      8350 2.51644E-15 6.32080E-02 1.00529E-02
 -1      8351 2.61863E-15 6.74046E-02 1.17371E-02
 -1      8352 5.49979E-05 6.74096E-02 1.17358E-02
 -1      8353 2.55395E-15 6.53021E-02 1.18999E-02
 -1      8354 2.63615E-15 6.74544E-02 9.80680E-03
 -1      8355 2.66546E-15 7.15105E-02 1.13399E-02
 -1      8356 7.00685E-05 7.15167E-02 1.13387E-02
 -1      8357 2.65187E-15 6.94754E-02 1.15505E-02
 -1      8358 2.68404E-15 7.15741E-02 9.48103E-03
 -1      8359 2.70556E-15 7.54581E-02 1.08469E-02
 -1      8360 8.51835E-05 7.54655E-02 1.08457E-02
 -1      8361 2.68130E-15 7.35061E-02 1.11054E-02
 -1      8362 2.67105E-15 7.55355E-02 9.07543E-03
 -1      8363 2.65030E-15 7.92159E-02 1.02578E-02
 -1      8364 1.00319E-04 7.92245E-02 1.02567E-02
 -1      8365 2.68599E-15 7.73627E-02 1.05644E-02
 -1      8366 2.63604E-15 7.93072E-02 8.58962E-03
 -1      8367 2.52359E-15 8.27527E-02 9.57176E-03
 -1      8368 1.15370E-04 8.27623E-02 9.57092E-03
 -1      8369 2.59558E-15 8.10139E-02 9.92694E-03
 -1      8370 2.48901E-15 8.28580E-02 8.02300E-03
 -1      8371 2.30082E-15 8.60374E-02 8.78807E-03
 -1      8372 1.30045E-04 8.60479E-02 8.78758E-03
 -1      8373 2.41492E-15 8.44284E-02 9.19223E-03
 -1      8374 2.26460E-15 8.61573E-02 7.37467E-03
 -1      8375 1.98486E-15 8.90397E-02 7.90566E-03
 -1      8376 1.43629E-04 8.90509E-02 7.90567E-03
 -1      8377 2.15400E-15 8.75757E-02 8.35930E-03
 -1      8378 1.98547E-15 8.91748E-02 6.64351E-03
 -1      8379 1.65926E-15 9.17301E-02 6.92395E-03
 -1      8380 1.54553E-04 9.17416E-02 6.92458E-03
 -1      8381 1.83014E-15 9.04256E-02 7.42725E-03
 -1      8382 1.66915E-15 9.18819E-02 5.82835E-03
 -1      8383 1.23188E-15 9.40824E-02 5.84371E-03
 -1      8384 1.59618E-04 9.40935E-02 5.84489E-03
 -1      8385 1.45823E-15 9.29499E-02 6.39601E-03
 -1      8386 1.26259E-15 9.42524E-02 4.92928E-03
 -1      8387 9.44928E-16 9.60756E-02 4.67120E-03
 -1      8388 1.53146E-04 9.60855E-02 4.67257E-03
 -1      8389 1.09947E-15 9.51241E-02 5.26842E-03
 -1      8390 9.56431E-16 9.62664E-02 3.94967E-03
 -1      8391 6.02184E-16 9.77167E-02 3.41134E-03
 -1      8392 1.27325E-04 9.77241E-02 3.41211E-03
 -1      8393 7.51476E-16 9.69383E-02 4.05165E-03
 -1      8394 6.25556E-16 9.79179E-02 2.90950E-03
 -1      8395 3.43151E-16 9.90202E-02 2.14348E-03
 -1      8396 7.55921E-05 9.90243E-02 2.14321E-03
 -1      8397 4.58968E-16 9.84096E-02 2.77155E-03
 -1      8398 3.19056E-16 9.92040E-02 1.86887E-03
 -1      8399 0.00000E+00 1.00000E-01 1.00000E-03
 -1      8400 0.00000E+00 1.00000E-01 1.00000E-03
 -1      8401 1.47856E-16 9.96058E-02 1.50952E-03
 -1      8402 0.00000E+00 1.00000E-01 1.00000E-03
 -1      8403 0.00000E+00 0.00000E+00 0.00000E+00
 -1      8404 1.62197E-04 9.95371E-04 1.19416E-03
 -1      8405 0.00000E+00 0.00000E+00 0.00000E+00
 -1      8406 7.94841E-05 1.00756E-03 1.19381E-03
 -1      8407 0.00000E+00 0.00000E+00 0.00000E+00
 -1      8408 8.55975E-05 4.03237E-04 5.30755E-04
 -1      8409 1.36701E-04 8.05000E-04 9.17728E-04
 -1      8410 2.72613E-04 2.30177E-03 2.52547E-03
 -1      8411 1.34338E-04 2.32557E-03 2.52157E-03
 -1      8412 2.24289E-04 1.60865E-03 1.85275E-03
 -1      8413 2.30950E-04 2.09307E-03 2.02117E-03
 -1      8414 3.26547E-04 3.94140E-03 3.84986E-03
 -1      8415 1.62081E-04 3.97243E-03 3.84467E-03
 -1      8416 3.05638E-04 3.07972E-03 3.19820E-03
 -1      8417 2.76447E-04 3.74254E-03 3.12567E-03
 -1      8418 3.40044E-04 5.93289E-03 5.08461E-03
 -1      8419 1.69494E-04 5.96728E-03 5.08039E-03
 -1      8420 3.37344E-04 4.89185E-03 4.47852E-03
 -1      8421 2.87366E-04 5.75431E-03 4.16803E-03
 -1      8422 3.29850E-04 8.28488E-03 6.22595E-03
 -1      8423 1.64777E-04 8.31993E-03 6.22392E-03
 -1      8424 3.37036E-04 7.06502E-03 5.66755E-03
 -1      8425 2.78267E-04 8.12401E-03 5.12878E-03
 -1      8426 3.07819E-04 1.09766E-02 7.26879E-03
 -1      8427 1.53913E-04 1.10105E-02 7.26895E-03
 -1      8428 3.19823E-04 9.58986E-03 6.75977E-03
 -1      8429 2.59353E-04 1.08320E-02 6.00557E-03
 -1      8430 2.80473E-04 1.39813E-02 8.21292E-03
 -1      8431 1.40281E-04 1.40131E-02 8.21475E-03
 -1      8432 2.94566E-04 1.24417E-02 7.75321E-03
 -1      8433 2.36143E-04 1.38518E-02 6.79883E-03
 -1      8434 2.50977E-04 1.72695E-02 9.05896E-03
 -1      8435 1.25535E-04 1.72984E-02 9.06190E-03
 -1      8436 2.65879E-04 1.55919E-02 8.64818E-03
 -1      8437 2.11273E-04 1.71543E-02 7.50972E-03
 -1      8438 2.20769E-04 2.08102E-02 9.80777E-03
 -1      8439 1.10420E-04 2.08359E-02 9.81141E-03
 -1      8440 2.35914E-04 1.90102E-02 9.44550E-03
 -1      8441 1.85911E-04 2.07091E-02 8.13930E-03
 -1      8442 1.90430E-04 2.45725E-02 1.04601E-02
 -1      8443 9.52385E-05 2.45947E-02 1.04641E-02
 -1      8444 2.05598E-04 2.26657E-02 1.01460E-02
 -1      8445 1.60512E-04 2.44852E-02 8.68832E-03
 -1      8446 1.60159E-04 2.85248E-02 1.10164E-02
 -1      8447 8.00937E-05 2.85433E-02 1.10207E-02
 -1      8448 1.75281E-04 2.65269E-02 1.07502E-02
 -1      8449 1.35216E-04 2.84512E-02 9.15729E-03
 -1      8450 1.29994E-04 3.26355E-02 1.14771E-02
 -1      8451 6.50053E-05 3.26504E-02 1.14815E-02
 -1      8452 1.45063E-04 3.05623E-02 1.12587E-02
 -1      8453 1.10039E-04 3.25757E-02 9.54652E-03
 -1      8454 9.99214E-05 3.68731E-02 1.18423E-02
 -1      8455 4.99651E-05 3.68843E-02 1.18468E-02
 -1      8456 1.14948E-04 3.47405E-02 1.16716E-02
 -1      8457 8.49559E-05 3.68270E-02 9.85620E-03
 -1      8458 6.99125E-05 4.12059E-02 1.21122E-02
 -1      8459 3.49585E-05 4.12133E-02 1.21167E-02
 -1      8460 8.49105E-05 3.90296E-02 1.19892E-02
 -1      8461 5.99364E-05 4.11735E-02 1.00864E-02
 -1      8462 3.99420E-05 4.56021E-02 1.22869E-02
 -1      8463 1.99719E-05 4.56058E-02 1.22914E-02
 -1      8464 5.49237E-05 4.33980E-02 1.22115E-02
 -1      8465 3.49542E-05 4.55834E-02 1.02373E-02
 -1      8466 9.98943E-06 5.00300E-02 1.23663E-02
 -1      8467 4.99471E-06 5.00300E-02 1.23708E-02
 -1      8468 2.49645E-05 4.78140E-02 1.23385E-02
 -1      8469 9.98938E-06 5.00250E-02 1.03087E-02
 -1      8470-1.99619E-05 5.44579E-02 1.23505E-02
 -1      8471-9.98181E-06 5.44541E-02 1.23549E-02
 -1      8472-4.98536E-06 5.22459E-02 1.23703E-02
 -1      8473-1.49742E-05 5.44666E-02 1.03009E-02
 -1      8474-4.99280E-05 5.88541E-02 1.22394E-02
 -1      8475-2.49661E-05 5.88466E-02 1.22439E-02
 -1      8476-3.49419E-05 5.66619E-02 1.23069E-02
 -1      8477-3.99521E-05 5.88765E-02 1.02136E-02
 -1      8478-7.99272E-05 6.31868E-02 1.20331E-02
 -1      8479-3.99677E-05 6.31756E-02 1.20375E-02
 -1      8480-6.49220E-05 6.10304E-02 1.21482E-02
 -1      8481-6.49620E-05 6.32230E-02 1.00470E-02
 -1      8482-1.09981E-04 6.74245E-02 1.17314E-02
 -1      8483-5.49979E-05 6.74096E-02 1.17358E-02
 -1      8484-9.49456E-05 6.53195E-02 1.18942E-02
 -1      8485-9.00263E-05 6.74743E-02 9.80088E-03
 -1      8486-1.40112E-04 7.15353E-02 1.13344E-02
 -1      8487-7.00685E-05 7.15167E-02 1.13387E-02
 -1      8488-1.25035E-04 6.94977E-02 1.15449E-02
 -1      8489-1.15170E-04 7.15988E-02 9.47526E-03
 -1      8490-1.70327E-04 7.54877E-02 1.08417E-02
 -1      8491-8.51835E-05 7.54655E-02 1.08457E-02
 -1      8492-1.55209E-04 7.35332E-02 1.11000E-02
 -1      8493-1.40409E-04 7.55650E-02 9.06993E-03
 -1      8494-2.00578E-04 7.92501E-02 1.02530E-02
 -1      8495-1.00319E-04 7.92245E-02 1.02567E-02
 -1      8496-1.85455E-04 7.73946E-02 1.05594E-02
 -1      8497-1.65720E-04 7.93413E-02 8.58460E-03
 -1      8498-2.30665E-04 8.27911E-02 9.56787E-03
 -1      8499-1.15370E-04 8.27623E-02 9.57092E-03
 -1      8500-2.15665E-04 8.10502E-02 9.92257E-03
 -1      8501-1.90960E-04 8.28963E-02 8.01878E-03
 -1      8502-2.60024E-04 8.60796E-02 8.78556E-03
 -1      8503-1.30045E-04 8.60479E-02 8.78758E-03
 -1      8504-2.45497E-04 8.44689E-02 9.18895E-03
 -1      8505-2.15690E-04 8.61992E-02 7.37178E-03
 -1      8506-2.87279E-04 8.90847E-02 7.90519E-03
 -1      8507-1.43629E-04 8.90509E-02 7.90567E-03
 -1      8508-2.74058E-04 8.76195E-02 8.35773E-03
 -1      8509-2.38802E-04 8.92193E-02 6.64259E-03
 -1      8510-3.09425E-04 9.17765E-02 6.92614E-03
 -1      8511-1.54553E-04 9.17416E-02 6.92458E-03
 -1      8512-2.99297E-04 9.04715E-02 7.42806E-03
 -1      8513-2.57819E-04 9.19273E-02 5.83009E-03
 -1      8514-3.20281E-04 9.41277E-02 5.84850E-03
 -1      8515-1.59618E-04 9.40935E-02 5.84489E-03
 -1      8516-3.16842E-04 9.29961E-02 6.39960E-03
 -1      8517-2.67563E-04 9.42962E-02 4.93378E-03
 -1      8518-3.08598E-04 9.61162E-02 4.67709E-03
 -1      8519-1.53146E-04 9.60855E-02 4.67257E-03
 -1      8520-3.18291E-04 9.51677E-02 5.27413E-03
 -1      8521-2.58441E-04 9.63050E-02 3.95576E-03
 -1      8522-2.58424E-04 9.77477E-02 3.41547E-03
 -1      8523-1.27325E-04 9.77241E-02 3.41211E-03
 -1      8524-2.89286E-04 9.69748E-02 4.05690E-03
 -1      8525-2.16701E-04 9.79467E-02 2.91441E-03
 -1      8526-1.54273E-04 9.90363E-02 2.14335E-03
 -1      8527-7.55921E-05 9.90243E-02 2.14321E-03
 -1      8528-2.12960E-04 9.84334E-02 2.77305E-03
 -1      8529-1.28742E-04 9.92187E-02 1.87000E-03
 -1      8530 0.00000E+00 1.00000E-01 1.00000E-03
 -1      8531 0.00000E+00 1.00000E-01 1.00000E-03
 -1      8532-8.15610E-05 9.96126E-02 1.50816E-03
 -1      8533 0.00000E+00 1.00000E-01 1.00000E-03
 -1      8534 0.00000E+00 0.00000E+00 0.00000E+00
 -1      8535 3.48685E-04 9.41837E-04 1.19852E-03
 -1      8536 0.00000E+00 0.00000E+00 0.00000E+00
 -1      8537 2.49936E-04 9.74383E-04 1.19415E-03
 -1      8538 0.00000E+00 0.00000E+00 0.00000E+00
 -1      8539 1.84219E-04 3.77753E-04 5.33986E-04
 -1      8540 2.94160E-04 7.55427E-04 9.25045E-04
 -1      8541 5.74272E-04 2.19997E-03 2.54695E-03
 -1      8542 4.17350E-04 2.26117E-03 2.53252E-03
 -1      8543 4.82255E-04 1.52883E-03 1.86749E-03
 -1      8544 4.86758E-04 1.99838E-03 2.04381E-03
 -1      8545 6.71855E-04 3.81143E-03 3.87453E-03
 -1      8546 4.96148E-04 3.88865E-03 3.85924E-03
 -1      8547 6.35961E-04 2.96142E-03 3.22289E-03
 -1      8548 5.68495E-04 3.61901E-03 3.15010E-03
 -1      8549 6.87609E-04 5.79111E-03 5.10018E-03
 -1      8550 5.12829E-04 5.87478E-03 5.09155E-03
 -1      8551 6.87019E-04 4.75429E-03 4.49953E-03
 -1      8552 5.80602E-04 5.61704E-03 4.18269E-03
 -1      8553 6.61824E-04 8.14186E-03 6.23062E-03
 -1      8554 4.95613E-04 8.22592E-03 6.22868E-03
 -1      8555 6.78368E-04 6.92154E-03 5.67767E-03
 -1      8556 5.57850E-04 7.98385E-03 5.13247E-03
 -1      8557 6.15586E-04 1.08390E-02 7.26421E-03
 -1      8558 4.61803E-04 1.09196E-02 7.26780E-03
 -1      8559 6.40396E-04 9.44889E-03 6.75951E-03
 -1      8560 5.18299E-04 1.06961E-02 6.00024E-03
 -1      8561 5.60283E-04 1.38532E-02 8.20178E-03
 -1      8562 4.20533E-04 1.39282E-02 8.20918E-03
 -1      8563 5.88654E-04 1.23084E-02 7.74502E-03
 -1      8564 4.71481E-04 1.37246E-02 6.78719E-03
 -1      8565 5.01280E-04 1.71532E-02 9.04360E-03
 -1      8566 3.76265E-04 1.72212E-02 9.05341E-03
 -1      8567 5.31049E-04 1.54695E-02 8.63467E-03
 -1      8568 4.21822E-04 1.70386E-02 7.49407E-03
 -1      8569 4.41027E-04 2.07073E-02 9.78987E-03
 -1      8570 3.30995E-04 2.07674E-02 9.80112E-03
 -1      8571 4.71227E-04 1.89005E-02 9.42869E-03
 -1      8572 3.71298E-04 2.06064E-02 8.12124E-03
 -1      8573 3.80520E-04 2.44836E-02 1.04407E-02
 -1      8574 2.85538E-04 2.45355E-02 1.04528E-02
 -1      8575 4.10774E-04 2.25697E-02 1.01272E-02
 -1      8576 3.20684E-04 2.43964E-02 8.66890E-03
 -1      8577 3.20109E-04 2.84504E-02 1.09963E-02
 -1      8578 2.40171E-04 2.84938E-02 1.10088E-02
 -1      8579 3.50294E-04 2.64452E-02 1.07304E-02
 -1      8580 2.70227E-04 2.83769E-02 9.13713E-03
 -1      8581 2.59869E-04 3.25759E-02 1.14565E-02
 -1      8582 1.94952E-04 3.26107E-02 1.14693E-02
 -1      8583 2.89968E-04 3.04953E-02 1.12383E-02
 -1      8584 2.19962E-04 3.25161E-02 9.52598E-03
 -1      8585 1.99778E-04 3.68283E-02 1.18216E-02
 -1      8586 1.49861E-04 3.68545E-02 1.18344E-02
 -1      8587 2.29807E-04 3.46882E-02 1.16510E-02
 -1      8588 1.69850E-04 3.67822E-02 9.83546E-03
 -1      8589 1.39793E-04 4.11760E-02 1.20914E-02
 -1      8590 1.04858E-04 4.11934E-02 1.21043E-02
 -1      8591 1.69775E-04 3.89922E-02 1.19684E-02
 -1      8592 1.19842E-04 4.11436E-02 1.00656E-02
 -1      8593 7.98711E-05 4.55871E-02 1.22660E-02
 -1      8594 5.99086E-05 4.55958E-02 1.22789E-02
 -1      8595 1.09826E-04 4.33756E-02 1.21906E-02
 -1      8596 6.98961E-05 4.55684E-02 1.02164E-02
 -1      8597 1.99790E-05 5.00300E-02 1.23454E-02
 -1      8598 1.49842E-05 5.00300E-02 1.23583E-02
 -1      8599 4.99231E-05 4.78066E-02 1.23176E-02
 -1      8600 1.99789E-05 5.00250E-02 1.02879E-02
 -1      8601-3.99109E-05 5.44728E-02 1.23296E-02
 -1      8602-2.99386E-05 5.44641E-02 1.23425E-02
 -1      8603-9.96454E-06 5.22534E-02 1.23494E-02
 -1      8604-2.99364E-05 5.44815E-02 1.02800E-02
 -1      8605-9.98256E-05 5.88840E-02 1.22186E-02
 -1      8606-7.48820E-05 5.88665E-02 1.22314E-02
 -1      8607-6.98633E-05 5.66843E-02 1.22860E-02
 -1      8608-7.98753E-05 5.89064E-02 1.01928E-02
 -1      8609-1.59795E-04 6.32316E-02 1.20124E-02
 -1      8610-1.19871E-04 6.32055E-02 1.20252E-02
 -1      8611-1.29801E-04 6.10677E-02 1.21274E-02
 -1      8612-1.29867E-04 6.32677E-02 1.00262E-02
 -1      8613-2.19855E-04 6.74841E-02 1.17109E-02
 -1      8614-1.64937E-04 6.74493E-02 1.17236E-02
 -1      8615-1.89811E-04 6.53717E-02 1.18735E-02
 -1      8616-1.79949E-04 6.75339E-02 9.78033E-03
 -1      8617-2.80040E-04 7.16096E-02 1.13142E-02
 -1      8618-2.10109E-04 7.15662E-02 1.13267E-02
 -1      8619-2.49930E-04 6.95647E-02 1.15245E-02
 -1      8620-2.30160E-04 7.16731E-02 9.45507E-03
 -1      8621-3.40359E-04 7.55765E-02 1.08222E-02
 -1      8622-2.55397E-04 7.55247E-02 1.08343E-02
 -1      8623-3.10184E-04 7.36149E-02 1.10802E-02
 -1      8624-2.80523E-04 7.56537E-02 9.05043E-03
 -1      8625-4.00723E-04 7.93530E-02 1.02349E-02
 -1      8626-3.00734E-04 7.92929E-02 1.02463E-02
 -1      8627-3.70548E-04 7.74906E-02 1.05405E-02
 -1      8628-3.30993E-04 7.94439E-02 8.56636E-03
 -1      8629-4.60781E-04 8.29073E-02 9.55215E-03
 -1      8630-3.45838E-04 8.28394E-02 9.56216E-03
 -1      8631-4.30831E-04 8.11599E-02 9.90550E-03
 -1      8632-3.81317E-04 8.30120E-02 8.00278E-03
 -1      8633-5.19562E-04 8.62076E-02 8.77376E-03
 -1      8634-3.89917E-04 8.61327E-02 8.78152E-03
 -1      8635-4.90438E-04 8.45912E-02 9.17495E-03
 -1      8636-4.30742E-04 8.63262E-02 7.35950E-03
 -1      8637-5.74719E-04 8.92221E-02 7.89950E-03
 -1      8638-4.31060E-04 8.91416E-02 7.90371E-03
 -1      8639-5.47838E-04 8.77525E-02 8.34867E-03
 -1      8640-4.77393E-04 8.93550E-02 6.63616E-03
 -1      8641-6.21148E-04 9.19191E-02 6.92908E-03
 -1      8642-4.65027E-04 9.18353E-02 6.92812E-03
 -1      8643-5.99554E-04 9.06122E-02 7.42640E-03
 -1      8644-5.17097E-04 9.20671E-02 5.83206E-03
 -1      8645-6.48036E-04 9.42688E-02 5.86166E-03
 -1      8646-4.83154E-04 9.41855E-02 5.85441E-03
 -1      8647-6.38074E-04 9.31390E-02 6.40765E-03
 -1      8648-5.40896E-04 9.44329E-02 4.94603E-03
 -1      8649-6.35353E-04 9.62453E-02 4.69890E-03
 -1      8650-4.69018E-04 9.61686E-02 4.68531E-03
 -1      8651-6.48635E-04 9.53044E-02 5.29244E-03
 -1      8652-5.31796E-04 9.64278E-02 3.97730E-03
 -1      8653-5.44708E-04 9.78485E-02 3.43450E-03
 -1      8654-3.95729E-04 9.77879E-02 3.42159E-03
 -1      8655-6.02329E-04 9.70921E-02 4.07881E-03
 -1      8656-4.56969E-04 9.80406E-02 2.93460E-03
 -1      8657-3.31773E-04 9.90893E-02 2.14668E-03
 -1      8658-2.37767E-04 9.90571E-02 2.14299E-03
 -1      8659-4.58139E-04 9.85124E-02 2.78594E-03
 -1      8660-2.77111E-04 9.92679E-02 1.87631E-03
 -1      8661 0.00000E+00 1.00000E-01 1.00000E-03
 -1      8662 0.00000E+00 1.00000E-01 1.00000E-03
 -1      8663-1.75571E-04 9.96378E-02 1.51086E-03
 -1      8664 0.00000E+00 1.00000E-01 1.00000E-03
 -1      8665 0.00000E+00 0.00000E+00 0.00000E+00
 -1      8666 6.30953E-04 8.24155E-04 1.26235E-03
 -1      8667 0.00000E+00 0.00000E+00 0.00000E+00
 -1      8668 4.70821E-04 8.93353E-04 1.21277E-03
 -1      8669 0.00000E+00 0.00000E+00 0.00000E+00
 -1      8670 3.25751E-04 3.26978E-04 5.42216E-04
 -1      8671 5.34071E-04 6.47592E-04 9.85607E-04
 -1      8672 9.33263E-04 2.00335E-03 2.61557E-03
 -1      8673 7.47570E-04 2.11573E-03 2.57517E-03
 -1      8674 8.13536E-04 1.36674E-03 1.94096E-03
 -1      8675 7.91010E-04 1.81464E-03 2.10869E-03
 -1      8676 1.04171E-03 3.57290E-03 3.92181E-03
 -1      8677 8.54115E-04 3.70738E-03 3.89484E-03
 -1      8678 1.00631E-03 2.73941E-03 3.28505E-03
 -1      8679 8.80322E-04 3.39049E-03 3.19517E-03
 -1      8680 1.04287E-03 5.53983E-03 5.11666E-03
 -1      8681 8.65058E-04 5.68013E-03 5.10992E-03
 -1      8682 1.05116E-03 4.50665E-03 4.53088E-03
 -1      8683 8.79154E-04 5.37216E-03 4.19819E-03
 -1      8684 9.94595E-04 7.89380E-03 6.22300E-03
 -1      8685 8.28419E-04 8.03160E-03 6.22998E-03
 -1      8686 1.02304E-03 6.67031E-03 5.68106E-03
 -1      8687 8.37168E-04 7.73960E-03 5.12519E-03
 -1      8688 9.22020E-04 1.06037E-02 7.24036E-03
 -1      8689 7.69147E-04 1.07339E-02 7.25627E-03
 -1      8690 9.60327E-04 9.20630E-03 6.74284E-03
 -1      8691 7.75466E-04 1.04629E-02 5.97765E-03
 -1      8692 8.38482E-04 1.36361E-02 8.16783E-03
 -1      8693 6.99661E-04 1.37560E-02 8.18909E-03
 -1      8694 8.81141E-04 1.20817E-02 7.71546E-03
 -1      8695 7.05043E-04 1.35087E-02 6.75513E-03
 -1      8696 7.50287E-04 1.69575E-02 9.00371E-03
 -1      8697 6.25981E-04 1.70654E-02 9.02804E-03
 -1      8698 7.94737E-04 1.52628E-02 8.59732E-03
 -1      8699 6.31027E-04 1.68434E-02 7.45645E-03
 -1      8700 6.60392E-04 2.05346E-02 9.74666E-03
 -1      8701 5.50835E-04 2.06297E-02 9.77267E-03
 -1      8702 7.05452E-04 1.87161E-02 9.38688E-03
 -1      8703 5.55788E-04 2.04340E-02 8.08052E-03
 -1      8704 5.70051E-04 2.43349E-02 1.03957E-02
 -1      8705 4.75361E-04 2.44168E-02 1.04226E-02
 -1      8706 6.15238E-04 2.24089E-02 1.00830E-02
 -1      8707 4.80304E-04 2.42479E-02 8.62651E-03
 -1      8708 4.79732E-04 2.83262E-02 1.09504E-02
 -1      8709 3.99963E-04 2.83945E-02 1.09777E-02
 -1      8710 5.24877E-04 2.63087E-02 1.06849E-02
 -1      8711 4.04919E-04 2.82527E-02 9.09389E-03
 -1      8712 3.89562E-04 3.24764E-02 1.14102E-02
 -1      8713 3.24738E-04 3.25311E-02 1.14377E-02
 -1      8714 4.34627E-04 3.03834E-02 1.11922E-02
 -1      8715 3.29709E-04 3.24166E-02 9.48232E-03
 -1      8716 2.99540E-04 3.67536E-02 1.17750E-02
 -1      8717 2.49671E-04 3.67947E-02 1.18027E-02
 -1      8718 3.44535E-04 3.46011E-02 1.16045E-02
 -1      8719 2.54652E-04 3.67075E-02 9.79162E-03
 -1      8720 2.09627E-04 4.11262E-02 1.20448E-02
 -1      8721 1.74715E-04 4.11536E-02 1.20724E-02
 -1      8722 2.54573E-04 3.89300E-02 1.19218E-02
 -1      8723 1.79704E-04 4.10938E-02 1.00217E-02
 -1      8724 1.19782E-04 4.55622E-02 1.22193E-02
 -1      8725 9.98286E-05 4.55759E-02 1.22470E-02
 -1      8726 1.64699E-04 4.33382E-02 1.21440E-02
 -1      8727 1.04821E-04 4.55435E-02 1.01725E-02
 -1      8728 2.99692E-05 5.00300E-02 1.22987E-02
 -1      8729 2.49740E-05 5.00300E-02 1.23264E-02
 -1      8730 7.48736E-05 4.77941E-02 1.22709E-02
 -1      8731 2.99688E-05 5.00250E-02 1.02439E-02
 -1      8732-5.98416E-05 5.44977E-02 1.22829E-02
 -1      8733-4.98784E-05 5.44840E-02 1.23106E-02
 -1      8734-1.49347E-05 5.22658E-02 1.23027E-02
 -1      8735-4.48811E-05 5.45065E-02 1.02360E-02
 -1      8736-1.49679E-04 5.89338E-02 1.21719E-02
 -1      8737-1.24757E-04 5.89064E-02 1.21996E-02
 -1      8738-1.04755E-04 5.67217E-02 1.22393E-02
 -1      8739-1.19757E-04 5.89562E-02 1.01489E-02
 -1      8740-2.39575E-04 6.33063E-02 1.19658E-02
 -1      8741-1.99696E-04 6.32652E-02 1.19934E-02
 -1      8742-1.94617E-04 6.11300E-02 1.20808E-02
 -1      8743-1.94688E-04 6.33424E-02 9.98239E-03
 -1      8744-3.29564E-04 6.75836E-02 1.16646E-02
 -1      8745-2.74730E-04 6.75289E-02 1.16921E-02
 -1      8746-2.84555E-04 6.54589E-02 1.18271E-02
 -1      8747-2.69713E-04 6.76334E-02 9.73668E-03
 -1      8748-4.19676E-04 7.17339E-02 1.12683E-02
 -1      8749-3.49896E-04 7.16655E-02 1.12956E-02
 -1      8750-3.74603E-04 6.96766E-02 1.14783E-02
 -1      8751-3.44865E-04 7.17973E-02 9.41182E-03
 -1      8752-5.09900E-04 7.57252E-02 1.07772E-02
 -1      8753-4.25196E-04 7.56434E-02 1.08041E-02
 -1      8754-4.64778E-04 7.37514E-02 1.10346E-02
 -1      8755-4.20153E-04 7.58023E-02 9.00798E-03
 -1      8756-6.00097E-04 7.95257E-02 1.01915E-02
 -1      8757-5.00521E-04 7.94306E-02 1.02176E-02
 -1      8758-5.55021E-04 7.76513E-02 1.04962E-02
 -1      8759-4.95488E-04 7.96163E-02 8.52548E-03
 -1      8760-6.89799E-04 8.31030E-02 9.51190E-03
 -1      8761-5.75463E-04 8.29951E-02 9.53639E-03
 -1      8762-6.45065E-04 8.13443E-02 9.86344E-03
 -1      8763-5.70522E-04 8.32071E-02 7.96480E-03
 -1      8764-7.77788E-04 8.64246E-02 8.73909E-03
 -1      8765-6.48914E-04 8.63047E-02 8.76069E-03
 -1      8766-7.34141E-04 8.47978E-02 9.13708E-03
 -1      8767-6.44306E-04 8.65420E-02 7.32672E-03
 -1      8768-8.61222E-04 8.94571E-02 7.87433E-03
 -1      8769-7.18259E-04 8.93270E-02 7.89088E-03
 -1      8770-8.20368E-04 8.79791E-02 8.31812E-03
 -1      8771-7.14577E-04 8.95880E-02 6.61226E-03
 -1      8772-9.34084E-04 9.21667E-02 6.91919E-03
 -1      8773-7.77760E-04 9.20291E-02 6.92732E-03
 -1      8774-8.99592E-04 9.08544E-02 7.40798E-03
 -1      8775-7.76481E-04 9.23111E-02 5.82252E-03
 -1      8776-9.83667E-04 9.45194E-02 5.87458E-03
 -1      8777-8.15609E-04 9.43794E-02 5.86970E-03
 -1      8778-9.62995E-04 9.33897E-02 6.40817E-03
 -1      8779-8.19649E-04 9.46773E-02 4.95796E-03
 -1      8780-9.86033E-04 9.64828E-02 4.74114E-03
 -1      8781-8.08080E-04 9.63488E-02 4.71698E-03
 -1      8782-9.93323E-04 9.55512E-02 5.31949E-03
 -1      8783-8.24178E-04 9.66555E-02 4.01731E-03
 -1      8784-8.85980E-04 9.80439E-02 3.49749E-03
 -1      8785-7.09388E-04 9.79321E-02 3.46030E-03
 -1      8786-9.53978E-04 9.73129E-02 4.13536E-03
 -1      8787-7.43156E-04 9.82235E-02 2.99383E-03
 -1      8788-6.00647E-04 9.92061E-02 2.20606E-03
 -1      8789-4.48104E-04 9.91374E-02 2.15959E-03
 -1      8790-7.73406E-04 9.86734E-02 2.85398E-03
 -1      8791-5.03340E-04 9.93751E-02 1.93243E-03
 -1      8792 0.00000E+00 1.00000E-01 1.00000E-03
 -1      8793 0.00000E+00 1.00000E-01 1.00000E-03
 -1      8794-3.10490E-04 9.96883E-02 1.51803E-03
 -1      8795 0.00000E+00 1.00000E-01 1.00000E-03
 -1      8796 0.00000E+00 0.00000E+00 0.00000E+00
 -1      8797 1.03293E-03 6.04357E-04 1.53825E-03
 -1      8798 0.00000E+00 0.00000E+00 0.00000E+00
 -1      8799 7.98203E-04 7.36474E-04 1.32842E-03
 -1      8800 0.00000E+00 0.00000E+00 0.00000E+00
 -1      8801 6.78469E-04 1.93254E-04 7.71892E-04
 -1      8802 8.70040E-04 4.32975E-04 1.22294E-03
 -1      8803 1.32744E-03 1.67516E-03 2.77319E-03
 -1      8804 1.14004E-03 1.85582E-03 2.69098E-03
 -1      8805 1.22961E-03 1.08119E-03 2.17322E-03
 -1      8806 1.12406E-03 1.49388E-03 2.24522E-03
 -1      8807 1.41531E-03 3.20192E-03 3.96689E-03
 -1      8808 1.22945E-03 3.40538E-03 3.94929E-03
 -1      8809 1.38880E-03 2.38311E-03 3.37837E-03
 -1      8810 1.19246E-03 3.02534E-03 3.23491E-03
 -1      8811 1.39375E-03 5.16347E-03 5.10152E-03
 -1      8812 1.22028E-03 5.36786E-03 5.11658E-03
 -1      8813 1.41297E-03 4.12974E-03 4.54224E-03
 -1      8814 1.17225E-03 4.99922E-03 4.18550E-03
 -1      8815 1.32270E-03 7.53107E-03 6.17181E-03
 -1      8816 1.15960E-03 7.72720E-03 6.20553E-03
 -1      8817 1.36277E-03 6.29901E-03 5.64521E-03
 -1      8818 1.11126E-03 7.37877E-03 5.08108E-03
 -1      8819 1.22477E-03 1.02650E-02 7.16959E-03
 -1      8820 1.07401E-03 1.04475E-02 7.21291E-03
 -1      8821 1.27592E-03 8.85465E-03 6.68035E-03
 -1      8822 1.02877E-03 1.01252E-02 5.91643E-03
 -1      8823 1.11418E-03 1.33269E-02 8.08662E-03
 -1      8824 9.76669E-04 1.34932E-02 8.13483E-03
 -1      8825 1.17050E-03 1.17572E-02 7.63859E-03
 -1      8826 9.36048E-04 1.31999E-02 6.68475E-03
 -1      8827 9.97723E-04 1.66805E-02 8.91720E-03
 -1      8828 8.74191E-04 1.68292E-02 8.96775E-03
 -1      8829 1.05639E-03 1.49694E-02 8.51298E-03
 -1      8830 8.38657E-04 1.65666E-02 7.38141E-03
 -1      8831 8.78831E-04 2.02913E-02 9.65759E-03
 -1      8832 7.69708E-04 2.04218E-02 9.70918E-03
 -1      8833 9.38440E-04 1.84558E-02 9.29884E-03
 -1      8834 7.39361E-04 2.01907E-02 8.00322E-03
 -1      8835 7.59062E-04 2.41259E-02 1.03055E-02
 -1      8836 6.64605E-04 2.42380E-02 1.03575E-02
 -1      8837 8.18991E-04 2.21827E-02 9.99321E-03
 -1      8838 6.39415E-04 2.40389E-02 8.54819E-03
 -1      8839 6.39077E-04 2.81518E-02 1.08597E-02
 -1      8840 5.59427E-04 2.82453E-02 1.09118E-02
 -1      8841 6.99070E-04 2.61170E-02 1.05944E-02
 -1      8842 5.39341E-04 2.80784E-02 9.01514E-03
 -1      8843 5.19114E-04 3.23368E-02 1.13193E-02
 -1      8844 4.54348E-04 3.24116E-02 1.13715E-02
 -1      8845 5.79083E-04 3.02264E-02 1.11013E-02
 -1      8846 4.39320E-04 3.22770E-02 9.40342E-03
 -1      8847 3.99234E-04 3.66489E-02 1.16841E-02
 -1      8848 3.49391E-04 3.67050E-02 1.17363E-02
 -1      8849 4.59162E-04 3.44790E-02 1.15136E-02
 -1      8850 3.39390E-04 3.66028E-02 9.71268E-03
 -1      8851 2.79432E-04 4.10564E-02 1.19538E-02
 -1      8852 2.44531E-04 4.10938E-02 1.20060E-02
 -1      8853 3.39324E-04 3.88427E-02 1.18309E-02
 -1      8854 2.39537E-04 4.10240E-02 9.94274E-03
 -1      8855 1.59683E-04 4.55273E-02 1.21284E-02
 -1      8856 1.39733E-04 4.55460E-02 1.21806E-02
 -1      8857 2.19552E-04 4.32859E-02 1.20530E-02
 -1      8858 1.39736E-04 4.55086E-02 1.00935E-02
 -1      8859 3.99603E-05 5.00300E-02 1.22078E-02
 -1      8860 3.49646E-05 5.00300E-02 1.22600E-02
 -1      8861 9.98196E-05 4.77766E-02 1.21800E-02
 -1      8862 3.99597E-05 5.00250E-02 1.01650E-02
 -1      8863-7.97600E-05 5.45326E-02 1.21920E-02
 -1      8864-6.98014E-05 5.45139E-02 1.22442E-02
 -1      8865-1.98986E-05 5.22833E-02 1.22118E-02
 -1      8866-5.98141E-05 5.45414E-02 1.01571E-02
 -1      8867-1.99502E-04 5.90036E-02 1.20810E-02
 -1      8868-1.74592E-04 5.89662E-02 1.21332E-02
 -1      8869-1.39626E-04 5.67741E-02 1.21484E-02
 -1      8870-1.59608E-04 5.90260E-02 1.00699E-02
 -1      8871-3.19288E-04 6.34110E-02 1.18749E-02
 -1      8872-2.79436E-04 6.33549E-02 1.19271E-02
 -1      8873-2.59387E-04 6.12172E-02 1.19899E-02
 -1      8874-2.59446E-04 6.34471E-02 9.90347E-03
 -1      8875-4.39140E-04 6.77232E-02 1.15737E-02
 -1      8876-3.84362E-04 6.76484E-02 1.16259E-02
 -1      8877-3.79204E-04 6.55810E-02 1.17362E-02
 -1      8878-3.59348E-04 6.77730E-02 9.65781E-03
 -1      8879-5.59055E-04 7.19082E-02 1.11776E-02
 -1      8880-4.89387E-04 7.18148E-02 1.12298E-02
 -1      8881-4.99088E-04 6.98336E-02 1.13875E-02
 -1      8882-4.59321E-04 7.19717E-02 9.33310E-03
 -1      8883-6.78966E-04 7.59342E-02 1.06870E-02
 -1      8884-5.94479E-04 7.58222E-02 1.07390E-02
 -1      8885-6.19015E-04 7.39431E-02 1.09441E-02
 -1      8886-5.59318E-04 7.60113E-02 8.92969E-03
 -1      8887-7.98632E-04 7.97690E-02 1.01025E-02
 -1      8888-6.99455E-04 7.96385E-02 1.01540E-02
 -1      8889-7.38848E-04 7.78776E-02 1.04064E-02
 -1      8890-6.59153E-04 7.98596E-02 8.44819E-03
 -1      8891-9.17407E-04 8.33800E-02 9.42529E-03
 -1      8892-8.03777E-04 8.32313E-02 9.47584E-03
 -1      8893-8.58183E-04 8.16046E-02 9.77536E-03
 -1      8894-7.58311E-04 8.34840E-02 7.88969E-03
 -1      8895-1.03378E-03 8.67338E-02 8.65755E-03
 -1      8896-9.06100E-04 8.65675E-02 8.70584E-03
 -1      8897-9.76021E-04 8.50912E-02 9.05255E-03
 -1      8898-8.55577E-04 8.68509E-02 7.25606E-03
 -1      8899-1.14446E-03 8.97959E-02 7.80276E-03
 -1      8900-1.00342E-03 8.96133E-02 7.84636E-03
 -1      8901-1.09011E-03 8.83036E-02 8.24073E-03
 -1      8902-9.48303E-04 8.99258E-02 6.55031E-03
 -1      8903-1.24293E-03 9.25295E-02 6.86630E-03
 -1      8904-1.08940E-03 9.23333E-02 6.90071E-03
 -1      8905-1.19579E-03 9.12061E-02 7.34431E-03
 -1      8906-1.03120E-03 9.26721E-02 5.77681E-03
 -1      8907-1.31560E-03 9.48958E-02 5.85610E-03
 -1      8908-1.15148E-03 9.46912E-02 5.87266E-03
 -1      8909-1.28362E-03 9.37611E-02 6.36992E-03
 -1      8910-1.09359E-03 9.50505E-02 4.94204E-03
 -1      8911-1.34079E-03 9.68539E-02 4.78025E-03
 -1      8912-1.16428E-03 9.66501E-02 4.76554E-03
 -1      8913-1.33629E-03 9.59282E-02 5.32633E-03
 -1      8914-1.11717E-03 9.70211E-02 4.05117E-03
 -1      8915-1.26117E-03 9.83723E-02 3.64445E-03
 -1      8916-1.08281E-03 9.81911E-02 3.56785E-03
 -1      8917-1.31766E-03 9.76694E-02 4.22065E-03
 -1      8918-1.05668E-03 9.85447E-02 3.11966E-03
 -1      8919-9.83533E-04 9.94261E-02 2.46702E-03
 -1      8920-7.60009E-04 9.92936E-02 2.26809E-03
 -1      8921-1.16963E-03 9.89590E-02 3.07260E-03
 -1      8922-8.20093E-04 9.95901E-02 2.15471E-03
 -1      8923 0.00000E+00 1.00000E-01 1.00000E-03
 -1      8924 0.00000E+00 1.00000E-01 1.00000E-03
 -1      8925-6.46487E-04 9.98220E-02 1.73612E-03
 -1      8926 0.00000E+00 1.00000E-01 1.00000E-03
 -1      8927 0.00000E+00 0.00000E+00 0.00000E+00
 -1      8928-1.31999E-03 1.06581E-03 2.32031E-03
 -1      8929 0.00000E+00 0.00000E+00 0.00000E+00
 -1      8930-8.23094E-04 1.35905E-03 2.04839E-03
 -1      8931 0.00000E+00 0.00000E+00 0.00000E+00
 -1      8932-9.04348E-04 6.75991E-04 1.23585E-03
 -1      8933-1.17125E-03 7.84331E-04 1.88376E-03
 -1      8934 0.00000E+00 0.00000E+00 0.00000E+00
 -1      8935-1.02920E-03 1.22909E-03 2.08801E-03
 -1      8936 0.00000E+00 0.00000E+00 0.00000E+00
 -1      8937-4.31595E-04 8.02461E-04 1.00258E-03
 -1      8938-7.24894E-04 1.03007E-03 1.57152E-03
 -1      8939-1.74463E-03 2.12828E-03 3.99965E-03
 -1      8940-1.21761E-03 2.50424E-03 3.83166E-03
 -1      8941-1.59845E-03 1.55381E-03 3.19864E-03
 -1      8942-1.53194E-03 1.89557E-03 3.36534E-03
 -1      8943-1.49092E-03 2.33687E-03 3.90109E-03
 -1      8944-1.05822E-03 1.90415E-03 2.96076E-03
 -1      8945-1.07337E-03 2.24492E-03 3.19623E-03
 -1      8946-1.86663E-03 3.63585E-03 5.58056E-03
 -1      8947-1.36330E-03 4.03403E-03 5.53422E-03
 -1      8948-1.83173E-03 2.82806E-03 4.79662E-03
 -1      8949-1.63784E-03 3.40299E-03 4.74801E-03
 -1      8950-1.61492E-03 3.85189E-03 5.56129E-03
 -1      8951-1.31487E-03 3.21837E-03 4.69795E-03
 -1      8952-1.20177E-03 3.78575E-03 4.70020E-03
 -1      8953-1.84091E-03 5.57169E-03 7.10647E-03
 -1      8954-1.36839E-03 5.96289E-03 7.12219E-03
 -1      8955-1.86516E-03 4.55036E-03 6.35485E-03
 -1      8956-1.61585E-03 5.35394E-03 6.07149E-03
 -1      8957-1.60631E-03 5.78330E-03 7.12365E-03
 -1      8958-1.37762E-03 4.94769E-03 6.34315E-03
 -1      8959-1.20553E-03 5.73690E-03 6.08918E-03
 -1      8960-1.74696E-03 7.91268E-03 8.53934E-03
 -1      8961-1.30742E-03 8.28336E-03 8.59312E-03
 -1      8962-1.80013E-03 6.69434E-03 7.83472E-03
 -1      8963-1.53411E-03 7.70854E-03 7.31958E-03
 -1      8964-1.52796E-03 8.11235E-03 8.57810E-03
 -1      8965-1.34374E-03 7.07655E-03 7.87229E-03
 -1      8966-1.15116E-03 8.07477E-03 7.37620E-03
 -1      8967-1.61719E-03 1.06168E-02 9.87107E-03
 -1      8968-1.21347E-03 1.09595E-02 9.94533E-03
 -1      8969-1.68502E-03 9.22162E-03 9.21864E-03
 -1      8970-1.42067E-03 1.04286E-02 8.48220E-03
 -1      8971-1.41587E-03 1.08010E-02 9.92069E-03
 -1      8972-1.26324E-03 9.57899E-03 9.28424E-03
 -1      8973-1.06793E-03 1.07691E-02 8.55993E-03
 -1      8974-1.47037E-03 1.36471E-02 1.10905E-02
 -1      8975-1.10416E-03 1.39582E-02 1.11757E-02
 -1      8976-1.54518E-03 1.20934E-02 1.04952E-02
 -1      8977-1.29216E-03 1.34758E-02 9.54935E-03
 -1      8978-1.28757E-03 1.38141E-02 1.11457E-02
 -1      8979-1.16009E-03 1.24207E-02 1.05758E-02
 -1      8980-9.71469E-04 1.37859E-02 9.63829E-03
 -1      8981-1.31565E-03 1.69676E-02 1.21916E-02
 -1      8982-9.88007E-04 1.72455E-02 1.22823E-02
 -1      8983-1.39362E-03 1.52732E-02 1.16560E-02
 -1      8984-1.15666E-03 1.68141E-02 1.05146E-02
 -1      8985-1.15200E-03 1.71166E-02 1.22494E-02
 -1      8986-1.04663E-03 1.55679E-02 1.17445E-02
 -1      8987-8.69251E-04 1.70915E-02 1.06092E-02
 -1      8988-1.15757E-03 2.05445E-02 1.31705E-02
 -1      8989-8.69099E-04 2.07882E-02 1.32638E-02
 -1      8990-1.23685E-03 1.87261E-02 1.26964E-02
 -1      8991-1.01820E-03 2.04092E-02 1.13740E-02
 -1      8992-1.01343E-03 2.06752E-02 1.32295E-02
 -1      8993-9.28757E-04 1.89869E-02 1.27887E-02
 -1      8994-7.64813E-04 2.06527E-02 1.14713E-02
 -1      8995-9.98205E-04 2.43448E-02 1.40250E-02
 -1      8996-7.49246E-04 2.45539E-02 1.41195E-02
 -1      8997-1.07797E-03 2.24188E-02 1.36133E-02
 -1      8998-8.78642E-04 2.42279E-02 1.21251E-02
 -1      8999-8.73772E-04 2.44569E-02 1.40844E-02
 -1      9000-8.09231E-04 2.26452E-02 1.37074E-02
 -1      9001-6.59689E-04 2.44369E-02 1.22236E-02
 -1      9002-8.38445E-04 2.83361E-02 1.47538E-02
 -1      9003-6.29185E-04 2.85105E-02 1.48488E-02
 -1      9004-9.18341E-04 2.63186E-02 1.44051E-02
 -1      9005-7.38770E-04 2.82377E-02 1.27665E-02
 -1      9006-7.33838E-04 2.84295E-02 1.48134E-02
 -1      9007-6.89220E-04 2.65103E-02 1.44999E-02
 -1      9008-5.54482E-04 2.84121E-02 1.28656E-02
 -1      9009-6.78637E-04 3.24863E-02 1.53563E-02
 -1      9010-5.09173E-04 3.26259E-02 1.54515E-02
 -1      9011-7.58535E-04 3.03933E-02 1.50708E-02
 -1      9012-5.98883E-04 3.24066E-02 1.32976E-02
 -1      9013-5.93915E-04 3.25611E-02 1.54160E-02
 -1      9014-5.69167E-04 3.05503E-02 1.51660E-02
 -1      9015-4.49380E-04 3.25461E-02 1.33968E-02
 -1      9016-5.18885E-04 3.67636E-02 1.58322E-02
 -1      9017-3.89265E-04 3.68683E-02 1.59275E-02
 -1      9018-5.98751E-04 3.46111E-02 1.56101E-02
 -1      9019-4.59064E-04 3.67025E-02 1.37179E-02
 -1      9020-4.54079E-04 3.68197E-02 1.58919E-02
 -1      9021-4.49206E-04 3.47332E-02 1.57053E-02
 -1      9022-3.44409E-04 3.68072E-02 1.38172E-02
 -1      9023-3.59201E-04 4.11361E-02 1.61813E-02
 -1      9024-2.69449E-04 4.12059E-02 1.62766E-02
 -1      9025-4.39035E-04 3.89399E-02 1.60226E-02
 -1      9026-3.19319E-04 4.10938E-02 1.40273E-02
 -1      9027-3.14327E-04 4.11735E-02 1.62409E-02
 -1      9028-3.29348E-04 3.90272E-02 1.61178E-02
 -1      9029-2.39542E-04 4.11636E-02 1.41266E-02
 -1      9030-1.99568E-04 4.55722E-02 1.64035E-02
 -1      9031-1.49694E-04 4.56071E-02 1.64987E-02
 -1      9032-2.79380E-04 4.33482E-02 1.63082E-02
 -1      9033-1.79627E-04 4.55485E-02 1.42257E-02
 -1      9034-1.74631E-04 4.55909E-02 1.64631E-02
 -1      9035-2.09566E-04 4.34006E-02 1.64034E-02
 -1      9036-1.34740E-04 4.55834E-02 1.43250E-02
 -1      9037-3.99607E-05 5.00400E-02 1.64988E-02
 -1      9038-2.99690E-05 5.00400E-02 1.65940E-02
 -1      9039-1.19763E-04 4.78041E-02 1.64669E-02
 -1      9040-3.99606E-05 5.00350E-02 1.43130E-02
 -1      9041-3.49647E-05 5.00400E-02 1.65584E-02
 -1      9042-8.98296E-05 4.78215E-02 1.65622E-02
 -1      9043-2.99693E-05 5.00350E-02 1.44123E-02
 -1      9044 1.19644E-04 5.45077E-02 1.64671E-02
 -1      9045 8.97538E-05 5.44728E-02 1.65623E-02
 -1      9046 3.98405E-05 5.22758E-02 1.64987E-02
 -1      9047 9.97030E-05 5.45214E-02 1.42893E-02
 -1      9048 1.04700E-04 5.44891E-02 1.65267E-02
 -1      9049 2.98910E-05 5.22584E-02 1.65940E-02
 -1      9050 7.47987E-05 5.44865E-02 1.43886E-02
 -1      9051 2.79270E-04 5.89438E-02 1.63085E-02
 -1      9052 2.09501E-04 5.88740E-02 1.64037E-02
 -1      9053 1.99453E-04 5.67317E-02 1.64036E-02
 -1      9054 2.39388E-04 5.89762E-02 1.41545E-02
 -1      9055 2.44387E-04 5.89064E-02 1.63682E-02
 -1      9056 1.49623E-04 5.66794E-02 1.64988E-02
 -1      9057 1.79593E-04 5.89064E-02 1.42538E-02
 -1      9058 4.38937E-04 6.33164E-02 1.60230E-02
 -1      9059 3.29300E-04 6.32117E-02 1.61183E-02
 -1      9060 3.59096E-04 6.11400E-02 1.61816E-02
 -1      9061 3.79117E-04 6.33674E-02 1.39087E-02
 -1      9062 3.84123E-04 6.32603E-02 1.60827E-02
 -1      9063 2.69392E-04 6.10528E-02 1.62768E-02
 -1      9064 2.84443E-04 6.32627E-02 1.40080E-02
 -1      9065 5.98660E-04 6.75937E-02 1.56107E-02
 -1      9066 4.49174E-04 6.74541E-02 1.57059E-02
 -1      9067 5.18791E-04 6.54689E-02 1.58327E-02
 -1      9068 5.18906E-04 6.76634E-02 1.35520E-02
 -1      9069 5.23927E-04 6.75189E-02 1.56704E-02
 -1      9070 3.89227E-04 6.53468E-02 1.59279E-02
 -1      9071 3.89381E-04 6.75239E-02 1.36512E-02
 -1      9072 7.58420E-04 7.17439E-02 1.50718E-02
 -1      9073 5.69128E-04 7.15696E-02 1.51668E-02
 -1      9074 6.78537E-04 6.96867E-02 1.53570E-02
 -1      9075 6.58746E-04 7.18323E-02 1.30845E-02
 -1      9076 6.63795E-04 7.16505E-02 1.51314E-02
 -1      9077 5.09143E-04 6.95297E-02 1.54521E-02
 -1      9078 4.94424E-04 7.16580E-02 1.31835E-02
 -1      9079 9.18106E-04 7.57353E-02 1.44065E-02
 -1      9080 6.89090E-04 7.55262E-02 1.45010E-02
 -1      9081 8.38282E-04 7.37615E-02 1.47548E-02
 -1      9082 7.98545E-04 7.58422E-02 1.25066E-02
 -1      9083 8.03643E-04 7.56232E-02 1.44659E-02
 -1      9084 6.29119E-04 7.35697E-02 1.48496E-02
 -1      9085 5.99535E-04 7.56332E-02 1.26051E-02
 -1      9086 1.07738E-03 7.95357E-02 1.36153E-02
 -1      9087 8.08795E-04 7.92920E-02 1.37087E-02
 -1      9088 9.97825E-04 7.76614E-02 1.40265E-02
 -1      9089 9.38006E-04 7.96611E-02 1.18189E-02
 -1      9090 9.43173E-04 7.94050E-02 1.36743E-02
 -1      9091 7.49008E-04 7.74349E-02 1.41206E-02
 -1      9092 7.04515E-04 7.94176E-02 1.19162E-02
 -1      9093 1.23536E-03 8.31127E-02 1.26996E-02
 -1      9094 9.27503E-04 8.28348E-02 1.27904E-02
 -1      9095 1.15661E-03 8.13541E-02 1.31729E-02
 -1      9096 1.07636E-03 8.32563E-02 1.10226E-02
 -1      9097 1.08159E-03 8.29637E-02 1.27574E-02
 -1      9098 8.68358E-04 8.10933E-02 1.32652E-02
 -1      9099 8.08763E-04 8.29789E-02 1.11173E-02
 -1      9100 1.39002E-03 8.64333E-02 1.16611E-02
 -1      9101 1.04343E-03 8.61222E-02 1.17466E-02
 -1      9102 1.31329E-03 8.48072E-02 1.21954E-02
 -1      9103 1.21180E-03 8.65947E-02 1.01200E-02
 -1      9104 1.21701E-03 8.62663E-02 1.17163E-02
 -1      9105 9.86008E-04 8.45125E-02 1.22841E-02
 -1      9106 9.10780E-04 8.62846E-02 1.02093E-02
 -1      9107 1.53699E-03 8.94634E-02 1.05033E-02
 -1      9108 1.15262E-03 8.91208E-02 1.05785E-02
 -1      9109 1.46487E-03 8.79869E-02 1.10967E-02
 -1      9110 1.34045E-03 8.96419E-02 9.11480E-03
 -1      9111 1.34530E-03 8.92792E-02 1.05533E-02
 -1      9112 1.09928E-03 8.76597E-02 1.11779E-02
 -1      9113 1.00715E-03 8.93015E-02 9.19337E-03
 -1      9114 1.66743E-03 9.21668E-02 9.23199E-03
 -1      9115 1.24683E-03 9.17964E-02 9.28761E-03
 -1      9116 1.60506E-03 9.08583E-02 9.88130E-03
 -1      9117 1.45453E-03 9.23616E-02 8.01299E-03
 -1      9118 1.45783E-03 9.19672E-02 9.27152E-03
 -1      9119 1.20244E-03 9.05011E-02 9.94821E-03
 -1      9120 1.09069E-03 9.19954E-02 8.07139E-03
 -1      9121 1.76320E-03 9.45060E-02 7.85750E-03
 -1      9122 1.30907E-03 9.41153E-02 7.87678E-03
 -1      9123 1.72131E-03 9.33845E-02 8.55683E-03
 -1      9124 1.53803E-03 9.47147E-02 6.82415E-03
 -1      9125 1.53766E-03 9.42945E-02 7.87631E-03
 -1      9126 1.28359E-03 9.30026E-02 8.59699E-03
 -1      9127 1.14643E-03 9.43319E-02 6.84526E-03
 -1      9128 1.79292E-03 9.64379E-02 6.38775E-03
 -1      9129 1.30748E-03 9.60405E-02 6.34757E-03
 -1      9130 1.78908E-03 9.55257E-02 7.13420E-03
 -1      9131 1.56393E-03 9.66619E-02 5.55820E-03
 -1      9132 1.55006E-03 9.62220E-02 6.37148E-03
 -1      9133 1.31965E-03 9.51290E-02 7.12724E-03
 -1      9134 1.14629E-03 9.62794E-02 5.51645E-03
 -1      9135 1.67968E-03 9.79367E-02 4.86000E-03
 -1      9136 1.17018E-03 9.75620E-02 4.70292E-03
 -1      9137 1.76154E-03 9.72421E-02 5.63063E-03
 -1      9138 1.46653E-03 9.81611E-02 4.23160E-03
 -1      9139 1.43422E-03 9.77285E-02 4.76735E-03
 -1      9140 1.26240E-03 9.68528E-02 5.54023E-03
 -1      9141 1.02644E-03 9.78123E-02 4.07311E-03
 -1      9142 1.27278E-03 9.89814E-02 3.23502E-03
 -1      9143 7.92623E-04 9.86903E-02 2.97716E-03
 -1      9144 1.54031E-03 9.85043E-02 4.08463E-03
 -1      9145 1.12328E-03 9.92530E-02 2.80864E-03
 -1      9146 9.91856E-04 9.88189E-02 3.01290E-03
 -1      9147 1.01802E-03 9.81558E-02 3.86013E-03
 -1      9148 6.94813E-04 9.90081E-02 2.51119E-03
 -1      9149 0.00000E+00 1.00000E-01 1.00000E-03
 -1      9150 0.00000E+00 1.00000E-01 1.00000E-03
 -1      9151 8.71869E-04 9.93565E-02 2.18905E-03
 -1      9152 0.00000E+00 1.00000E-01 1.00000E-03
 -1      9153 0.00000E+00 1.00000E-01 1.00000E-03
 -1      9154 4.16325E-04 9.92295E-02 1.96681E-03
 -1      9155 0.00000E+00 1.00000E-01 1.00000E-03
 -1      9156 0.00000E+00 0.00000E+00 0.00000E+00
 -1      9157-4.52362E-04 1.49637E-03 2.02436E-03
 -1      9158 0.00000E+00 0.00000E+00 0.00000E+00
 -1      9159-6.14174E-04 1.43979E-03 2.01709E-03
 -1      9160 0.00000E+00 0.00000E+00 0.00000E+00
 -1      9161-2.44033E-04 8.82344E-04 1.03133E-03
 -1      9162-4.01757E-04 1.15382E-03 1.51101E-03
 -1      9163-7.44349E-04 2.73683E-03 3.78922E-03
 -1      9164-9.72722E-04 2.63803E-03 3.80451E-03
 -1      9165-6.24624E-04 2.10059E-03 2.92604E-03
 -1      9166-6.60123E-04 2.46058E-03 3.13361E-03
 -1      9167-8.73736E-04 4.29666E-03 5.49352E-03
 -1      9168-1.11429E-03 4.18133E-03 5.50971E-03
 -1      9169-8.25832E-04 3.47107E-03 4.65005E-03
 -1      9170-7.73457E-04 4.03608E-03 4.65453E-03
 -1      9171-8.97145E-04 6.22930E-03 7.10377E-03
 -1      9172-1.13177E-03 6.11150E-03 7.11428E-03
 -1      9173-8.94875E-04 5.21421E-03 6.31347E-03
 -1      9174-7.93189E-04 5.99574E-03 6.07205E-03
 -1      9175-8.66128E-04 8.54025E-03 8.59438E-03
 -1      9176-1.08653E-03 8.42576E-03 8.59694E-03
 -1      9177-8.86495E-04 7.33941E-03 7.86428E-03
 -1      9178-7.64643E-04 8.32718E-03 7.38227E-03
 -1      9179-8.07527E-04 1.11998E-02 9.96072E-03
 -1      9180-1.01060E-03 1.10924E-02 9.95717E-03
 -1      9181-8.39157E-04 9.82822E-03 9.29331E-03
 -1      9182-7.12050E-04 1.10069E-02 8.58190E-03
 -1      9183-7.36130E-04 1.41780E-02 1.12001E-02
 -1      9184-9.20300E-04 1.40795E-02 1.11924E-02
 -1      9185-7.72883E-04 1.26511E-02 1.05963E-02
 -1      9186-6.48535E-04 1.40043E-02 9.67027E-03
 -1      9187-6.59095E-04 1.74426E-02 1.23122E-02
 -1      9188-8.23688E-04 1.73541E-02 1.23019E-02
 -1      9189-6.98052E-04 1.57765E-02 1.17720E-02
 -1      9190-5.80392E-04 1.72879E-02 1.06471E-02
 -1      9191-5.79827E-04 2.09616E-02 1.32968E-02
 -1      9192-7.24560E-04 2.08837E-02 1.32850E-02
 -1      9193-6.19621E-04 1.91723E-02 1.28203E-02
 -1      9194-5.10547E-04 2.08257E-02 1.15126E-02
 -1      9195-4.99817E-04 2.47029E-02 1.41541E-02
 -1      9196-6.24593E-04 2.46359E-02 1.41415E-02
 -1      9197-5.39865E-04 2.28064E-02 1.37413E-02
 -1      9198-4.40236E-04 2.45858E-02 1.22667E-02
 -1      9199-4.19666E-04 2.86348E-02 1.48842E-02
 -1      9200-5.24462E-04 2.85789E-02 1.48712E-02
 -1      9201-4.59741E-04 2.66471E-02 1.45350E-02
 -1      9202-3.69924E-04 2.85364E-02 1.29095E-02
 -1      9203-3.39573E-04 3.27254E-02 1.54874E-02
 -1      9204-4.24393E-04 3.26806E-02 1.54741E-02
 -1      9205-3.79608E-04 3.06623E-02 1.52016E-02
 -1      9206-2.99740E-04 3.26457E-02 1.34412E-02
 -1      9207-2.59579E-04 3.69430E-02 1.59635E-02
 -1      9208-3.24433E-04 3.69094E-02 1.59501E-02
 -1      9209-2.99564E-04 3.48203E-02 1.57412E-02
 -1      9210-2.29688E-04 3.68819E-02 1.38618E-02
 -1      9211-1.79668E-04 4.12558E-02 1.63126E-02
 -1      9212-2.24563E-04 4.12333E-02 1.62992E-02
 -1      9213-2.19615E-04 3.90895E-02 1.61539E-02
 -1      9214-1.59735E-04 4.12134E-02 1.41713E-02
 -1      9215-9.98098E-05 4.56320E-02 1.65348E-02
 -1      9216-1.24754E-04 4.56208E-02 1.65214E-02
 -1      9217-1.39734E-04 4.34379E-02 1.64395E-02
 -1      9218-8.98422E-05 4.56083E-02 1.43697E-02
 -1      9219-1.99785E-05 5.00400E-02 1.66301E-02
 -1      9220-2.49736E-05 5.00400E-02 1.66167E-02
 -1      9221-5.98924E-05 4.78340E-02 1.65983E-02
 -1      9222-1.99790E-05 5.00350E-02 1.44570E-02
 -1      9223 5.98508E-05 5.44479E-02 1.65984E-02
 -1      9224 7.48044E-05 5.44591E-02 1.65850E-02
 -1      9225 1.99349E-05 5.22459E-02 1.66301E-02
 -1      9226 4.98823E-05 5.44616E-02 1.44333E-02
 -1      9227 1.39701E-04 5.88242E-02 1.64398E-02
 -1      9228 1.74606E-04 5.88466E-02 1.64264E-02
 -1      9229 9.97719E-05 5.66420E-02 1.65349E-02
 -1      9230 1.19767E-04 5.88566E-02 1.42985E-02
 -1      9231 2.19597E-04 6.31369E-02 1.61543E-02
 -1      9232 2.74459E-04 6.31706E-02 1.61409E-02
 -1      9233 1.79642E-04 6.09905E-02 1.63129E-02
 -1      9234 1.89705E-04 6.31880E-02 1.40526E-02
 -1      9235 2.99560E-04 6.73545E-02 1.57417E-02
 -1      9236 3.74386E-04 6.73993E-02 1.57285E-02
 -1      9237 2.59569E-04 6.52596E-02 1.59638E-02
 -1      9238 2.59726E-04 6.74243E-02 1.36956E-02
 -1      9239 3.79595E-04 7.14452E-02 1.52022E-02
 -1      9240 4.74394E-04 7.15011E-02 1.51892E-02
 -1      9241 3.39569E-04 6.94177E-02 1.54878E-02
 -1      9242 3.29854E-04 7.15337E-02 1.32275E-02
 -1      9243 4.59648E-04 7.53772E-02 1.45356E-02
 -1      9244 5.74423E-04 7.54442E-02 1.45230E-02
 -1      9245 4.19627E-04 7.34330E-02 1.48848E-02
 -1      9246 4.00072E-04 7.54843E-02 1.26482E-02
 -1      9247 5.39503E-04 7.91187E-02 1.37418E-02
 -1      9248 6.74231E-04 7.91965E-02 1.37300E-02
 -1      9249 4.99626E-04 7.72737E-02 1.41546E-02
 -1      9250 4.70237E-04 7.92446E-02 1.19576E-02
 -1      9251 6.18553E-04 8.26378E-02 1.28207E-02
 -1      9252 7.73137E-04 8.27263E-02 1.28102E-02
 -1      9253 5.79195E-04 8.09080E-02 1.32971E-02
 -1      9254 5.39882E-04 8.27826E-02 1.11556E-02
 -1      9255 6.95323E-04 8.59026E-02 1.17719E-02
 -1      9256 8.69489E-04 8.60010E-02 1.17637E-02
 -1      9257 6.57378E-04 8.43040E-02 1.23122E-02
 -1      9258 6.07796E-04 8.60664E-02 1.02420E-02
 -1      9259 7.66505E-04 8.88808E-02 1.05953E-02
 -1      9260 9.59594E-04 8.89881E-02 1.05910E-02
 -1      9261 7.31950E-04 8.74295E-02 1.11995E-02
 -1      9262 6.71157E-04 8.90640E-02 9.21671E-03
 -1      9263 8.25194E-04 9.15401E-02 9.29132E-03
 -1      9264 1.03567E-03 9.16543E-02 9.29266E-03
 -1      9265 7.98112E-04 9.02524E-02 9.95918E-03
 -1      9266 7.23931E-04 9.17435E-02 8.07977E-03
 -1      9267 8.57183E-04 9.38499E-02 7.86213E-03
 -1      9268 1.08202E-03 9.39672E-02 7.87083E-03
 -1      9269 8.45879E-04 9.27406E-02 8.59205E-03
 -1      9270 7.53574E-04 9.40739E-02 6.83174E-03
 -1      9271 8.36720E-04 9.57795E-02 6.31208E-03
 -1      9272 1.06785E-03 9.58940E-02 6.32597E-03
 -1      9273 8.56034E-04 9.48638E-02 7.10206E-03
 -1      9274 7.36924E-04 9.60304E-02 5.47582E-03
 -1      9275 7.14276E-04 9.73315E-02 4.66606E-03
 -1      9276 9.34092E-04 9.74294E-02 4.67895E-03
 -1      9277 7.91662E-04 9.66020E-02 5.49803E-03
 -1      9278 6.30552E-04 9.75983E-02 4.01608E-03
 -1      9279 4.35139E-04 9.85540E-02 2.95730E-03
 -1      9280 5.91115E-04 9.86102E-02 2.94886E-03
 -1      9281 6.00064E-04 9.79612E-02 3.83055E-03
 -1      9282 3.84826E-04 9.88853E-02 2.45517E-03
 -1      9283 0.00000E+00 1.00000E-01 1.00000E-03
 -1      9284 0.00000E+00 1.00000E-01 1.00000E-03
 -1      9285 2.35195E-04 9.91504E-02 1.99646E-03
 -1      9286 0.00000E+00 1.00000E-01 1.00000E-03
 -1      9287 0.00000E+00 0.00000E+00 0.00000E+00
 -1      9288-2.09118E-04 1.56632E-03 2.05012E-03
 -1      9289 0.00000E+00 0.00000E+00 0.00000E+00
 -1      9290-3.23110E-04 1.53777E-03 2.03758E-03
 -1      9291 0.00000E+00 0.00000E+00 0.00000E+00
 -1      9292-1.12406E-04 9.15372E-04 1.04770E-03
 -1      9293-1.86639E-04 1.21281E-03 1.51405E-03
 -1      9294-3.51456E-04 2.85673E-03 3.78950E-03
 -1      9295-5.39484E-04 2.80855E-03 3.78708E-03
 -1      9296-2.88724E-04 2.19848E-03 2.93883E-03
 -1      9297-3.13033E-04 2.57127E-03 3.11942E-03
 -1      9298-4.22534E-04 4.44138E-03 5.47676E-03
 -1      9299-6.43461E-04 4.38244E-03 5.48236E-03
 -1      9300-3.94678E-04 3.60624E-03 4.63981E-03
 -1      9301-3.75386E-04 4.17322E-03 4.63230E-03
 -1      9302-4.41815E-04 6.38126E-03 7.08842E-03
 -1      9303-6.67585E-04 6.31882E-03 7.09510E-03
 -1      9304-4.37390E-04 5.36408E-03 6.29598E-03
 -1      9305-3.91651E-04 6.14251E-03 6.05623E-03
 -1      9306-4.30252E-04 8.68961E-03 8.58569E-03
 -1      9307-6.47426E-04 8.62790E-03 8.59007E-03
 -1      9308-4.38796E-04 7.49094E-03 7.85192E-03
 -1      9309-3.80608E-04 8.47329E-03 7.37594E-03
 -1      9310-4.02801E-04 1.13411E-02 9.95911E-03
 -1      9311-6.04972E-04 1.12826E-02 9.96077E-03
 -1      9312-4.17886E-04 9.97408E-03 9.28828E-03
 -1      9313-3.55702E-04 1.11463E-02 8.58419E-03
 -1      9314-3.67853E-04 1.43082E-02 1.12040E-02
 -1      9315-5.51986E-04 1.42541E-02 1.12034E-02
 -1      9316-3.85945E-04 1.27872E-02 1.05976E-02
 -1      9317-3.24417E-04 1.41334E-02 9.67886E-03
 -1      9318-3.29593E-04 1.75599E-02 1.23197E-02
 -1      9319-4.94396E-04 1.75111E-02 1.23175E-02
 -1      9320-3.48981E-04 1.59004E-02 1.17779E-02
 -1      9321-2.90441E-04 1.74047E-02 1.06598E-02
 -1      9322-2.90017E-04 2.10651E-02 1.33065E-02
 -1      9323-4.34975E-04 2.10220E-02 1.33034E-02
 -1      9324-3.09899E-04 1.92828E-02 1.28291E-02
 -1      9325-2.55484E-04 2.09289E-02 1.15278E-02
 -1      9326-2.50002E-04 2.47921E-02 1.41651E-02
 -1      9327-3.74950E-04 2.47550E-02 1.41615E-02
 -1      9328-2.70035E-04 2.29028E-02 1.37518E-02
 -1      9329-2.20267E-04 2.46748E-02 1.22833E-02
 -1      9330-2.09899E-04 2.87093E-02 1.48960E-02
 -1      9331-3.14809E-04 2.86783E-02 1.48920E-02
 -1      9332-2.29951E-04 2.67289E-02 1.45465E-02
 -1      9333-1.85056E-04 2.86108E-02 1.29269E-02
 -1      9334-1.69829E-04 3.27851E-02 1.54995E-02
 -1      9335-2.54717E-04 3.27603E-02 1.54953E-02
 -1      9336-1.89857E-04 3.07294E-02 1.52136E-02
 -1      9337-1.49925E-04 3.27053E-02 1.34590E-02
 -1      9338-1.29814E-04 3.69878E-02 1.59758E-02
 -1      9339-1.94705E-04 3.69691E-02 1.59716E-02
 -1      9340-1.49814E-04 3.48726E-02 1.57535E-02
 -1      9341-1.14875E-04 3.69267E-02 1.38798E-02
 -1      9342-8.98463E-05 4.12856E-02 1.63250E-02
 -1      9343-1.34761E-04 4.12732E-02 1.63208E-02
 -1      9344-1.09825E-04 3.91268E-02 1.61662E-02
 -1      9345-7.98827E-05 4.12433E-02 1.41894E-02
 -1      9346-4.99100E-05 4.56469E-02 1.65473E-02
 -1      9347-7.48617E-05 4.56407E-02 1.65430E-02
 -1      9348-6.98752E-05 4.34603E-02 1.64520E-02
 -1      9349-4.49273E-05 4.56233E-02 1.43878E-02
 -1      9350-9.98903E-06 5.00400E-02 1.66426E-02
 -1      9351-1.49837E-05 5.00400E-02 1.66383E-02
 -1      9352-2.99485E-05 4.78415E-02 1.66107E-02
 -1      9353-9.98934E-06 5.00350E-02 1.44752E-02
 -1      9354 2.99307E-05 5.44330E-02 1.66109E-02
 -1      9355 4.48927E-05 5.44392E-02 1.66066E-02
 -1      9356 9.97015E-06 5.22384E-02 1.66425E-02
 -1      9357 2.49474E-05 5.44467E-02 1.44514E-02
 -1      9358 6.98626E-05 5.87943E-02 1.64522E-02
 -1      9359 1.04786E-04 5.88067E-02 1.64480E-02
 -1      9360 4.98943E-05 5.66196E-02 1.65474E-02
 -1      9361 5.98983E-05 5.88267E-02 1.43166E-02
 -1      9362 1.09820E-04 6.30921E-02 1.61666E-02
 -1      9363 1.64717E-04 6.31108E-02 1.61623E-02
 -1      9364 8.98373E-05 6.09531E-02 1.63252E-02
 -1      9365 9.48804E-05 6.31432E-02 1.40706E-02
 -1      9366 1.49816E-04 6.72948E-02 1.57539E-02
 -1      9367 2.24702E-04 6.73197E-02 1.57497E-02
 -1      9368 1.29813E-04 6.52074E-02 1.59761E-02
 -1      9369 1.29912E-04 6.73646E-02 1.37134E-02
 -1      9370 1.89850E-04 7.13707E-02 1.52140E-02
 -1      9371 2.84745E-04 7.14017E-02 1.52100E-02
 -1      9372 1.69829E-04 6.93506E-02 1.54998E-02
 -1      9373 1.65008E-04 7.14592E-02 1.32449E-02
 -1      9374 2.29891E-04 7.52880E-02 1.45468E-02
 -1      9375 3.44802E-04 7.53251E-02 1.45431E-02
 -1      9376 2.09875E-04 7.33511E-02 1.48963E-02
 -1      9377 2.00161E-04 7.53953E-02 1.26649E-02
 -1      9378 2.69809E-04 7.90152E-02 1.37518E-02
 -1      9379 4.04694E-04 7.90582E-02 1.37486E-02
 -1      9380 2.49880E-04 7.71773E-02 1.41652E-02
 -1      9381 2.35287E-04 7.91414E-02 1.19730E-02
 -1      9382 3.09244E-04 8.25205E-02 1.28286E-02
 -1      9383 4.63925E-04 8.25693E-02 1.28263E-02
 -1      9384 2.89626E-04 8.07975E-02 1.33062E-02
 -1      9385 2.70118E-04 8.26659E-02 1.11687E-02
 -1      9386 3.47333E-04 8.57726E-02 1.17764E-02
 -1      9387 5.21283E-04 8.58265E-02 1.17755E-02
 -1      9388 3.28548E-04 8.41802E-02 1.23186E-02
 -1      9389 3.03950E-04 8.59374E-02 1.02513E-02
 -1      9390 3.82137E-04 8.87398E-02 1.05949E-02
 -1      9391 5.74075E-04 8.87983E-02 1.05961E-02
 -1      9392 3.65343E-04 8.72937E-02 1.12018E-02
 -1      9393 3.35131E-04 8.89249E-02 9.22015E-03
 -1      9394 4.09626E-04 9.13914E-02 9.28449E-03
 -1      9395 6.16587E-04 9.14528E-02 9.28805E-03
 -1      9396 3.97201E-04 9.01070E-02 9.95567E-03
 -1      9397 3.60137E-04 9.15980E-02 8.07520E-03
 -1      9398 4.21760E-04 9.36989E-02 7.84932E-03
 -1      9399 6.37534E-04 9.37609E-02 7.85492E-03
 -1      9400 4.18356E-04 9.25898E-02 8.58191E-03
 -1      9401 3.71827E-04 9.39280E-02 6.81835E-03
 -1      9402 4.04227E-04 9.56360E-02 6.29827E-03
 -1      9403 6.15852E-04 9.56944E-02 6.30268E-03
 -1      9404 4.18006E-04 9.47150E-02 7.08741E-03
 -1      9405 3.57368E-04 9.58944E-02 5.45645E-03
 -1      9406 3.36923E-04 9.72129E-02 4.66865E-03
 -1      9407 5.17393E-04 9.72605E-02 4.66536E-03
 -1      9408 3.77962E-04 9.64681E-02 5.49055E-03
 -1      9409 2.98782E-04 9.74888E-02 4.00430E-03
 -1      9410 2.00998E-04 9.84848E-02 2.98382E-03
 -1      9411 3.10670E-04 9.85130E-02 2.97105E-03
 -1      9412 2.77114E-04 9.78644E-02 3.84499E-03
 -1      9413 1.78673E-04 9.88270E-02 2.45922E-03
 -1      9414 0.00000E+00 1.00000E-01 1.00000E-03
 -1      9415 0.00000E+00 1.00000E-01 1.00000E-03
 -1      9416 1.08256E-04 9.91176E-02 2.01317E-03
 -1      9417 0.00000E+00 1.00000E-01 1.00000E-03
 -1      9418 0.00000E+00 0.00000E+00 0.00000E+00
 -1      9419-3.07726E-17 1.58642E-03 2.05940E-03
 -1      9420 0.00000E+00 0.00000E+00 0.00000E+00
 -1      9421-1.02346E-04 1.58130E-03 2.05689E-03
 -1      9422 0.00000E+00 0.00000E+00 0.00000E+00
 -1      9423-2.23300E-17 9.26375E-04 1.05548E-03
 -1      9424-1.52999E-17 1.23016E-03 1.51635E-03
 -1      9425-1.28301E-17 2.89324E-03 3.79210E-03
 -1      9426-1.72966E-04 2.88413E-03 3.79116E-03
 -1      9427-2.64569E-17 2.22833E-03 2.94645E-03
 -1      9428 1.10628E-17 2.60515E-03 3.11722E-03
 -1      9429 2.98044E-17 4.48713E-03 5.47334E-03
 -1      9430-2.09473E-04 4.47570E-03 5.47404E-03
 -1      9431 5.00388E-18 3.64823E-03 4.63916E-03
 -1      9432 6.25474E-17 4.21650E-03 4.62662E-03
 -1      9433 8.67811E-17 6.43034E-03 7.08326E-03
 -1      9434-2.19997E-04 6.41810E-03 7.08450E-03
 -1      9435 5.59313E-17 5.41205E-03 6.29113E-03
 -1      9436 1.30974E-16 6.18980E-03 6.05065E-03
 -1      9437 1.69285E-16 8.73843E-03 8.58163E-03
 -1      9438-2.14756E-04 8.72627E-03 8.58272E-03
 -1      9439 1.29420E-16 7.54022E-03 7.84707E-03
 -1      9440 2.25846E-16 8.52096E-03 7.37255E-03
 -1      9441 2.91831E-16 1.13877E-02 9.95704E-03
 -1      9442-2.01279E-04 1.13761E-02 9.95769E-03
 -1      9443 2.31395E-16 1.00219E-02 9.28520E-03
 -1      9444 3.40535E-16 1.11921E-02 8.58339E-03
 -1      9445 4.14756E-16 1.43513E-02 1.12037E-02
 -1      9446-1.83902E-04 1.43405E-02 1.12039E-02
 -1      9447 3.48588E-16 1.28321E-02 1.05965E-02
 -1      9448 4.64275E-16 1.41761E-02 9.68014E-03
 -1      9449 5.49907E-16 1.75989E-02 1.23206E-02
 -1      9450-1.64805E-04 1.75892E-02 1.23205E-02
 -1      9451 4.80378E-16 1.59415E-02 1.17783E-02
 -1      9452 6.00214E-16 1.74434E-02 1.06626E-02
 -1      9453 6.81650E-16 2.10995E-02 1.33083E-02
 -1      9454-1.45024E-04 2.10909E-02 1.33080E-02
 -1      9455 6.17480E-16 1.93195E-02 1.28305E-02
 -1      9456 7.46985E-16 2.09632E-02 1.15314E-02
 -1      9457 8.59074E-16 2.48218E-02 1.41674E-02
 -1      9458-1.25014E-04 2.48144E-02 1.41670E-02
 -1      9459 7.59023E-16 2.29349E-02 1.37538E-02
 -1      9460 9.01269E-16 2.47044E-02 1.22874E-02
 -1      9461 9.94481E-16 2.87341E-02 1.48985E-02
 -1      9462-1.04959E-04 2.87279E-02 1.48980E-02
 -1      9463 9.15246E-16 2.67562E-02 1.45488E-02
 -1      9464 1.05908E-15 2.86356E-02 1.29314E-02
 -1      9465 1.12378E-15 3.28050E-02 1.55021E-02
 -1      9466-8.49202E-05 3.28000E-02 1.55016E-02
 -1      9467 1.04905E-15 3.07517E-02 1.52162E-02
 -1      9468 1.20094E-15 3.27252E-02 1.34636E-02
 -1      9469 1.25246E-15 3.70027E-02 1.59785E-02
 -1      9470-6.49102E-05 3.69990E-02 1.59780E-02
 -1      9471 1.19013E-15 3.48900E-02 1.57562E-02
 -1      9472 1.34745E-15 3.69417E-02 1.38845E-02
 -1      9473 1.43115E-15 4.12956E-02 1.63278E-02
 -1      9474-4.49249E-05 4.12931E-02 1.63272E-02
 -1      9475 1.33899E-15 3.91393E-02 1.61690E-02
 -1      9476 1.51930E-15 4.12532E-02 1.41941E-02
 -1      9477 1.60598E-15 4.56519E-02 1.65500E-02
 -1      9478-2.49557E-05 4.56507E-02 1.65495E-02
 -1      9479 1.50314E-15 4.34678E-02 1.64547E-02
 -1      9480 1.68715E-15 4.56282E-02 1.43926E-02
 -1      9481 1.78750E-15 5.00400E-02 1.66453E-02
 -1      9482-4.99449E-06 5.00400E-02 1.66448E-02
 -1      9483 1.69005E-15 4.78440E-02 1.66135E-02
 -1      9484 1.86814E-15 5.00350E-02 1.44799E-02
 -1      9485 1.97781E-15 5.44280E-02 1.66136E-02
 -1      9486 1.49661E-05 5.44292E-02 1.66131E-02
 -1      9487 1.86838E-15 5.22360E-02 1.66453E-02
 -1      9488 2.05385E-15 5.44417E-02 1.44562E-02
 -1      9489 2.17015E-15 5.87843E-02 1.64550E-02
 -1      9490 3.49330E-05 5.87868E-02 1.64544E-02
 -1      9491 2.07373E-15 5.66121E-02 1.65501E-02
 -1      9492 2.23645E-15 5.88167E-02 1.43213E-02
 -1      9493 2.36421E-15 6.30772E-02 1.61693E-02
 -1      9494 5.49132E-05 6.30809E-02 1.61688E-02
 -1      9495 2.27290E-15 6.09407E-02 1.63280E-02
 -1      9496 2.42090E-15 6.31283E-02 1.40753E-02
 -1      9497 2.63513E-15 6.72750E-02 1.57565E-02
 -1      9498 7.49129E-05 6.72799E-02 1.57560E-02
 -1      9499 2.48754E-15 6.51899E-02 1.59787E-02
 -1      9500 2.61440E-15 6.73448E-02 1.37180E-02
 -1      9501 2.71354E-15 7.13459E-02 1.52165E-02
 -1      9502 9.49328E-05 7.13521E-02 1.52161E-02
 -1      9503 2.67596E-15 6.93282E-02 1.55024E-02
 -1      9504 2.69121E-15 7.14344E-02 1.32494E-02
 -1      9505 2.83909E-15 7.52584E-02 1.45490E-02
 -1      9506 1.14956E-04 7.52658E-02 1.45486E-02
 -1      9507 2.78723E-15 7.33239E-02 1.48987E-02
 -1      9508 2.71625E-15 7.53657E-02 1.26691E-02
 -1      9509 2.84856E-15 7.89808E-02 1.37536E-02
 -1      9510 1.34914E-04 7.89894E-02 1.37533E-02
 -1      9511 2.87578E-15 7.71453E-02 1.41673E-02
 -1      9512 2.71523E-15 7.91071E-02 1.19767E-02
 -1      9513 2.61572E-15 8.24816E-02 1.28297E-02
 -1      9514 1.54621E-04 8.24913E-02 1.28295E-02
 -1      9515 2.71965E-15 8.07609E-02 1.33077E-02
 -1      9516 2.55690E-15 8.26272E-02 1.11716E-02
 -1      9517 2.32921E-15 8.57296E-02 1.17764E-02
 -1      9518 1.73627E-04 8.57403E-02 1.17766E-02
 -1      9519 2.49179E-15 8.41391E-02 1.23192E-02
 -1      9520 2.31112E-15 8.58948E-02 1.02529E-02
 -1      9521 2.03276E-15 8.86934E-02 1.05933E-02
 -1      9522 1.90927E-04 8.87050E-02 1.05939E-02
 -1      9523 2.19782E-15 8.72489E-02 1.12011E-02
 -1      9524 2.00941E-15 8.88792E-02 9.21979E-03
 -1      9525 1.56641E-15 9.13428E-02 9.28111E-03
 -1      9526 2.04424E-04 9.13549E-02 9.28202E-03
 -1      9527 1.79761E-15 9.00593E-02 9.95316E-03
 -1      9528 1.64949E-15 9.15505E-02 8.07245E-03
 -1      9529 1.22737E-15 9.36501E-02 7.84504E-03
 -1      9530 2.09964E-04 9.36623E-02 7.84606E-03
 -1      9531 1.38740E-15 9.25408E-02 8.57786E-03
 -1      9532 1.25854E-15 9.38810E-02 6.81360E-03
 -1      9533 9.47990E-16 9.55907E-02 6.29575E-03
 -1      9534 2.00346E-04 9.56020E-02 6.29623E-03
 -1      9535 1.05968E-15 9.46674E-02 7.08348E-03
 -1      9536 9.22275E-16 9.58515E-02 5.45167E-03
 -1      9537 5.72167E-16 9.71768E-02 4.67191E-03
 -1      9538 1.65772E-04 9.71858E-02 4.67081E-03
 -1      9539 7.36732E-16 9.64266E-02 5.49071E-03
 -1      9540 6.03889E-16 9.74553E-02 4.00279E-03
 -1      9541 2.62696E-16 9.84649E-02 2.99328E-03
 -1      9542 9.83496E-05 9.84700E-02 2.99072E-03
 -1      9543 4.23646E-16 9.78349E-02 3.85299E-03
 -1      9544 2.81316E-16 9.88098E-02 2.46178E-03
 -1      9545 0.00000E+00 1.00000E-01 1.00000E-03
 -1      9546 0.00000E+00 1.00000E-01 1.00000E-03
 -1      9547 1.24166E-16 9.91067E-02 2.02096E-03
 -1      9548 0.00000E+00 1.00000E-01 1.00000E-03
 -1      9549 0.00000E+00 0.00000E+00 0.00000E+00
 -1      9550 2.09118E-04 1.56632E-03 2.05012E-03
 -1      9551 0.00000E+00 0.00000E+00 0.00000E+00
 -1      9552 1.02346E-04 1.58130E-03 2.05689E-03
 -1      9553 0.00000E+00 0.00000E+00 0.00000E+00
 -1      9554 1.12406E-04 9.15372E-04 1.04770E-03
 -1      9555 1.86639E-04 1.21281E-03 1.51405E-03
 -1      9556 3.51456E-04 2.85673E-03 3.78950E-03
 -1      9557 1.72966E-04 2.88413E-03 3.79116E-03
 -1      9558 2.88724E-04 2.19848E-03 2.93883E-03
 -1      9559 3.13033E-04 2.57127E-03 3.11942E-03
 -1      9560 4.22534E-04 4.44138E-03 5.47676E-03
 -1      9561 2.09473E-04 4.47570E-03 5.47404E-03
 -1      9562 3.94678E-04 3.60624E-03 4.63981E-03
 -1      9563 3.75386E-04 4.17322E-03 4.63230E-03
 -1      9564 4.41815E-04 6.38126E-03 7.08842E-03
 -1      9565 2.19997E-04 6.41810E-03 7.08450E-03
 -1      9566 4.37390E-04 5.36408E-03 6.29598E-03
 -1      9567 3.91651E-04 6.14251E-03 6.05623E-03
 -1      9568 4.30252E-04 8.68961E-03 8.58569E-03
 -1      9569 2.14756E-04 8.72627E-03 8.58272E-03
 -1      9570 4.38796E-04 7.49094E-03 7.85192E-03
 -1      9571 3.80608E-04 8.47329E-03 7.37594E-03
 -1      9572 4.02801E-04 1.13411E-02 9.95911E-03
 -1      9573 2.01279E-04 1.13761E-02 9.95769E-03
 -1      9574 4.17886E-04 9.97408E-03 9.28828E-03
 -1      9575 3.55702E-04 1.11463E-02 8.58419E-03
 -1      9576 3.67853E-04 1.43082E-02 1.12040E-02
 -1      9577 1.83902E-04 1.43405E-02 1.12039E-02
 -1      9578 3.85945E-04 1.27872E-02 1.05976E-02
 -1      9579 3.24417E-04 1.41334E-02 9.67886E-03
 -1      9580 3.29593E-04 1.75599E-02 1.23197E-02
 -1      9581 1.64805E-04 1.75892E-02 1.23205E-02
 -1      9582 3.48981E-04 1.59004E-02 1.17779E-02
 -1      9583 2.90441E-04 1.74047E-02 1.06598E-02
 -1      9584 2.90017E-04 2.10651E-02 1.33065E-02
 -1      9585 1.45024E-04 2.10909E-02 1.33080E-02
 -1      9586 3.09899E-04 1.92828E-02 1.28291E-02
 -1      9587 2.55484E-04 2.09289E-02 1.15278E-02
 -1      9588 2.50002E-04 2.47921E-02 1.41651E-02
 -1      9589 1.25014E-04 2.48144E-02 1.41670E-02
 -1      9590 2.70035E-04 2.29028E-02 1.37518E-02
 -1      9591 2.20267E-04 2.46748E-02 1.22833E-02
 -1      9592 2.09899E-04 2.87093E-02 1.48960E-02
 -1      9593 1.04959E-04 2.87279E-02 1.48980E-02
 -1      9594 2.29951E-04 2.67289E-02 1.45465E-02
 -1      9595 1.85056E-04 2.86108E-02 1.29269E-02
 -1      9596 1.69829E-04 3.27851E-02 1.54995E-02
 -1      9597 8.49202E-05 3.28000E-02 1.55016E-02
 -1      9598 1.89857E-04 3.07294E-02 1.52136E-02
 -1      9599 1.49925E-04 3.27053E-02 1.34590E-02
 -1      9600 1.29814E-04 3.69878E-02 1.59758E-02
 -1      9601 6.49102E-05 3.69990E-02 1.59780E-02
 -1      9602 1.49814E-04 3.48726E-02 1.57535E-02
 -1      9603 1.14875E-04 3.69267E-02 1.38798E-02
 -1      9604 8.98463E-05 4.12856E-02 1.63250E-02
 -1      9605 4.49249E-05 4.12931E-02 1.63272E-02
 -1      9606 1.09825E-04 3.91268E-02 1.61662E-02
 -1      9607 7.98827E-05 4.12433E-02 1.41894E-02
 -1      9608 4.99100E-05 4.56469E-02 1.65473E-02
 -1      9609 2.49557E-05 4.56507E-02 1.65495E-02
 -1      9610 6.98752E-05 4.34603E-02 1.64520E-02
 -1      9611 4.49273E-05 4.56233E-02 1.43878E-02
 -1      9612 9.98903E-06 5.00400E-02 1.66426E-02
 -1      9613 4.99449E-06 5.00400E-02 1.66448E-02
 -1      9614 2.99485E-05 4.78415E-02 1.66107E-02
 -1      9615 9.98934E-06 5.00350E-02 1.44752E-02
 -1      9616-2.99307E-05 5.44330E-02 1.66109E-02
 -1      9617-1.49661E-05 5.44292E-02 1.66131E-02
 -1      9618-9.97015E-06 5.22384E-02 1.66425E-02
 -1      9619-2.49474E-05 5.44467E-02 1.44514E-02
 -1      9620-6.98626E-05 5.87943E-02 1.64522E-02
 -1      9621-3.49330E-05 5.87868E-02 1.64544E-02
 -1      9622-4.98943E-05 5.66196E-02 1.65474E-02
 -1      9623-5.98983E-05 5.88267E-02 1.43166E-02
 -1      9624-1.09820E-04 6.30921E-02 1.61666E-02
 -1      9625-5.49132E-05 6.30809E-02 1.61688E-02
 -1      9626-8.98373E-05 6.09531E-02 1.63252E-02
 -1      9627-9.48804E-05 6.31432E-02 1.40706E-02
 -1      9628-1.49816E-04 6.72948E-02 1.57539E-02
 -1      9629-7.49129E-05 6.72799E-02 1.57560E-02
 -1      9630-1.29813E-04 6.52074E-02 1.59761E-02
 -1      9631-1.29912E-04 6.73646E-02 1.37134E-02
 -1      9632-1.89850E-04 7.13707E-02 1.52140E-02
 -1      9633-9.49328E-05 7.13521E-02 1.52161E-02
 -1      9634-1.69829E-04 6.93506E-02 1.54998E-02
 -1      9635-1.65008E-04 7.14592E-02 1.32449E-02
 -1      9636-2.29891E-04 7.52880E-02 1.45468E-02
 -1      9637-1.14956E-04 7.52658E-02 1.45486E-02
 -1      9638-2.09875E-04 7.33511E-02 1.48963E-02
 -1      9639-2.00161E-04 7.53953E-02 1.26649E-02
 -1      9640-2.69809E-04 7.90152E-02 1.37518E-02
 -1      9641-1.34914E-04 7.89894E-02 1.37533E-02
 -1      9642-2.49880E-04 7.71773E-02 1.41652E-02
 -1      9643-2.35287E-04 7.91414E-02 1.19730E-02
 -1      9644-3.09244E-04 8.25205E-02 1.28286E-02
 -1      9645-1.54621E-04 8.24913E-02 1.28295E-02
 -1      9646-2.89626E-04 8.07975E-02 1.33062E-02
 -1      9647-2.70118E-04 8.26659E-02 1.11687E-02
 -1      9648-3.47333E-04 8.57726E-02 1.17764E-02
 -1      9649-1.73627E-04 8.57403E-02 1.17766E-02
 -1      9650-3.28548E-04 8.41802E-02 1.23186E-02
 -1      9651-3.03950E-04 8.59374E-02 1.02513E-02
 -1      9652-3.82137E-04 8.87398E-02 1.05949E-02
 -1      9653-1.90927E-04 8.87050E-02 1.05939E-02
 -1      9654-3.65343E-04 8.72937E-02 1.12018E-02
 -1      9655-3.35131E-04 8.89249E-02 9.22015E-03
 -1      9656-4.09626E-04 9.13914E-02 9.28449E-03
 -1      9657-2.04424E-04 9.13549E-02 9.28202E-03
 -1      9658-3.97201E-04 9.01070E-02 9.95567E-03
 -1      9659-3.60137E-04 9.15980E-02 8.07520E-03
 -1      9660-4.21760E-04 9.36989E-02 7.84932E-03
 -1      9661-2.09964E-04 9.36623E-02 7.84606E-03
 -1      9662-4.18356E-04 9.25898E-02 8.58191E-03
 -1      9663-3.71827E-04 9.39280E-02 6.81835E-03
 -1      9664-4.04227E-04 9.56360E-02 6.29827E-03
 -1      9665-2.00346E-04 9.56020E-02 6.29623E-03
 -1      9666-4.18006E-04 9.47150E-02 7.08741E-03
 -1      9667-3.57368E-04 9.58944E-02 5.45645E-03
 -1      9668-3.36923E-04 9.72129E-02 4.66865E-03
 -1      9669-1.65772E-04 9.71858E-02 4.67081E-03
 -1      9670-3.77962E-04 9.64681E-02 5.49055E-03
 -1      9671-2.98782E-04 9.74888E-02 4.00430E-03
 -1      9672-2.00998E-04 9.84848E-02 2.98382E-03
 -1      9673-9.83496E-05 9.84700E-02 2.99072E-03
 -1      9674-2.77114E-04 9.78644E-02 3.84499E-03
 -1      9675-1.78673E-04 9.88270E-02 2.45922E-03
 -1      9676 0.00000E+00 1.00000E-01 1.00000E-03
 -1      9677 0.00000E+00 1.00000E-01 1.00000E-03
 -1      9678-1.08256E-04 9.91176E-02 2.01317E-03
 -1      9679 0.00000E+00 1.00000E-01 1.00000E-03
 -1      9680 0.00000E+00 0.00000E+00 0.00000E+00
 -1      9681 4.52362E-04 1.49637E-03 2.02436E-03
 -1      9682 0.00000E+00 0.00000E+00 0.00000E+00
 -1      9683 3.23110E-04 1.53777E-03 2.03758E-03
 -1      9684 0.00000E+00 0.00000E+00 0.00000E+00
 -1      9685 2.44033E-04 8.82344E-04 1.03133E-03
 -1      9686 4.01757E-04 1.15382E-03 1.51101E-03
 -1      9687 7.44349E-04 2.73683E-03 3.78922E-03
 -1      9688 5.39484E-04 2.80855E-03 3.78708E-03
 -1      9689 6.24624E-04 2.10059E-03 2.92604E-03
 -1      9690 6.60123E-04 2.46058E-03 3.13361E-03
 -1      9691 8.73736E-04 4.29666E-03 5.49352E-03
 -1      9692 6.43461E-04 4.38244E-03 5.48236E-03
 -1      9693 8.25832E-04 3.47107E-03 4.65005E-03
 -1      9694 7.73457E-04 4.03608E-03 4.65453E-03
 -1      9695 8.97145E-04 6.22930E-03 7.10377E-03
 -1      9696 6.67585E-04 6.31882E-03 7.09510E-03
 -1      9697 8.94875E-04 5.21421E-03 6.31347E-03
 -1      9698 7.93189E-04 5.99574E-03 6.07205E-03
 -1      9699 8.66128E-04 8.54025E-03 8.59438E-03
 -1      9700 6.47426E-04 8.62790E-03 8.59007E-03
 -1      9701 8.86495E-04 7.33941E-03 7.86428E-03
 -1      9702 7.64643E-04 8.32718E-03 7.38227E-03
 -1      9703 8.07527E-04 1.11998E-02 9.96072E-03
 -1      9704 6.04972E-04 1.12826E-02 9.96077E-03
 -1      9705 8.39157E-04 9.82822E-03 9.29331E-03
 -1      9706 7.12050E-04 1.10069E-02 8.58190E-03
 -1      9707 7.36130E-04 1.41780E-02 1.12001E-02
 -1      9708 5.51986E-04 1.42541E-02 1.12034E-02
 -1      9709 7.72883E-04 1.26511E-02 1.05963E-02
 -1      9710 6.48535E-04 1.40043E-02 9.67027E-03
 -1      9711 6.59095E-04 1.74426E-02 1.23122E-02
 -1      9712 4.94396E-04 1.75111E-02 1.23175E-02
 -1      9713 6.98052E-04 1.57765E-02 1.17720E-02
 -1      9714 5.80392E-04 1.72879E-02 1.06471E-02
 -1      9715 5.79827E-04 2.09616E-02 1.32968E-02
 -1      9716 4.34975E-04 2.10220E-02 1.33034E-02
 -1      9717 6.19621E-04 1.91723E-02 1.28203E-02
 -1      9718 5.10547E-04 2.08257E-02 1.15126E-02
 -1      9719 4.99817E-04 2.47029E-02 1.41541E-02
 -1      9720 3.74950E-04 2.47550E-02 1.41615E-02
 -1      9721 5.39865E-04 2.28064E-02 1.37413E-02
 -1      9722 4.40236E-04 2.45858E-02 1.22667E-02
 -1      9723 4.19666E-04 2.86348E-02 1.48842E-02
 -1      9724 3.14809E-04 2.86783E-02 1.48920E-02
 -1      9725 4.59741E-04 2.66471E-02 1.45350E-02
 -1      9726 3.69924E-04 2.85364E-02 1.29095E-02
 -1      9727 3.39573E-04 3.27254E-02 1.54874E-02
 -1      9728 2.54717E-04 3.27603E-02 1.54953E-02
 -1      9729 3.79608E-04 3.06623E-02 1.52016E-02
 -1      9730 2.99740E-04 3.26457E-02 1.34412E-02
 -1      9731 2.59579E-04 3.69430E-02 1.59635E-02
 -1      9732 1.94705E-04 3.69691E-02 1.59716E-02
 -1      9733 2.99564E-04 3.48203E-02 1.57412E-02
 -1      9734 2.29688E-04 3.68819E-02 1.38618E-02
 -1      9735 1.79668E-04 4.12558E-02 1.63126E-02
 -1      9736 1.34761E-04 4.12732E-02 1.63208E-02
 -1      9737 2.19615E-04 3.90895E-02 1.61539E-02
 -1      9738 1.59735E-04 4.12134E-02 1.41713E-02
 -1      9739 9.98098E-05 4.56320E-02 1.65348E-02
 -1      9740 7.48617E-05 4.56407E-02 1.65430E-02
 -1      9741 1.39734E-04 4.34379E-02 1.64395E-02
 -1      9742 8.98422E-05 4.56083E-02 1.43697E-02
 -1      9743 1.99785E-05 5.00400E-02 1.66301E-02
 -1      9744 1.49837E-05 5.00400E-02 1.66383E-02
 -1      9745 5.98924E-05 4.78340E-02 1.65983E-02
 -1      9746 1.99790E-05 5.00350E-02 1.44570E-02
 -1      9747-5.98508E-05 5.44479E-02 1.65984E-02
 -1      9748-4.48927E-05 5.44392E-02 1.66066E-02
 -1      9749-1.99349E-05 5.22459E-02 1.66301E-02
 -1      9750-4.98823E-05 5.44616E-02 1.44333E-02
 -1      9751-1.39701E-04 5.88242E-02 1.64398E-02
 -1      9752-1.04786E-04 5.88067E-02 1.64480E-02
 -1      9753-9.97719E-05 5.66420E-02 1.65349E-02
 -1      9754-1.19767E-04 5.88566E-02 1.42985E-02
 -1      9755-2.19597E-04 6.31369E-02 1.61543E-02
 -1      9756-1.64717E-04 6.31108E-02 1.61623E-02
 -1      9757-1.79642E-04 6.09905E-02 1.63129E-02
 -1      9758-1.89705E-04 6.31880E-02 1.40526E-02
 -1      9759-2.99560E-04 6.73545E-02 1.57417E-02
 -1      9760-2.24702E-04 6.73197E-02 1.57497E-02
 -1      9761-2.59569E-04 6.52596E-02 1.59638E-02
 -1      9762-2.59726E-04 6.74243E-02 1.36956E-02
 -1      9763-3.79595E-04 7.14452E-02 1.52022E-02
 -1      9764-2.84745E-04 7.14017E-02 1.52100E-02
 -1      9765-3.39569E-04 6.94177E-02 1.54878E-02
 -1      9766-3.29854E-04 7.15337E-02 1.32275E-02
 -1      9767-4.59648E-04 7.53772E-02 1.45356E-02
 -1      9768-3.44802E-04 7.53251E-02 1.45431E-02
 -1      9769-4.19627E-04 7.34330E-02 1.48848E-02
 -1      9770-4.00072E-04 7.54843E-02 1.26482E-02
 -1      9771-5.39503E-04 7.91187E-02 1.37418E-02
 -1      9772-4.04694E-04 7.90582E-02 1.37486E-02
 -1      9773-4.99626E-04 7.72737E-02 1.41546E-02
 -1      9774-4.70237E-04 7.92446E-02 1.19576E-02
 -1      9775-6.18553E-04 8.26378E-02 1.28207E-02
 -1      9776-4.63925E-04 8.25693E-02 1.28263E-02
 -1      9777-5.79195E-04 8.09080E-02 1.32971E-02
 -1      9778-5.39882E-04 8.27826E-02 1.11556E-02
 -1      9779-6.95323E-04 8.59026E-02 1.17719E-02
 -1      9780-5.21283E-04 8.58265E-02 1.17755E-02
 -1      9781-6.57378E-04 8.43040E-02 1.23122E-02
 -1      9782-6.07796E-04 8.60664E-02 1.02420E-02
 -1      9783-7.66505E-04 8.88808E-02 1.05953E-02
 -1      9784-5.74075E-04 8.87983E-02 1.05961E-02
 -1      9785-7.31950E-04 8.74295E-02 1.11995E-02
 -1      9786-6.71157E-04 8.90640E-02 9.21671E-03
 -1      9787-8.25194E-04 9.15401E-02 9.29132E-03
 -1      9788-6.16587E-04 9.14528E-02 9.28805E-03
 -1      9789-7.98112E-04 9.02524E-02 9.95918E-03
 -1      9790-7.23931E-04 9.17435E-02 8.07977E-03
 -1      9791-8.57183E-04 9.38499E-02 7.86213E-03
 -1      9792-6.37534E-04 9.37609E-02 7.85492E-03
 -1      9793-8.45879E-04 9.27406E-02 8.59205E-03
 -1      9794-7.53574E-04 9.40739E-02 6.83174E-03
 -1      9795-8.36720E-04 9.57795E-02 6.31208E-03
 -1      9796-6.15852E-04 9.56944E-02 6.30268E-03
 -1      9797-8.56034E-04 9.48638E-02 7.10206E-03
 -1      9798-7.36924E-04 9.60304E-02 5.47582E-03
 -1      9799-7.14276E-04 9.73315E-02 4.66606E-03
 -1      9800-5.17393E-04 9.72605E-02 4.66536E-03
 -1      9801-7.91662E-04 9.66020E-02 5.49803E-03
 -1      9802-6.30552E-04 9.75983E-02 4.01608E-03
 -1      9803-4.35139E-04 9.85540E-02 2.95730E-03
 -1      9804-3.10670E-04 9.85130E-02 2.97105E-03
 -1      9805-6.00064E-04 9.79612E-02 3.83055E-03
 -1      9806-3.84826E-04 9.88853E-02 2.45517E-03
 -1      9807 0.00000E+00 1.00000E-01 1.00000E-03
 -1      9808 0.00000E+00 1.00000E-01 1.00000E-03
 -1      9809-2.35195E-04 9.91504E-02 1.99646E-03
 -1      9810 0.00000E+00 1.00000E-01 1.00000E-03
 -1      9811 0.00000E+00 0.00000E+00 0.00000E+00
 -1      9812 8.23094E-04 1.35905E-03 2.04839E-03
 -1      9813 0.00000E+00 0.00000E+00 0.00000E+00
 -1      9814 6.14174E-04 1.43979E-03 2.01709E-03
 -1      9815 0.00000E+00 0.00000E+00 0.00000E+00
 -1      9816 4.31595E-04 8.02461E-04 1.00258E-03
 -1      9817 7.24894E-04 1.03007E-03 1.57152E-03
 -1      9818 1.21761E-03 2.50424E-03 3.83166E-03
 -1      9819 9.72722E-04 2.63803E-03 3.80451E-03
 -1      9820 1.05822E-03 1.90415E-03 2.96076E-03
 -1      9821 1.07337E-03 2.24492E-03 3.19623E-03
 -1      9822 1.36330E-03 4.03403E-03 5.53422E-03
 -1      9823 1.11429E-03 4.18133E-03 5.50971E-03
 -1      9824 1.31487E-03 3.21837E-03 4.69795E-03
 -1      9825 1.20177E-03 3.78575E-03 4.70020E-03
 -1      9826 1.36839E-03 5.96289E-03 7.12219E-03
 -1      9827 1.13177E-03 6.11150E-03 7.11428E-03
 -1      9828 1.37762E-03 4.94769E-03 6.34315E-03
 -1      9829 1.20553E-03 5.73690E-03 6.08918E-03
 -1      9830 1.30742E-03 8.28336E-03 8.59312E-03
 -1      9831 1.08653E-03 8.42576E-03 8.59694E-03
 -1      9832 1.34374E-03 7.07655E-03 7.87229E-03
 -1      9833 1.15116E-03 8.07477E-03 7.37620E-03
 -1      9834 1.21347E-03 1.09595E-02 9.94533E-03
 -1      9835 1.01060E-03 1.10924E-02 9.95717E-03
 -1      9836 1.26324E-03 9.57899E-03 9.28424E-03
 -1      9837 1.06793E-03 1.07691E-02 8.55993E-03
 -1      9838 1.10416E-03 1.39582E-02 1.11757E-02
 -1      9839 9.20300E-04 1.40795E-02 1.11924E-02
 -1      9840 1.16009E-03 1.24207E-02 1.05758E-02
 -1      9841 9.71469E-04 1.37859E-02 9.63829E-03
 -1      9842 9.88007E-04 1.72455E-02 1.22823E-02
 -1      9843 8.23688E-04 1.73541E-02 1.23019E-02
 -1      9844 1.04663E-03 1.55679E-02 1.17445E-02
 -1      9845 8.69251E-04 1.70915E-02 1.06092E-02
 -1      9846 8.69099E-04 2.07882E-02 1.32638E-02
 -1      9847 7.24560E-04 2.08837E-02 1.32850E-02
 -1      9848 9.28757E-04 1.89869E-02 1.27887E-02
 -1      9849 7.64813E-04 2.06527E-02 1.14713E-02
 -1      9850 7.49246E-04 2.45539E-02 1.41195E-02
 -1      9851 6.24593E-04 2.46359E-02 1.41415E-02
 -1      9852 8.09231E-04 2.26452E-02 1.37074E-02
 -1      9853 6.59689E-04 2.44369E-02 1.22236E-02
 -1      9854 6.29185E-04 2.85105E-02 1.48488E-02
 -1      9855 5.24462E-04 2.85789E-02 1.48712E-02
 -1      9856 6.89220E-04 2.65103E-02 1.44999E-02
 -1      9857 5.54482E-04 2.84121E-02 1.28656E-02
 -1      9858 5.09173E-04 3.26259E-02 1.54515E-02
 -1      9859 4.24393E-04 3.26806E-02 1.54741E-02
 -1      9860 5.69167E-04 3.05503E-02 1.51660E-02
 -1      9861 4.49380E-04 3.25461E-02 1.33968E-02
 -1      9862 3.89265E-04 3.68683E-02 1.59275E-02
 -1      9863 3.24433E-04 3.69094E-02 1.59501E-02
 -1      9864 4.49206E-04 3.47332E-02 1.57053E-02
 -1      9865 3.44409E-04 3.68072E-02 1.38172E-02
 -1      9866 2.69449E-04 4.12059E-02 1.62766E-02
 -1      9867 2.24563E-04 4.12333E-02 1.62992E-02
 -1      9868 3.29348E-04 3.90272E-02 1.61178E-02
 -1      9869 2.39542E-04 4.11636E-02 1.41266E-02
 -1      9870 1.49694E-04 4.56071E-02 1.64987E-02
 -1      9871 1.24754E-04 4.56208E-02 1.65214E-02
 -1      9872 2.09566E-04 4.34006E-02 1.64034E-02
 -1      9873 1.34740E-04 4.55834E-02 1.43250E-02
 -1      9874 2.99690E-05 5.00400E-02 1.65940E-02
 -1      9875 2.49736E-05 5.00400E-02 1.66167E-02
 -1      9876 8.98296E-05 4.78215E-02 1.65622E-02
 -1      9877 2.99693E-05 5.00350E-02 1.44123E-02
 -1      9878-8.97538E-05 5.44728E-02 1.65623E-02
 -1      9879-7.48044E-05 5.44591E-02 1.65850E-02
 -1      9880-2.98910E-05 5.22584E-02 1.65940E-02
 -1      9881-7.47987E-05 5.44865E-02 1.43886E-02
 -1      9882-2.09501E-04 5.88740E-02 1.64037E-02
 -1      9883-1.74606E-04 5.88466E-02 1.64264E-02
 -1      9884-1.49623E-04 5.66794E-02 1.64988E-02
 -1      9885-1.79593E-04 5.89064E-02 1.42538E-02
 -1      9886-3.29300E-04 6.32117E-02 1.61183E-02
 -1      9887-2.74459E-04 6.31706E-02 1.61409E-02
 -1      9888-2.69392E-04 6.10528E-02 1.62768E-02
 -1      9889-2.84443E-04 6.32627E-02 1.40080E-02
 -1      9890-4.49174E-04 6.74541E-02 1.57059E-02
 -1      9891-3.74386E-04 6.73993E-02 1.57285E-02
 -1      9892-3.89227E-04 6.53468E-02 1.59279E-02
 -1      9893-3.89381E-04 6.75239E-02 1.36512E-02
 -1      9894-5.69128E-04 7.15696E-02 1.51668E-02
 -1      9895-4.74394E-04 7.15011E-02 1.51892E-02
 -1      9896-5.09143E-04 6.95297E-02 1.54521E-02
 -1      9897-4.94424E-04 7.16580E-02 1.31835E-02
 -1      9898-6.89090E-04 7.55262E-02 1.45010E-02
 -1      9899-5.74423E-04 7.54442E-02 1.45230E-02
 -1      9900-6.29119E-04 7.35697E-02 1.48496E-02
 -1      9901-5.99535E-04 7.56332E-02 1.26051E-02
 -1      9902-8.08795E-04 7.92920E-02 1.37087E-02
 -1      9903-6.74231E-04 7.91965E-02 1.37300E-02
 -1      9904-7.49008E-04 7.74349E-02 1.41206E-02
 -1      9905-7.04515E-04 7.94176E-02 1.19162E-02
 -1      9906-9.27503E-04 8.28348E-02 1.27904E-02
 -1      9907-7.73137E-04 8.27263E-02 1.28102E-02
 -1      9908-8.68358E-04 8.10933E-02 1.32652E-02
 -1      9909-8.08763E-04 8.29789E-02 1.11173E-02
 -1      9910-1.04343E-03 8.61222E-02 1.17466E-02
 -1      9911-8.69489E-04 8.60010E-02 1.17637E-02
 -1      9912-9.86008E-04 8.45125E-02 1.22841E-02
 -1      9913-9.10780E-04 8.62846E-02 1.02093E-02
 -1      9914-1.15262E-03 8.91208E-02 1.05785E-02
 -1      9915-9.59594E-04 8.89881E-02 1.05910E-02
 -1      9916-1.09928E-03 8.76597E-02 1.11779E-02
 -1      9917-1.00715E-03 8.93015E-02 9.19337E-03
 -1      9918-1.24683E-03 9.17964E-02 9.28761E-03
 -1      9919-1.03567E-03 9.16543E-02 9.29266E-03
 -1      9920-1.20244E-03 9.05011E-02 9.94821E-03
 -1      9921-1.09069E-03 9.19954E-02 8.07139E-03
 -1      9922-1.30907E-03 9.41153E-02 7.87678E-03
 -1      9923-1.08202E-03 9.39672E-02 7.87083E-03
 -1      9924-1.28359E-03 9.30026E-02 8.59699E-03
 -1      9925-1.14643E-03 9.43319E-02 6.84526E-03
 -1      9926-1.30748E-03 9.60405E-02 6.34757E-03
 -1      9927-1.06785E-03 9.58940E-02 6.32597E-03
 -1      9928-1.31965E-03 9.51290E-02 7.12724E-03
 -1      9929-1.14629E-03 9.62794E-02 5.51645E-03
 -1      9930-1.17018E-03 9.75620E-02 4.70292E-03
 -1      9931-9.34092E-04 9.74294E-02 4.67895E-03
 -1      9932-1.26240E-03 9.68528E-02 5.54023E-03
 -1      9933-1.02644E-03 9.78123E-02 4.07311E-03
 -1      9934-7.92623E-04 9.86903E-02 2.97716E-03
 -1      9935-5.91115E-04 9.86102E-02 2.94886E-03
 -1      9936-1.01802E-03 9.81558E-02 3.86013E-03
 -1      9937-6.94813E-04 9.90081E-02 2.51119E-03
 -1      9938 0.00000E+00 1.00000E-01 1.00000E-03
 -1      9939 0.00000E+00 1.00000E-01 1.00000E-03
 -1      9940-4.16325E-04 9.92295E-02 1.96681E-03
 -1      9941 0.00000E+00 1.00000E-01 1.00000E-03
 -1      9942 0.00000E+00 0.00000E+00 0.00000E+00
 -1      9943 1.31999E-03 1.06581E-03 2.32031E-03
 -1      9944 0.00000E+00 0.00000E+00 0.00000E+00
 -1      9945 1.02920E-03 1.22909E-03 2.08801E-03
 -1      9946 0.00000E+00 0.00000E+00 0.00000E+00
 -1      9947 9.04348E-04 6.75991E-04 1.23585E-03
 -1      9948 1.17125E-03 7.84331E-04 1.88376E-03
 -1      9949 1.74463E-03 2.12828E-03 3.99965E-03
 -1      9950 1.49092E-03 2.33687E-03 3.90109E-03
 -1      9951 1.59845E-03 1.55381E-03 3.19864E-03
 -1      9952 1.53194E-03 1.89557E-03 3.36534E-03
 -1      9953 1.86663E-03 3.63585E-03 5.58056E-03
 -1      9954 1.61492E-03 3.85189E-03 5.56129E-03
 -1      9955 1.83173E-03 2.82806E-03 4.79662E-03
 -1      9956 1.63784E-03 3.40299E-03 4.74801E-03
 -1      9957 1.84091E-03 5.57169E-03 7.10647E-03
 -1      9958 1.60631E-03 5.78330E-03 7.12365E-03
 -1      9959 1.86516E-03 4.55036E-03 6.35485E-03
 -1      9960 1.61585E-03 5.35394E-03 6.07149E-03
 -1      9961 1.74696E-03 7.91268E-03 8.53934E-03
 -1      9962 1.52796E-03 8.11235E-03 8.57810E-03
 -1      9963 1.80013E-03 6.69434E-03 7.83472E-03
 -1      9964 1.53411E-03 7.70854E-03 7.31958E-03
 -1      9965 1.61719E-03 1.06168E-02 9.87107E-03
 -1      9966 1.41587E-03 1.08010E-02 9.92069E-03
 -1      9967 1.68502E-03 9.22162E-03 9.21864E-03
 -1      9968 1.42067E-03 1.04286E-02 8.48220E-03
 -1      9969 1.47037E-03 1.36471E-02 1.10905E-02
 -1      9970 1.28757E-03 1.38141E-02 1.11457E-02
 -1      9971 1.54518E-03 1.20934E-02 1.04952E-02
 -1      9972 1.29216E-03 1.34758E-02 9.54935E-03
 -1      9973 1.31565E-03 1.69676E-02 1.21916E-02
 -1      9974 1.15200E-03 1.71166E-02 1.22494E-02
 -1      9975 1.39362E-03 1.52732E-02 1.16560E-02
 -1      9976 1.15666E-03 1.68141E-02 1.05146E-02
 -1      9977 1.15757E-03 2.05445E-02 1.31705E-02
 -1      9978 1.01343E-03 2.06752E-02 1.32295E-02
 -1      9979 1.23685E-03 1.87261E-02 1.26964E-02
 -1      9980 1.01820E-03 2.04092E-02 1.13740E-02
 -1      9981 9.98205E-04 2.43448E-02 1.40250E-02
 -1      9982 8.73772E-04 2.44569E-02 1.40844E-02
 -1      9983 1.07797E-03 2.24188E-02 1.36133E-02
 -1      9984 8.78642E-04 2.42279E-02 1.21251E-02
 -1      9985 8.38445E-04 2.83361E-02 1.47538E-02
 -1      9986 7.33838E-04 2.84295E-02 1.48134E-02
 -1      9987 9.18341E-04 2.63186E-02 1.44051E-02
 -1      9988 7.38770E-04 2.82377E-02 1.27665E-02
 -1      9989 6.78637E-04 3.24863E-02 1.53563E-02
 -1      9990 5.93915E-04 3.25611E-02 1.54160E-02
 -1      9991 7.58535E-04 3.03933E-02 1.50708E-02
 -1      9992 5.98883E-04 3.24066E-02 1.32976E-02
 -1      9993 5.18885E-04 3.67636E-02 1.58322E-02
 -1      9994 4.54079E-04 3.68197E-02 1.58919E-02
 -1      9995 5.98751E-04 3.46111E-02 1.56101E-02
 -1      9996 4.59064E-04 3.67025E-02 1.37179E-02
 -1      9997 3.59201E-04 4.11361E-02 1.61813E-02
 -1      9998 3.14327E-04 4.11735E-02 1.62409E-02
 -1      9999 4.39035E-04 3.89399E-02 1.60226E-02
 -1     10000 3.19319E-04 4.10938E-02 1.40273E-02
 -1     10001 1.99568E-04 4.55722E-02 1.64035E-02
 -1     10002 1.74631E-04 4.55909E-02 1.64631E-02
 -1     10003 2.79380E-04 4.33482E-02 1.63082E-02
 -1     10004 1.79627E-04 4.55485E-02 1.42257E-02
 -1     10005 3.99607E-05 5.00400E-02 1.64988E-02
 -1     10006 3.49647E-05 5.00400E-02 1.65584E-02
 -1     10007 1.19763E-04 4.78041E-02 1.64669E-02
 -1     10008 3.99606E-05 5.00350E-02 1.43130E-02
 -1     10009-1.19644E-04 5.45077E-02 1.64671E-02
 -1     10010-1.04700E-04 5.44891E-02 1.65267E-02
 -1     10011-3.98405E-05 5.22758E-02 1.64987E-02
 -1     10012-9.97030E-05 5.45214E-02 1.42893E-02
 -1     10013-2.79270E-04 5.89438E-02 1.63085E-02
 -1     10014-2.44387E-04 5.89064E-02 1.63682E-02
 -1     10015-1.99453E-04 5.67317E-02 1.64036E-02
 -1     10016-2.39388E-04 5.89762E-02 1.41545E-02
 -1     10017-4.38937E-04 6.33164E-02 1.60230E-02
 -1     10018-3.84123E-04 6.32603E-02 1.60827E-02
 -1     10019-3.59096E-04 6.11400E-02 1.61816E-02
 -1     10020-3.79117E-04 6.33674E-02 1.39087E-02
 -1     10021-5.98660E-04 6.75937E-02 1.56107E-02
 -1     10022-5.23927E-04 6.75189E-02 1.56704E-02
 -1     10023-5.18791E-04 6.54689E-02 1.58327E-02
 -1     10024-5.18906E-04 6.76634E-02 1.35520E-02
 -1     10025-7.58420E-04 7.17439E-02 1.50718E-02
 -1     10026-6.63795E-04 7.16505E-02 1.51314E-02
 -1     10027-6.78537E-04 6.96867E-02 1.53570E-02
 -1     10028-6.58746E-04 7.18323E-02 1.30845E-02
 -1     10029-9.18106E-04 7.57353E-02 1.44065E-02
 -1     10030-8.03643E-04 7.56232E-02 1.44659E-02
 -1     10031-8.38282E-04 7.37615E-02 1.47548E-02
 -1     10032-7.98545E-04 7.58422E-02 1.25066E-02
 -1     10033-1.07738E-03 7.95357E-02 1.36153E-02
 -1     10034-9.43173E-04 7.94050E-02 1.36743E-02
 -1     10035-9.97825E-04 7.76614E-02 1.40265E-02
 -1     10036-9.38006E-04 7.96611E-02 1.18189E-02
 -1     10037-1.23536E-03 8.31127E-02 1.26996E-02
 -1     10038-1.08159E-03 8.29637E-02 1.27574E-02
 -1     10039-1.15661E-03 8.13541E-02 1.31729E-02
 -1     10040-1.07636E-03 8.32563E-02 1.10226E-02
 -1     10041-1.39002E-03 8.64333E-02 1.16611E-02
 -1     10042-1.21701E-03 8.62663E-02 1.17163E-02
 -1     10043-1.31329E-03 8.48072E-02 1.21954E-02
 -1     10044-1.21180E-03 8.65947E-02 1.01200E-02
 -1     10045-1.53699E-03 8.94634E-02 1.05033E-02
 -1     10046-1.34530E-03 8.92792E-02 1.05533E-02
 -1     10047-1.46487E-03 8.79869E-02 1.10967E-02
 -1     10048-1.34045E-03 8.96419E-02 9.11480E-03
 -1     10049-1.66743E-03 9.21668E-02 9.23199E-03
 -1     10050-1.45783E-03 9.19672E-02 9.27152E-03
 -1     10051-1.60506E-03 9.08583E-02 9.88130E-03
 -1     10052-1.45453E-03 9.23616E-02 8.01299E-03
 -1     10053-1.76320E-03 9.45060E-02 7.85750E-03
 -1     10054-1.53766E-03 9.42945E-02 7.87631E-03
 -1     10055-1.72131E-03 9.33845E-02 8.55683E-03
 -1     10056-1.53803E-03 9.47147E-02 6.82415E-03
 -1     10057-1.79292E-03 9.64379E-02 6.38775E-03
 -1     10058-1.55006E-03 9.62220E-02 6.37148E-03
 -1     10059-1.78908E-03 9.55257E-02 7.13420E-03
 -1     10060-1.56393E-03 9.66619E-02 5.55820E-03
 -1     10061-1.67968E-03 9.79367E-02 4.86000E-03
 -1     10062-1.43422E-03 9.77285E-02 4.76735E-03
 -1     10063-1.76154E-03 9.72421E-02 5.63063E-03
 -1     10064-1.46653E-03 9.81611E-02 4.23160E-03
 -1     10065-1.27278E-03 9.89814E-02 3.23502E-03
 -1     10066-9.91856E-04 9.88189E-02 3.01290E-03
 -1     10067-1.54031E-03 9.85043E-02 4.08463E-03
 -1     10068-1.12328E-03 9.92530E-02 2.80864E-03
 -1     10069 0.00000E+00 1.00000E-01 1.00000E-03
 -1     10070 0.00000E+00 1.00000E-01 1.00000E-03
 -1     10071-8.71869E-04 9.93565E-02 2.18905E-03
 -1     10072 0.00000E+00 1.00000E-01 1.00000E-03
 -3
    1PSTEP                         2           1           1          
  100CL  101 1.000000000       10017                     0    1           1
 -4  STRESS      6    1
 -5  SXX         1    4    1    1
 -5  SYY         1    4    2    2
 -5  SZZ         1    4    3    3
 -5  SXY         1    4    1    2
 -5  SYZ         1    4    2    3
 -5  SZX         1    4    3    1
 -1        56-2.73676E+03-2.73676E+03-5.97341E+03-2.49790E-04 9.98451E+02 1.42162E+03
 -1        57-1.60379E+03-1.60379E+03-3.50050E+03-4.76981E-04 8.86057E+01 1.02859E+03
 -1        58 8.84947E+01-1.61576E+02-2.30181E+03-8.85722E+00 1.77756E+02-7.64318E+01
 -1        59 2.01035E+02 1.98708E+02-3.01443E+03-3.22864E+01-1.70028E+02-8.57663E+01
 -1        60-2.05169E+03-2.05169E+03-4.47812E+03-4.71914E-04 1.13762E+03 5.60163E+02
 -1        61-9.40088E+02-9.40091E+02-2.05187E+03-6.09655E-04 2.90785E+02 4.11652E+02
 -1        62-4.71309E+02-4.19008E+02-2.68078E+03 2.82628E+01 3.38496E+02 2.73449E+02
 -1        63-3.74104E+02 1.04282E+02-3.34969E+03-2.88170E+00-1.05528E+02 4.03806E+02
 -1        64-2.12432E+03-2.12432E+03-4.63681E+03 7.49727E-04 5.11939E+02 1.22202E+03
 -1        65-3.39342E+02-4.92317E+02-2.73656E+03 2.16844E+01 1.47099E+02 4.03487E+02
 -1        66 1.11403E+02-5.49908E+01-2.67455E+03-2.22636E+01 1.35333E+01-1.06744E+02
 -1        67-5.41018E+02-5.06609E+02-4.10021E+03 4.76135E+01 3.08714E+02 5.54727E+02
 -1        68-2.29312E+03-2.29311E+03-5.00524E+03 6.69201E-04 1.07897E+03 9.64713E+02
 -1        69-1.19768E+03-1.19768E+03-2.61424E+03 5.78644E-04 2.04179E+02 6.99562E+02
 -1        70-2.46969E+02-3.24934E+02-2.51720E+03 7.58303E+00 2.78946E+02 1.23853E+02
 -1        71-1.62964E+02 1.10264E+02-3.20736E+03-2.94121E+01-1.15195E+02 1.95449E+02
 -1        72-1.40865E+03-1.40865E+03-3.07472E+03 4.95985E-04 6.75801E+02 4.84771E+02
 -1        73-4.91491E+02-4.29344E+02-2.32429E+03 1.38971E+01 3.36340E+02 3.46444E+02
 -1        74-4.49271E+02-2.19934E+02-3.02060E+03 1.62301E+01 1.37580E+02 3.20649E+02
 -1        75-8.06873E+02-4.49645E+02-3.73078E+03 7.33359E+00 4.49378E+02 4.95024E+02
 -1        76-8.95061E+00 6.11907E+01-1.90604E+03 3.92121E+00 1.17510E+02-2.69688E+01
 -1        77-2.43782E+01-3.72969E+01-2.57645E+03-1.52832E+01-2.91524E+01-1.99918E+01
 -1        78-2.83478E+01 1.31076E+01-2.19000E+03 1.49160E+01 1.83882E+02 3.74396E+01
 -1        79-2.83316E+01-2.62085E+01-2.84308E+03-3.21646E+00-2.09536E+01 9.72525E+01
 -1        80 1.65910E+02 6.80479E+01-1.91316E+03-2.89130E-01 1.07010E+02-5.39933E+01
 -1        81-2.23177E+01 1.94713E+01-2.25486E+03-3.79389E+00 4.75017E+01-2.70102E+01
 -1        82 2.37990E+02 2.13762E+02-2.59985E+03-2.30379E+01-5.98931E+01-2.06761E+01
 -1        83-3.21148E+01 6.78212E+00-2.12381E+03 8.63446E+00 1.53606E+02 8.00042E+00
 -1        84-4.03772E+01-5.95398E+01-2.80497E+03-7.80366E+00-1.79378E+01 4.50233E+01
 -1        85-1.28286E+02-8.05602E+01-2.24462E+03 2.13495E+01 2.25779E+02 1.22673E+02
 -1        86-4.98651E+01-9.68421E+00-2.56881E+03 5.84078E+00 8.72039E+01 6.34309E+01
 -1        87-4.89583E+01 1.90453E+02-2.86737E+03-7.48023E+00-5.96158E+01 2.14347E+02
 -1        88 2.12368E+01 3.03770E+01-1.84893E+03-8.30092E-01 1.53900E+02-6.21735E+00
 -1        89 3.50901E+01 2.73818E+01-2.52521E+03-1.39690E+00 4.37848E+00-7.42140E+00
 -1        90-2.09497E+01-8.94025E-01-1.99718E+03 1.39341E+01 1.70765E+02-1.70796E+01
 -1        91-1.32025E+01 2.15675E+01-2.67500E+03-2.29973E+00 3.91151E+00-5.23426E+00
 -1        92-8.48068E+00 3.62074E+01-1.90769E+03 1.67720E+00 1.34139E+02-1.42806E+00
 -1        93 2.54463E+01 2.52783E+01-2.17911E+03-7.17557E-01 7.68503E+01-7.36509E+00
 -1        94-6.21198E+00-1.68462E+01-2.58496E+03-4.99227E+00-2.56829E+00 1.45071E+00
 -1        95-9.59239E+00 3.14507E+00-1.93874E+03 6.15117E+00 1.62457E+02-1.46727E+01
 -1        96-4.58265E+00 8.48335E+00-2.62986E+03-3.09317E+00 3.30271E+00-9.54790E+00
 -1        97-2.47484E+01 4.88175E+00-2.10462E+03 1.44647E+01 1.75461E+02 1.19863E+01
 -1        98-2.20458E+01 5.15946E+00-2.33669E+03 6.33050E+00 8.57674E+01-1.18547E+01
 -1        99-2.68934E+01-1.67659E+01-2.78868E+03-1.85127E+00 4.27602E+00 4.61470E+01
 -1       100-2.45355E-01 1.39960E+01-1.75730E+03 1.41160E-01 1.92470E+02-5.54690E+00
 -1       101-3.89429E-01-4.39361E+00-2.40254E+03-1.39147E+00 9.59244E+00-1.08198E+01
 -1       102-5.78164E+00 3.65238E+00-1.83682E+03 1.00056E+01 1.83172E+02-2.78553E+01
 -1       103-7.36927E+00-2.03573E+00-2.48217E+03-9.69075E-01 4.43245E+00-3.53431E+01
 -1       104 8.52254E+00 2.07379E+01-1.80607E+03-4.67642E-01 1.71259E+02-4.93987E+00
 -1       105 1.44497E+00 7.85033E+00-2.06985E+03-1.24276E-01 1.02307E+02-6.01867E+00
 -1       106 1.17366E+01 5.81083E+00-2.47436E+03-1.21642E+00 4.54773E+00-6.86120E+00
 -1       107-4.36387E+00 5.08221E+00-1.80145E+03 4.76588E+00 1.85555E+02-1.73710E+01
 -1       108-6.10917E+00-7.03754E+00-2.45110E+03-1.27167E+00 4.95149E+00-2.41400E+01
 -1       109-1.16767E+01 1.96962E+00-1.91547E+03 1.19256E+01 1.74886E+02-2.11482E+01
 -1       110-6.84678E+00 2.34406E+00-2.15582E+03 4.75120E+00 9.47395E+01-3.05735E+01
 -1       111-1.00813E+01 7.43801E+00-2.58101E+03-1.27304E+00 5.38476E-01-1.92309E+01
 -1       112 1.06910E+00 7.21727E+00-1.64313E+03 4.85245E-02 2.15804E+02-3.42045E+00
 -1       113 2.39168E+00 4.65090E-01-2.23628E+03-6.06787E-01 1.32680E+01-1.08407E+01
 -1       114-2.87905E+00 8.40552E-01-1.68735E+03 6.79982E+00 1.92202E+02-2.80914E+01
 -1       115-2.24341E+00 1.08946E+00-2.28065E+03-4.63802E-01 5.89345E+00-4.58601E+01
 -1       116 8.02489E-01 1.09979E+01-1.70078E+03 2.88909E-02 2.02364E+02-2.46521E+00
 -1       117 2.09559E+00 4.67224E+00-1.93478E+03-1.00253E-01 1.15891E+02-4.12639E+00
 -1       118 2.37934E+00-5.12974E-01-2.31853E+03-7.77140E-01 9.40705E+00-8.88915E+00
 -1       119-2.03247E+00 1.84572E+00-1.66685E+03 3.28520E+00 2.00934E+02-1.64200E+01
 -1       120-1.90770E+00-1.90725E+00-2.26280E+03-7.58440E-01 6.14414E+00-2.99221E+01
 -1       121-3.98564E+00 1.95174E+00-1.76319E+03 8.31751E+00 1.85717E+02-2.64792E+01
 -1       122-3.06512E+00 1.06204E+00-1.98208E+03 3.32550E+00 9.96122E+01-3.50900E+01
 -1       123-3.67825E+00-2.66778E-01-2.38170E+03-5.47303E-01 3.32044E+00-3.91211E+01
 -1       124-3.61698E-01 3.21138E+00-1.51282E+03 3.44126E-02 2.28891E+02-2.54262E+00
 -1       125 9.70655E-02-7.16501E-01-2.05220E+03-3.15535E-01 1.44851E+01-1.09459E+01
 -1       126-1.05901E+00 3.34531E-02-1.53615E+03 4.23086E+00 1.97691E+02-2.54400E+01
 -1       127-6.12271E-01-1.92449E-01-2.07537E+03-2.61467E-01 6.07234E+00-4.82157E+01
 -1       128 7.38574E-01 5.55741E+00-1.57809E+03-4.72554E-02 2.20076E+02-2.08261E+00
 -1       129 1.80894E-01 1.96335E+00-1.77969E+03-4.09718E-02 1.23418E+02-3.22554E+00
 -1       130 1.56384E+00 2.86507E-01-2.14453E+03-4.15224E-01 1.13755E+01-9.86188E+00
 -1       131-8.98661E-01 7.24783E-01-1.52459E+03 2.04518E+00 2.09864E+02-1.42942E+01
 -1       132-7.86029E-01-1.50516E+00-2.06510E+03-3.90764E-01 6.41646E+00-3.09462E+01
 -1       133-1.55633E+00 4.81456E-01-1.61191E+03 5.41737E+00 1.92532E+02-2.59685E+01
 -1       134-1.00163E+00 2.42144E-01-1.80457E+03 2.05730E+00 1.02604E+02-3.44304E+01
 -1       135-8.99051E-01 5.48315E-01-2.17818E+03-3.01385E-01 3.41544E+00-4.62421E+01
 -1       136-2.93203E-01 1.45173E+00-1.37021E+03 1.17987E-02 2.35720E+02-1.93961E+00
 -1       137 2.05105E-02-2.82149E-01-1.85467E+03-1.65736E-01 1.50274E+01-1.08011E+01
 -1       138-3.41442E-01-2.96376E-01-1.38218E+03 2.47629E+00 2.00629E+02-2.25635E+01
 -1       139 1.76958E-01-5.87315E-03-1.86640E+03-1.42972E-01 6.15415E+00-4.78547E+01
 -1       140 9.82876E-02 2.73443E+00-1.44137E+03-4.37996E-02 2.29911E+02-1.67935E+00
 -1       141-3.28010E-02 9.04946E-01-1.61113E+03-3.37847E-02 1.27184E+02-2.61083E+00
 -1       142 5.40639E-01 5.68042E-02-1.95318E+03-2.23528E-01 1.22162E+01-1.02821E+01
 -1       143-3.46543E-01 1.58095E-01-1.37597E+03 1.19595E+00 2.14652E+02-1.24293E+01
 -1       144-1.22965E-01-6.58723E-01-1.86093E+03-2.22949E-01 6.51794E+00-3.06585E+01
 -1       145-3.82674E-01 4.70764E-03-1.45921E+03 3.26987E+00 1.96689E+02-2.34777E+01
 -1       146-2.22282E-01-3.00280E-02-1.62378E+03 1.20026E+00 1.04081E+02-3.25155E+01
 -1       147 1.90240E-01 1.26805E-01-1.97084E+03-1.85919E-01 3.58686E+00-4.75087E+01
 -1       148-2.88892E-01 6.10921E-01-1.21995E+03-2.13163E-03 2.39139E+02-1.62135E+00
 -1       149-1.31207E-01-2.11654E-01-1.64980E+03-7.87333E-02 1.52036E+01-1.06828E+01
 -1       150-4.05419E-02-3.02818E-01-1.22579E+03 1.37589E+00 2.02116E+02-2.02997E+01
 -1       151 3.39973E-01-5.42043E-02-1.65542E+03-8.40319E-02 6.12655E+00-4.68133E+01
 -1       152-4.87236E-03 1.31506E+00-1.29498E+03-4.14555E-02 2.34953E+02-1.49132E+00
 -1       153-1.67794E-01 3.66670E-01-1.43429E+03-2.07883E-02 1.29029E+02-2.27313E+00
 -1       154 2.11086E-01 7.31922E-02-1.75215E+03-1.21461E-01 1.25647E+01-1.04268E+01
 -1       155-1.05852E-01-1.09810E-02-1.22260E+03 6.59173E-01 2.17094E+02-1.10475E+01
 -1       156 6.70397E-02-3.41450E-01-1.65263E+03-1.19593E-01 6.51526E+00-3.00252E+01
 -1       157 1.72039E-02-1.70056E-01-1.30400E+03 1.86510E+00 1.98856E+02-2.11340E+01
 -1       158 6.89857E-02-1.05883E-01-1.44041E+03 6.58761E-01 1.04806E+02-3.06959E+01
 -1       159 4.73135E-01 1.12331E-01-1.76092E+03-1.13192E-01 3.58950E+00-4.70349E+01
 -1       160-1.98508E-01 2.51875E-01-1.06499E+03-6.20726E-03 2.40791E+02-1.44254E+00
 -1       161-1.16657E-01-1.17250E-01-1.44058E+03-3.69712E-02 1.52605E+01-1.05923E+01
 -1       162 5.43372E-02-2.24822E-01-1.06769E+03 7.28708E-01 2.02842E+02-1.87426E+01
 -1       163 3.10571E-01-3.07261E-02-1.44312E+03-4.77434E-02 6.09950E+00-4.58457E+01
 -1       164-5.47746E-02 6.25339E-01-1.14241E+03-3.29371E-02 2.37464E+02-1.38006E+00
 -1       165-1.45763E-01 1.42062E-01-1.25257E+03-1.33161E-02 1.29897E+02-2.08135E+00
 -1       166 4.69049E-02 4.04927E-02-1.54515E+03-6.03281E-02 1.26997E+01-1.04746E+01
 -1       167-1.09754E-02-4.55974E-02-1.06614E+03 3.45804E-01 2.18299E+02-1.01339E+01
 -1       168 1.07467E-01-1.55111E-01-1.44180E+03-6.40935E-02 6.50048E+00-2.94675E+01
 -1       169 1.36312E-01-1.62016E-01-1.14676E+03 1.01214E+00 1.99958E+02-1.93532E+01
 -1       170 1.33385E-01-9.62424E-02-1.25537E+03 3.44456E-01 1.05144E+02-2.93424E+01
 -1       171 4.45939E-01 5.57328E-02-1.54930E+03-7.01343E-02 3.58479E+00-4.61611E+01
 -1       172-1.29897E-01 9.87729E-02-9.07343E+02-6.50222E-03 2.41565E+02-1.35009E+00
 -1       173-9.14192E-02-7.05082E-02-1.22899E+03-1.52784E-02 1.52731E+01-1.05375E+01
 -1       174 6.81541E-02-1.42445E-01-9.08504E+02 3.68498E-01 2.03190E+02-1.77590E+01
 -1       175 2.22171E-01-2.38736E-02-1.23004E+03-2.69924E-02 6.07789E+00-4.51412E+01
 -1       176-5.13883E-02 2.94223E-01-9.86154E+02-2.31892E-02 2.38668E+02-1.32242E+00
 -1       177-1.07707E-01 4.75391E-02-1.06812E+03-7.59102E-03 1.30296E+02-1.98086E+00
 -1       178-7.67764E-03 2.25629E-02-1.33480E+03-2.88968E-02 1.27514E+01-1.04852E+01
 -1       179 1.81485E-02-3.59456E-02-9.07804E+02 1.72485E-01 2.18878E+02-9.57035E+00
 -1       180 8.82609E-02-7.21230E-02-1.22947E+03-3.29502E-02 6.48561E+00-2.90696E+01
 -1       181 1.35791E-01-1.14980E-01-9.88130E+02 5.23977E-01 2.00496E+02-1.81618E+01
 -1       182 1.19058E-01-6.79977E-02-1.06930E+03 1.71227E-01 1.05302E+02-2.84501E+01
 -1       183 3.28091E-01 3.12546E-02-1.33663E+03-4.17141E-02 3.57554E+00-4.54047E+01
 -1       184-7.81323E-02 3.72168E-02-7.48220E+02-5.02895E-03 2.41918E+02-1.30364E+00
 -1       185-6.12115E-02-4.03732E-02-1.01612E+03-5.55747E-03 1.52737E+01-1.05073E+01
 -1       186 5.50055E-02-8.17477E-02-7.48666E+02 1.77301E-01 2.03354E+02-1.71747E+01
 -1       187 1.41252E-01-1.57858E-02-1.01649E+03-1.47470E-02 6.06531E+00-4.46875E+01
 -1       188-3.92619E-02 1.37325E-01-8.27795E+02-1.51093E-02 2.39230E+02-1.29280E+00
 -1       189-6.92049E-02 1.22460E-02-8.82183E+02-4.10816E-03 1.30474E+02-1.93001E+00
 -1       190-2.23126E-02 9.56931E-03-1.12259E+03-1.24951E-02 1.27703E+01-1.04859E+01
 -1       191 2.15930E-02-2.07445E-02-7.48385E+02 8.15501E-02 2.19149E+02-9.24207E+00
 -1       192 5.96982E-02-3.20183E-02-1.01628E+03-1.64383E-02 6.47610E+00-2.88177E+01
 -1       193 1.02864E-01-6.90813E-02-8.28625E+02 2.58630E-01 2.00756E+02-1.74217E+01
 -1       194 8.51609E-02-4.20204E-02-8.82628E+02 8.06857E-02 1.05374E+02-2.79063E+01
 -1       195 2.13183E-01 1.46655E-02-1.12332E+03-2.41388E-02 3.56993E+00-4.48699E+01
 -1       196-4.48306E-02 1.31610E-02-5.88318E+02-3.40807E-03 2.42072E+02-1.28171E+00
 -1       197-3.81905E-02-2.30082E-02-8.02565E+02-1.37286E-03 1.52718E+01-1.04922E+01
 -1       198 3.74799E-02-4.34074E-02-5.88455E+02 8.05621E-02 2.03432E+02-1.68450E+01
 -1       199 8.25047E-02-1.04321E-02-8.02661E+02-7.82359E-03 6.05856E+00-4.44180E+01
 -1       200-2.61320E-02 6.33564E-02-6.68294E+02-9.18294E-03 2.39483E+02-1.27855E+00
 -1       201-4.13444E-02 5.14250E-04-6.95477E+02-2.04634E-03 1.30551E+02-1.90586E+00
 -1       202-2.07726E-02 2.90991E-03-9.09380E+02-4.82250E-03 1.27771E+01-1.04848E+01
 -1       203 1.69777E-02-9.67289E-03-5.88366E+02 3.61635E-02 2.19274E+02-9.05982E+00
 -1       204 3.59520E-02-1.40701E-02-8.02614E+02-7.84367E-03 6.47065E+00-2.86702E+01
 -1       205 6.80951E-02-3.73677E-02-6.68600E+02 1.21051E-01 2.00879E+02-1.69885E+01
 -1       206 5.42529E-02-2.37936E-02-6.95608E+02 3.56441E-02 1.05408E+02-2.75943E+01
 -1       207 1.27334E-01 6.26354E-03-9.09630E+02-1.34203E-02 3.56689E+00-4.45322E+01
 -1       208-2.43872E-02 4.30565E-03-4.28020E+02-2.08370E-03 2.42137E+02-1.27197E+00
 -1       209-2.22050E-02-1.26921E-02-5.88677E+02 1.01967E-04 1.52703E+01-1.04855E+01
 -1       210 2.29960E-02-2.14345E-02-4.28042E+02 3.40525E-02 2.03468E+02-1.66675E+01
 -1       211 4.49746E-02-6.46507E-03-5.88675E+02-3.98468E-03 6.05531E+00-4.42679E+01
 -1       212-1.60847E-02 2.87643E-02-5.08196E+02-5.27161E-03 2.39594E+02-1.27206E+00
 -1       213-2.30499E-02-2.23951E-03-5.08384E+02-9.41901E-04 1.30583E+02-1.89508E+00
 -1       214-1.51584E-02-6.29988E-05-6.95659E+02-1.44832E-03 1.27795E+01-1.04841E+01
 -1       215 1.12480E-02-3.52845E-03-4.28029E+02 1.47535E-02 2.19329E+02-8.96321E+00
 -1       216 1.99089E-02-5.99185E-03-5.88687E+02-3.56167E-03 6.46784E+00-2.85892E+01
 -1       217 4.13618E-02-1.84016E-02-5.08283E+02 5.31507E-02 2.00937E+02-1.67472E+01
 -1       218 3.17836E-02-1.25031E-02-5.08398E+02 1.44710E-02 1.05423E+02-2.74246E+01
 -1       219 7.11685E-02 2.11292E-03-6.95713E+02-7.18009E-03 3.56552E+00-4.43347E+01
 -1       220-1.23841E-02 1.30940E-03-2.67532E+02-1.15631E-03 2.42163E+02-1.26798E+00
 -1       221-1.19206E-02-6.66134E-03-3.74626E+02 4.35175E-04 1.52694E+01-1.04828E+01
 -1       222 1.27613E-02-9.63685E-03-2.67521E+02 1.29630E-02 2.03484E+02-1.65771E+01
 -1       223 2.26063E-02-3.72310E-03-3.74603E+02-1.91649E-03 6.05387E+00-4.41895E+01
 -1       224-9.17036E-03 1.27399E-02-3.47798E+02-2.83909E-03 2.39640E+02-1.26934E+00
 -1       225-1.18656E-02-2.04125E-03-3.21104E+02-3.87528E-04 1.30596E+02-1.89066E+00
 -1       226-9.59996E-03-9.70776E-04-4.81681E+02-1.80478E-04 1.27805E+01-1.04838E+01
 -1       227 6.53340E-03-7.24752E-04-2.67530E+02 5.31143E-03 2.19352E+02-8.91463E+00
 -1       228 1.00606E-02-2.48032E-03-3.74625E+02-1.50241E-03 6.46651E+00-2.85475E+01
 -1       229 2.32684E-02-8.19065E-03-3.47807E+02 2.14323E-02 2.00964E+02-1.66193E+01
 -1       230 1.70386E-02-5.99684E-03-3.21088E+02 5.17197E-03 1.05430E+02-2.73374E+01
 -1       231 3.72258E-02 3.93858E-04-4.81672E+02-3.65251E-03 3.56500E+00-4.42265E+01
 -1       232-5.17494E-03 5.05963E-04-1.06958E+02-5.34794E-04 2.42173E+02-1.26649E+00
 -1       233-5.24050E-03-2.95519E-03-1.60501E+02 3.14187E-04 1.52691E+01-1.04818E+01
 -1       234 5.77164E-03-3.40053E-03-1.06948E+02 3.83148E-03 2.03491E+02-1.65354E+01
 -1       235 9.40847E-03-1.73188E-03-1.60486E+02-7.91410E-04 6.05334E+00-4.41528E+01
 -1       236-4.63360E-03 5.35687E-03-1.87257E+02-1.37354E-03 2.39657E+02-1.26830E+00
 -1       237-4.98259E-03-1.04865E-03-1.33740E+02-1.29473E-04 1.30601E+02-1.88902E+00
 -1       238-5.21149E-03-9.33853E-04-2.67580E+02 1.61675E-04 1.27809E+01-1.04838E+01
 -1       239 3.01454E-03 2.68355E-04-1.06954E+02 1.41419E-03 2.19362E+02-8.89252E+00
 -1       240 4.14887E-03-9.22514E-04-1.60498E+02-5.30951E-04 6.46597E+00-2.85283E+01
 -1       241 1.16413E-02-3.06899E-03-1.87249E+02 7.46805E-03 2.00976E+02-1.65561E+01
 -1       242 7.50776E-03-2.27949E-03-1.33728E+02 1.35835E-03 1.05433E+02-2.72971E+01
 -1       243 1.74762E-02-1.53184E-04-2.67563E+02-1.68912E-03 3.56485E+00-4.41717E+01
 -1       244-4.47801E-05 4.57553E-04 5.36499E+01-8.98472E-05 2.42175E+02-1.26606E+00
 -1       245-2.15598E-04-2.15598E-04 5.36536E+01 4.26518E-05 1.52691E+01-1.04815E+01
 -1       246 4.12372E-04 4.12372E-04 5.36462E+01-7.40922E-04 2.03493E+02-1.65233E+01
 -1       247 4.57552E-04-4.47800E-05 5.36499E+01-8.98474E-05 6.05328E+00-4.41420E+01
 -1       248-1.45826E-03 1.73542E-03-2.66551E+01-4.45917E-04 2.39664E+02-1.26793E+00
 -1       249-4.74024E-05 9.76656E-05 5.36566E+01-5.80695E-06 1.30602E+02-1.88857E+00
 -1       250-1.78308E-03-5.07495E-04-5.34262E+01 1.30489E-04 1.27811E+01-1.04838E+01
 -1       251 1.75973E-04 4.86199E-04 5.36528E+01-4.12510E-04 2.19364E+02-8.88610E+00
 -1       252 9.76657E-05-4.74023E-05 5.36566E+01-5.80701E-06 6.46589E+00-2.85226E+01
 -1       253 3.75279E-03-4.95389E-04-2.66525E+01 1.29551E-03 2.00981E+02-1.65303E+01
 -1       254 4.86199E-04 1.75973E-04 5.36528E+01-4.12510E-04 1.05434E+02-2.72854E+01
 -1       255 5.33645E-03-1.61496E-04-5.34211E+01-5.26585E-04 3.56485E+00-4.41490E+01
 -1       256 5.30146E-03 5.03794E-04 2.14258E+02 3.10736E-04 2.42173E+02-1.26625E+00
 -1       257 5.02641E-03 2.74110E-03 2.67809E+02-2.50469E-04 1.52693E+01-1.04816E+01
 -1       258-5.07500E-03 4.09717E-03 2.14240E+02-5.57157E-03 2.03491E+02-1.65353E+01
 -1       259-8.39872E-03 1.85840E-03 2.67786E+02 5.67351E-04 6.05359E+00-4.41526E+01
 -1       260 1.35407E-03-8.17958E-04 1.33965E+02 2.84675E-04 2.39664E+02-1.26785E+00
 -1       261 5.02583E-03 1.29025E-03 2.41054E+02 9.07466E-05 1.30601E+02-1.88884E+00
 -1       262 1.35625E-03 8.06692E-05 1.60743E+02-8.01703E-06 1.27812E+01-1.04838E+01
 -1       263-2.71781E-03 5.85950E-04 2.14259E+02-2.39731E-03 2.19362E+02-8.89232E+00
 -1       264-3.90727E-03 9.65758E-04 2.67811E+02 4.92225E-04 6.46616E+00-2.85280E+01
 -1       265-3.02833E-03 1.21985E-03 1.33954E+02-2.86723E-03 2.00981E+02-1.65302E+01
 -1       266-6.65346E-03 2.57623E-03 2.41033E+02-2.34147E-03 1.05434E+02-2.72971E+01
 -1       267-4.41899E-03 5.73034E-05 1.60730E+02 3.65342E-04 3.56493E+00-4.41489E+01
 -1       268 1.32718E-02-4.48939E-05 3.74833E+02 7.92397E-04 2.42162E+02-1.26749E+00
 -1       269 1.24994E-02 7.24006E-03 4.81937E+02-4.53889E-04 1.52699E+01-1.04823E+01
 -1       270-1.25797E-02 9.81851E-03 3.74810E+02-1.54807E-02 2.03483E+02-1.65783E+01
 -1       271-2.13418E-02 4.61075E-03 4.81903E+02 1.55258E-03 6.05436E+00-4.41907E+01
 -1       272 4.83105E-03-4.42581E-03 2.94567E+02 1.12130E-03 2.39657E+02-1.26805E+00
 -1       273 1.23981E-02 2.42821E-03 4.28418E+02 2.55170E-04 1.30596E+02-1.89030E+00
 -1       274 5.04820E-03 7.70557E-04 3.74899E+02-8.92513E-05 1.27811E+01-1.04836E+01
 -1       275-6.45835E-03 1.08688E-03 3.74833E+02-6.77742E-03 2.19351E+02-8.91498E+00
 -1       276-9.67365E-03 3.01288E-03 4.81939E+02 1.37005E-03 6.46687E+00-2.85479E+01
 -1       277-1.13389E-02 3.37146E-03 2.94548E+02-9.56133E-03 2.00976E+02-1.65567E+01
 -1       278-1.66764E-02 6.07189E-03 4.28391E+02-6.63796E-03 1.05430E+02-2.73389E+01
 -1       279-1.65452E-02 3.50638E-04 3.74872E+02 1.43688E-03 3.56509E+00-4.41722E+01
 -1       280 2.69379E-02-2.74416E-03 5.35317E+02 1.46810E-03 2.42131E+02-1.27128E+00
 -1       281 2.46089E-02 1.50960E-02 6.95987E+02-3.21753E-04 1.52709E+01-1.04849E+01
 -1       282-2.41507E-02 2.02798E-02 5.35322E+02-3.78338E-02 2.03461E+02-1.66739E+01
 -1       283-4.34131E-02 9.01577E-03 6.95971E+02 3.36908E-03 6.05599E+00-4.42745E+01
 -1       284 1.01353E-02-1.19261E-02 4.55105E+02 2.38710E-03 2.39636E+02-1.26891E+00
 -1       285 2.46615E-02 2.88594E-03 6.15693E+02 6.11093E-04 1.30580E+02-1.89460E+00
 -1       286 1.01627E-02 1.53356E-03 5.88999E+02 1.08096E-04 1.27809E+01-1.04834E+01
 -1       287-1.17475E-02 2.56287E-03 5.35324E+02-1.70307E-02 2.19322E+02-8.96598E+00
 -1       288-1.92624E-02 7.60351E-03 6.95996E+02 3.23086E-03 6.46833E+00-2.85922E+01
 -1       289-2.41355E-02 7.32364E-03 4.55101E+02-2.45619E-02 2.00960E+02-1.66230E+01
 -1       290-3.27492E-02 1.20037E-02 6.15693E+02-1.67482E-02 1.05420E+02-2.74314E+01
 -1       291-3.64119E-02 5.71086E-04 5.88979E+02 3.20051E-03 3.56542E+00-4.42303E+01
 -1       292 5.05994E-02-1.15654E-02 6.95596E+02 2.41864E-03 2.42052E+02-1.28104E+00
 -1       293 4.43193E-02 2.91369E-02 9.09858E+02 7.19688E-04 1.52724E+01-1.04917E+01
 -1       294-4.16579E-02 3.92293E-02 6.95714E+02-8.58783E-02 2.03413E+02-1.68638E+01
 -1       295-8.09092E-02 1.62008E-02 9.09939E+02 6.83416E-03 6.05924E+00-4.44382E+01
 -1       296 1.86424E-02-2.85601E-02 6.15491E+02 4.48217E-03 2.39581E+02-1.27146E+00
 -1       297 4.50653E-02 5.13430E-04 8.02765E+02 1.34447E-03 1.30541E+02-1.90545E+00
 -1       298 1.73619E-02 2.26652E-03 8.02967E+02 1.03299E-03 1.27801E+01-1.04835E+01
 -1       299-1.87755E-02 5.61458E-03 6.95638E+02-3.95001E-02 2.19254E+02-9.06892E+00
 -1       300-3.49243E-02 1.77910E-02 9.09903E+02 7.14179E-03 6.47106E+00-2.86801E+01
 -1       301-4.48863E-02 1.48772E-02 6.15561E+02-5.77271E-02 2.00925E+02-1.67594E+01
 -1       302-5.83112E-02 2.19959E-02 8.02879E+02-3.89806E-02 1.05399E+02-2.76142E+01
 -1       303-7.09642E-02 4.44753E-04 8.03009E+02 6.39065E-03 3.56613E+00-4.43476E+01
 -1       304 8.96531E-02-3.65477E-02 8.55448E+02 3.57487E-03 2.41869E+02-1.30354E+00
 -1       305 7.43508E-02 5.35125E-02 1.12335E+03 4.04997E-03 1.52735E+01-1.05075E+01
 -1       306-6.53928E-02 7.13605E-02 8.55875E+02-1.83711E-01 2.03309E+02-1.72198E+01
 -1       307-1.40583E-01 2.73066E-02 1.12372E+03 1.32929E-02 6.06541E+00-4.47365E+01
 -1       308 3.17079E-02-6.49910E-02 7.75554E+02 7.89698E-03 2.39450E+02-1.27787E+00
 -1       309 7.67327E-02-1.07581E-02 9.89411E+02 2.76628E-03 1.30449E+02-1.93017E+00
 -1       310 2.63358E-02 2.65328E-03 1.01665E+03 3.67864E-03 1.27776E+01-1.04843E+01
 -1       311-2.60553E-02 1.01960E-02 8.55600E+02-8.58558E-02 2.19102E+02-9.26483E+00
 -1       312-5.82103E-02 3.95461E-02 1.12351E+03 1.50964E-02 6.47595E+00-2.88426E+01
 -1       313-7.70878E-02 2.83750E-02 7.75842E+02-1.27060E-01 2.00848E+02-1.70194E+01
 -1       314-9.57094E-02 3.75581E-02 9.89843E+02-8.49914E-02 1.05351E+02-2.79535E+01
 -1       315-1.28969E-01-6.87728E-04 1.01689E+03 1.21343E-02 3.56756E+00-4.45655E+01
 -1       316 1.51025E-01-1.01412E-01 1.01445E+03 4.64886E-03 2.41461E+02-1.35187E+00
 -1       317 1.16890E-01 9.59789E-02 1.33609E+03 1.21976E-02 1.52707E+01-1.05399E+01
 -1       318-9.03061E-02 1.20293E-01 1.01561E+03-3.73751E-01 2.03094E+02-1.78543E+01
 -1       319-2.24810E-01 4.50010E-02 1.33715E+03 2.51390E-02 6.07611E+00-4.52454E+01
 -1       320 5.01670E-02-1.43404E-01 9.34970E+02 1.32022E-02 2.39156E+02-1.29240E+00
 -1       321 1.21667E-01-4.56736E-02 1.17521E+03 5.22560E-03 1.30242E+02-1.98269E+00
 -1       322 3.42424E-02 2.36043E-03 1.22975E+03 9.92553E-03 1.27704E+01-1.04858E+01
 -1       323-2.76547E-02 1.28750E-02 1.01490E+03-1.76731E-01 2.18779E+02-9.61961E+00
 -1       324-8.63953E-02 8.60828E-02 1.33656E+03 3.05848E-02 6.48377E+00-2.91236E+01
 -1       325-1.22255E-01 4.96897E-02 9.35791E+02-2.64865E-01 2.00688E+02-1.74894E+01
 -1       326-1.42128E-01 5.84915E-02 1.17640E+03-1.75473E-01 1.05252E+02-2.85491E+01
 -1       327-2.19263E-01-3.76043E-03 1.23050E+03 2.22318E-02 3.57032E+00-4.49435E+01
 -1       328 2.34186E-01-2.63015E-01 1.17186E+03 4.43926E-03 2.40589E+02-1.44889E+00
 -1       329 1.62039E-01 1.62632E-01 1.54737E+03 3.12276E-02 1.52532E+01-1.05996E+01
 -1       330-9.71955E-02 1.81964E-01 1.17461E+03-7.26590E-01 2.02658E+02-1.89261E+01
 -1       331-3.21712E-01 6.64040E-02 1.54999E+03 4.59754E-02 6.09315E+00-4.60471E+01
 -1       332 7.09814E-02-3.09754E-01 1.09315E+03 2.07219E-02 2.38521E+02-1.32320E+00
 -1       333 1.69583E-01-1.40419E-01 1.35937E+03 9.47889E-03 1.29791E+02-2.08707E+00
 -1       334 3.07936E-02 5.53066E-04 1.44174E+03 2.37520E-02 1.27502E+01-1.04864E+01
 -1       335-7.41252E-03 1.14695E-04 1.17301E+03-3.46813E-01 2.18109E+02-1.02306E+01
 -1       336-1.05824E-01 1.78932E-01 1.54860E+03 6.02563E-02 6.49476E+00-2.95737E+01
 -1       337-1.73549E-01 7.72221E-02 1.09515E+03-5.26455E-01 2.00362E+02-1.82959E+01
 -1       338-1.78867E-01 7.78545E-02 1.36224E+03-3.45466E-01 1.05048E+02-2.95322E+01
 -1       339-3.43622E-01-1.16615E-02 1.44363E+03 3.92468E-02 3.57476E+00-4.55516E+01
 -1       340 3.45118E-01-6.40501E-01 1.32636E+03 1.96412E-03 2.38778E+02-1.63750E+00
 -1       341 2.06971E-01 2.87418E-01 1.75599E+03 6.87295E-02 1.51859E+01-1.07005E+01
 -1       342-3.61983E-02 2.26077E-01 1.33239E+03-1.35240E+00 2.01789E+02-2.06266E+01
 -1       343-3.69554E-01 1.10431E-01 1.76184E+03 8.38644E-02 6.11039E+00-4.71735E+01
 -1       344 8.75415E-02-6.59292E-01 1.24906E+03 3.05344E-02 2.37194E+02-1.38391E+00
 -1       345 2.05914E-01-3.66723E-01 1.54054E+03 1.50950E-02 1.28836E+02-2.28694E+00
 -1       346-5.41905E-03 9.93170E-04 1.65163E+03 5.08238E-02 1.26951E+01-1.04792E+01
 -1       347 7.29869E-02-7.19176E-02 1.32905E+03-6.49354E-01 2.16758E+02-1.12227E+01
 -1       348-6.70925E-02 3.79570E-01 1.75888E+03 1.13900E-01 6.50145E+00-3.02178E+01
 -1       349-2.04263E-01 9.40646E-02 1.25352E+03-1.00115E+00 1.99712E+02-1.95986E+01
 -1       350-1.51884E-01 7.30179E-02 1.54687E+03-6.48942E-01 1.04631E+02-3.10326E+01
 -1       351-4.79892E-01-2.29658E-02 1.65595E+03 6.77316E-02 3.58094E+00-4.64311E+01
 -1       352 3.69956E-01-1.51932E+00 1.47584E+03-6.88943E-03 2.35123E+02-1.97429E+00
 -1       353 9.21029E-02 3.94762E-01 1.95979E+03 1.49801E-01 1.49905E+01-1.08381E+01
 -1       354 2.14010E-01 1.68944E-01 1.48825E+03-2.40324E+00 2.00088E+02-2.31038E+01
 -1       355-2.44551E-01 8.26255E-02 1.97203E+03 1.47882E-01 6.11947E+00-4.84520E+01
 -1       356 5.44337E-02-1.38247E+00 1.40101E+03 4.10071E-02 2.34493E+02-1.50216E+00
 -1       357 8.56981E-02-9.11452E-01 1.71643E+03 2.65796E-02 1.26859E+02-2.63963E+00
 -1       358-1.42571E-01-4.67672E-03 1.85780E+03 1.05260E-01 1.25529E+01-1.04386E+01
 -1       359 2.91774E-01-2.98367E-01 1.48175E+03-1.15956E+00 2.14098E+02-1.27244E+01
 -1       360 1.16458E-01 7.11621E-01 1.96623E+03 2.15744E-01 6.48914E+00-3.09831E+01
 -1       361-1.30424E-01 5.68356E-02 1.41033E+03-1.82014E+00 1.98439E+02-2.15507E+01
 -1       362 8.20104E-02-2.47411E-02 1.72956E+03-1.16387E+00 1.03786E+02-3.30695E+01
 -1       363-5.40542E-01-6.27698E-02 1.86695E+03 1.12744E-01 3.57867E+00-4.74953E+01
 -1       364 4.62270E-01-3.34703E+00 1.61717E+03-1.65780E-02 2.27981E+02-2.61274E+00
 -1       365 6.78181E-02 8.81384E-01 2.15552E+03 2.92303E-01 1.44127E+01-1.10183E+01
 -1       366 8.62317E-01-2.30147E-01 1.64146E+03-4.05674E+00 1.96870E+02-2.62610E+01
 -1       367 4.76619E-01 2.93021E-01 2.17973E+03 2.79302E-01 6.00223E+00-4.91257E+01
 -1       368-2.81768E-02-2.85955E+00 1.54637E+03 5.00817E-02 2.29186E+02-1.70349E+00
 -1       369-1.07561E-01-1.98138E+00 1.88344E+03 3.38929E-02 1.22914E+02-3.28211E+00
 -1       370-4.34285E-01 4.95490E-02 2.05739E+03 1.97886E-01 1.21902E+01-1.03082E+01
 -1       371 8.15179E-01-9.46810E-01 1.62933E+03-1.95199E+00 2.09027E+02-1.47524E+01
 -1       372 7.67999E-01 1.57850E+00 2.16885E+03 3.83686E-01 6.35988E+00-3.14498E+01
 -1       373 2.07745E-01-1.79637E-01 1.56491E+03-3.15177E+00 1.96036E+02-2.41303E+01
 -1       374 7.79603E-01-3.25627E-01 1.90931E+03-1.96411E+00 1.02146E+02-3.52672E+01
 -1       375-3.15357E-01-5.66942E-02 2.07583E+03 1.92201E-01 3.56272E+00-4.82330E+01
 -1       376-1.02972E+00-7.49243E+00 1.74558E+03-2.66805E-03 2.14562E+02-3.54363E+00
 -1       377-2.26323E+00-3.36640E-01 2.33678E+03 5.76444E-01 1.31426E+01-1.09661E+01
 -1       378 2.61561E+00-1.10399E+00 1.79170E+03-6.43807E+00 1.91087E+02-2.92063E+01
 -1       379 1.96825E+00-1.05008E+00 2.38309E+03 5.09659E-01 5.77026E+00-4.71014E+01
 -1       380-6.71268E-01-5.77707E+00 1.68152E+03 7.06735E-02 2.19041E+02-2.13546E+00
 -1       381-2.06279E+00-4.73770E+00 2.03622E+03 1.01125E-01 1.15180E+02-4.22535E+00
 -1       382-1.42774E+00-1.50411E-01 2.24649E+03 3.78499E-01 1.13240E+01-9.91338E+00
 -1       383 1.91552E+00-2.15753E+00 1.77020E+03-3.08348E+00 1.99807E+02-1.70668E+01
 -1       384 1.84225E+00 1.94005E+00 2.36425E+03 7.59311E-01 6.04518E+00-3.06329E+01
 -1       385 1.31775E+00-7.20042E-01 1.71676E+03-5.15747E+00 1.91603E+02-2.68972E+01
 -1       386 2.75330E+00-1.17899E+00 2.08543E+03-3.12378E+00 9.89654E+01-3.62164E+01
 -1       387 6.79387E-01-4.81009E-01 2.28161E+03 3.24803E-01 3.36259E+00-4.72774E+01
 -1       388 3.30894E-01-1.44570E+01 1.85730E+03-3.98080E-02 1.91085E+02-5.78633E+00
 -1       389 6.70874E-01 4.67506E+00 2.49922E+03 1.37924E+00 9.35663E+00-1.10556E+01
 -1       390 5.45304E+00-3.98098E+00 1.94027E+03-9.32302E+00 1.81926E+02-2.91015E+01
 -1       391 6.90820E+00 2.12127E+00 2.58217E+03 1.07043E+00 4.19302E+00-3.67280E+01
 -1       392-7.16042E-01-1.13664E+01 1.80208E+03 3.16387E-02 2.01112E+02-2.55288E+00
 -1       393-1.33251E+00-7.92921E+00 2.16825E+03 1.47244E-01 1.01475E+02-6.20055E+00
 -1       394-2.18856E+00 7.03758E-01 2.41716E+03 7.36453E-01 9.31054E+00-8.98566E+00
 -1       395 4.23966E+00-5.49511E+00 1.90324E+03-4.36791E+00 1.84322E+02-1.81371E+01
 -1       396 6.03029E+00 7.15000E+00 2.54950E+03 1.29464E+00 4.76961E+00-2.49713E+01
 -1       397 3.70105E+00-2.23634E+00 1.86717E+03-7.80468E+00 1.84601E+02-2.75957E+01
 -1       398 6.43388E+00-2.46827E+00 2.25760E+03-4.35323E+00 9.39734E+01-3.18063E+01
 -1       399 3.30974E+00 3.53226E-01 2.48300E+03 6.07833E-01 3.23278E+00-4.03735E+01
 -1       400-2.22991E+01-3.13212E+01 1.94624E+03 1.06419E+00 1.53025E+02-6.51295E+00
 -1       401-3.63427E+01-2.86344E+01 2.61665E+03 1.35243E+00 4.08230E+00-7.71759E+00
 -1       402 2.11136E+01 1.05789E+00 2.10088E+03-1.27939E+01 1.69999E+02-1.78451E+01
 -1       403 1.22583E+01-2.26297E+01 2.77232E+03 2.53382E+00 3.61592E+00-6.10957E+00
 -1       404-8.82455E+00-2.13260E+01 1.90495E+03 6.21700E-01 1.70156E+02-5.17854E+00
 -1       405-2.62957E+01-2.58480E+01 2.27427E+03 8.13306E-01 7.61263E+01-7.62466E+00
 -1       406-1.18478E+01-5.92201E+00 2.56903E+03 1.17142E+00 4.35998E+00-7.04895E+00
 -1       407 9.54273E+00-3.23703E+00 2.03986E+03-5.44977E+00 1.61751E+02-1.53329E+01
 -1       408 4.01295E+00-9.33270E+00 2.72502E+03 3.18892E+00 3.04314E+00-1.02719E+01
 -1       409 1.15672E+01-2.07912E+00 2.01901E+03-1.10162E+01 1.73920E+02-2.21147E+01
 -1       410 2.19538E+01-5.20912E+00 2.43780E+03-5.62910E+00 8.51072E+01-1.25604E+01
 -1       411 9.49322E+00-7.74002E+00 2.67988E+03 1.42709E+00 2.99798E-01-2.03341E+01
 -1       412 9.29095E+00-6.28239E+01 2.00092E+03-3.63436E+00 1.19919E+02-2.82748E+01
 -1       413 2.53538E+01 3.82725E+01 2.66175E+03 1.59314E+01-3.03612E+01-2.12006E+01
 -1       414 2.87626E+01-1.26928E+01 2.29694E+03-1.32252E+01 1.86021E+02 3.95783E+01
 -1       415 2.66985E+01 2.65489E+01 2.93796E+03 3.50331E+00-2.22596E+01 9.96609E+01
 -1       416 8.94201E+00-3.69535E+01 2.00531E+03-1.42836E+00 1.34846E+02-1.53280E+00
 -1       417 2.37273E+01-1.93260E+01 2.34806E+03 4.17591E+00 4.83017E+01-2.81123E+01
 -1       418 6.86572E+00 1.74999E+01 2.67508E+03 5.15722E+00-2.74408E+00 1.27491E+00
 -1       419 3.31195E+01-6.11239E+00 2.22830E+03-7.56711E+00 1.55949E+02 8.59682E+00
 -1       420 4.05225E+01 6.09494E+01 2.89817E+03 8.18568E+00-1.90400E+01 4.58233E+01
 -1       421 2.50909E+01-4.53923E+00 2.21045E+03-1.30197E+01 1.76155E+02 1.26803E+01
 -1       422 5.05348E+01 1.06888E+01 2.67329E+03-4.77343E+00 8.78003E+01 6.57740E+01
 -1       423 2.61473E+01 1.72272E+01 2.88629E+03 2.10011E+00 4.17128E+00 4.68537E+01
 -1       424-9.32459E+01 1.72426E+02 2.41396E+03 9.49025E+00 1.91546E+02-8.01562E+01
 -1       425-2.09488E+02-2.07161E+02 3.11813E+03 3.33427E+01-1.75032E+02-9.07706E+01
 -1       426 4.92725E+02 4.40425E+02 2.80652E+03-2.70261E+01 3.52296E+02 2.87249E+02
 -1       427 3.84954E+02-1.09034E+02 3.46184E+03 3.51472E+00-1.09253E+02 4.17596E+02
 -1       428-1.74346E+02-6.93586E+01 2.00713E+03 9.23285E-01 1.13421E+02-5.66854E+01
 -1       429-1.16637E+02 5.93309E+01 2.78351E+03 2.33816E+01 1.91102E+01-1.11355E+02
 -1       430-2.47802E+02-2.23574E+02 2.68540E+03 2.40146E+01-6.17194E+01-2.25024E+01
 -1       431 2.57925E+02 3.42378E+02 2.63715E+03-6.65047E+00 2.92458E+02 1.30121E+02
 -1       432 1.67304E+02-1.15498E+02 3.31633E+03 3.05301E+01-1.19807E+02 2.01025E+02
 -1       433 1.33649E+02 8.59229E+01 2.35225E+03-1.97703E+01 2.32117E+02 1.29011E+02
 -1       434 4.66716E+02 2.30889E+02 3.14056E+03-1.52975E+01 1.43848E+02 3.34162E+02
 -1       435 4.76477E+01-1.98889E+02 2.96134E+03 8.11439E+00-6.23079E+01 2.20758E+02
 -1       436 1.68178E+03 1.68178E+03 3.67073E+03 4.70634E-04 1.08253E+02 1.07900E+03
 -1       437 2.84736E+03 2.84736E+03 6.21481E+03 2.43851E-04 1.05154E+03 1.47471E+03
 -1       438 9.84003E+02 9.84005E+02 2.14772E+03 5.99696E-04 3.10514E+02 4.31380E+02
 -1       439 2.12968E+03 2.12969E+03 4.64836E+03 4.65567E-04 1.18803E+03 5.79810E+02
 -1       440 3.57134E+02 5.21573E+02 2.87153E+03-2.17335E+01 1.64263E+02 4.23357E+02
 -1       441 2.21521E+03 2.21521E+03 4.83519E+03-7.53854E-04 5.47343E+02 1.27355E+03
 -1       442 5.63778E+02 5.29369E+02 4.25842E+03-4.91243E+01 3.27911E+02 5.73924E+02
 -1       443 1.25492E+03 1.25492E+03 2.73916E+03-5.73287E-04 2.23671E+02 7.33568E+02
 -1       444 2.38400E+03 2.38400E+03 5.20362E+03-6.73328E-04 1.13050E+03 1.00012E+03
 -1       445 5.14929E+02 4.52782E+02 2.43399E+03-1.32872E+01 3.53373E+02 3.63476E+02
 -1       446 1.46589E+03 1.46588E+03 3.19965E+03-4.90628E-04 7.09807E+02 5.04263E+02
 -1       447 8.36130E+02 4.67437E+02 3.86575E+03-7.38277E+00 4.69248E+02 5.12189E+02
 -1       448-2.20196E+03-2.20197E+03-4.80614E+03-3.63339E-04 1.25317E+03 3.24565E+02
 -1       449-9.73402E+02-9.73410E+02-2.12460E+03-4.80790E-04 3.45297E+02 2.37826E+02
 -1       450-5.96531E+02-3.97784E+02-2.56121E+03 2.11746E+01 4.26104E+02 1.86752E+02
 -1       451-5.06430E+02 1.67472E+02-3.20265E+03 4.09792E+00-9.86435E+01 2.65525E+02
 -1       452-2.10695E+03-2.10694E+03-4.59887E+03 4.26310E-04 1.20315E+03 4.27780E+02
 -1       453-9.38593E+02-9.38585E+02-2.04869E+03 6.25226E-04 3.24717E+02 3.13142E+02
 -1       454-4.79385E+02-3.79443E+02-2.59015E+03 1.68369E+01 3.89254E+02 2.08916E+02
 -1       455-3.55853E+02 1.79306E+02-3.23156E+03 4.86481E+00-9.54535E+01 3.02689E+02
 -1       456-1.48265E+03-1.48264E+03-3.23622E+03 4.02033E-04 7.58396E+02 2.82097E+02
 -1       457-6.96688E+02-4.63673E+02-2.29935E+03 1.72417E+01 4.08167E+02 2.19286E+02
 -1       458-5.75282E+02-1.83128E+02-2.88214E+03 1.47975E+01 1.89308E+02 2.18811E+02
 -1       459-1.12883E+03-5.17597E+02-3.81978E+03 4.20396E+00 4.92204E+02 3.06321E+02
 -1       460-1.84838E+02-3.24687E+00-2.26862E+03 2.10202E+01 2.23471E+02 6.42954E+01
 -1       461-2.14373E+02-4.28225E+01-2.87735E+03 1.41449E+00-2.38768E+01 1.10629E+02
 -1       462-1.35118E+02-8.43879E+00-2.25426E+03 1.84206E+01 2.05835E+02 6.24474E+01
 -1       463-1.52337E+02-4.67940E+01-2.88628E+03-3.00677E+00-2.12295E+01 1.15073E+02
 -1       464-3.06884E+02-1.08465E+02-2.30342E+03 2.26041E+01 2.80248E+02 1.21662E+02
 -1       465-2.23762E+02-2.70001E+01-2.63869E+03 1.11747E+01 1.06676E+02 8.38942E+01
 -1       466-2.58675E+02 1.77993E+02-2.90849E+03 1.72691E+00-5.39940E+01 1.88711E+02
 -1       467-8.19349E+01-7.52305E+00-2.07573E+03 1.77160E+01 1.86688E+02 6.18870E+00
 -1       468-9.18426E+01 1.81542E+01-2.73949E+03 5.87797E-01 2.35603E+00 2.27042E+01
 -1       469-5.22175E+01-5.84448E+00-2.04352E+03 1.50608E+01 1.79527E+02-2.55982E+00
 -1       470-5.21309E+01 1.93882E+01-2.71332E+03-1.34972E+00 3.03112E+00 1.23230E+01
 -1       471-1.19825E+02 2.84039E+00-2.17014E+03 1.96252E+01 2.04124E+02 3.47063E+01
 -1       472-9.28202E+01-2.11217E+00-2.41543E+03 9.38314E+00 9.25574E+01 1.33515E+01
 -1       473-1.48643E+02-1.99325E+01-2.83025E+03 9.73281E-01 3.25596E+00 6.58042E+01
 -1       474-3.09443E+01 2.81184E+00-1.89053E+03 1.32793E+01 1.85583E+02-2.02508E+01
 -1       475-4.46198E+01-3.63212E+00-2.52960E+03 6.16451E-01 3.66626E+00-2.09493E+01
 -1       476-2.12816E+01 7.09521E-01-1.87080E+03 1.15507E+01 1.83854E+02-2.30371E+01
 -1       477-2.88367E+01-4.86926E+00-2.51357E+03-6.39045E-01 3.53599E+00-2.62317E+01
 -1       478-4.98218E+01 4.33474E-01-1.97742E+03 1.55095E+01 1.83952E+02-7.62499E+00
 -1       479-3.77111E+01 7.80549E-01-2.20922E+03 7.11676E+00 9.55321E+01-2.06894E+01
 -1       480-6.23955E+01 6.81952E+00-2.63280E+03 8.39922E-01 1.80331E-01-1.72194E-01
 -1       481-1.25930E+01 7.17773E-01-1.72221E+03 9.19630E+00 1.86440E+02-2.71235E+01
 -1       482-1.86514E+01 7.44764E-01-2.31303E+03 3.61598E-01 5.06510E+00-3.71325E+01
 -1       483-8.55177E+00-1.90347E-01-1.70751E+03 7.92506E+00 1.88342E+02-2.74966E+01
 -1       484-1.11509E+01 1.18427E-01-2.29981E+03-2.27346E-01 4.60748E+00-4.03545E+01
 -1       485-2.01300E+01 1.58056E+00-1.80685E+03 1.11707E+01 1.84259E+02-2.31683E+01
 -1       486-1.59449E+01 4.40024E-01-2.01752E+03 4.89415E+00 9.62373E+01-3.16554E+01
 -1       487-2.87650E+01-1.01695E+00-2.42078E+03 5.86596E-01 2.69933E+00-2.87304E+01
 -1       488-4.22484E+00 3.01752E-01-1.55711E+03 5.88348E+00 1.86863E+02-2.72166E+01
 -1       489-7.46345E+00-2.02548E-01-2.09514E+03 2.46114E-01 5.26520E+00-4.20908E+01
 -1       490-3.05994E+00-3.13846E-01-1.54797E+03 5.05164E+00 1.91043E+02-2.64809E+01
 -1       491-4.34085E+00-5.39535E-01-2.08672E+03-7.91097E-02 4.73655E+00-4.42594E+01
 -1       492-7.54574E+00 3.96038E-01-1.63961E+03 7.43236E+00 1.84264E+02-2.67429E+01
 -1       493-5.87351E+00 1.64424E-01-1.82596E+03 3.13327E+00 9.67145E+01-3.37845E+01
 -1       494-1.17059E+01 3.62543E-01-2.20380E+03 3.30095E-01 2.73352E+00-3.92917E+01
 -1       495-9.34581E-01-4.85180E-02-1.39426E+03 3.55118E+00 1.86788E+02-2.52894E+01
 -1       496-2.26705E+00 1.15387E-01-1.87790E+03 1.42890E-01 5.35534E+00-4.26923E+01
 -1       497-7.81310E-01-3.83411E-01-1.38879E+03 3.02257E+00 1.92381E+02-2.41808E+01
 -1       498-1.10127E+00-8.38469E-02-1.87279E+03-2.31492E-02 4.76683E+00-4.44825E+01
 -1       499-2.23216E+00 1.42576E-02-1.47582E+03 4.61789E+00 1.84368E+02-2.59033E+01
 -1       500-1.67724E+00 1.93966E-02-1.63617E+03 1.88374E+00 9.66776E+01-3.28594E+01
 -1       501-4.22811E+00 2.12271E-02-1.98644E+03 1.88539E-01 2.85976E+00-4.20926E+01
 -1       502 2.34665E-01-1.13053E-01-1.23244E+03 2.03511E+00 1.86554E+02-2.32666E+01
 -1       503-2.79365E-01 6.42834E-02-1.66175E+03 7.95356E-02 5.33457E+00-4.19636E+01
 -1       504 5.43811E-02-2.96031E-01-1.22937E+03 1.71750E+00 1.92972E+02-2.20580E+01
 -1       505 5.02344E-02-3.74835E-02-1.65888E+03-5.42810E-03 4.73315E+00-4.36264E+01
 -1       506-2.05797E-01-1.43320E-01-1.31347E+03 2.71717E+00 1.84154E+02-2.40514E+01
 -1       507-7.37166E-02-3.02542E-02-1.44724E+03 1.07533E+00 9.65392E+01-3.13142E+01
 -1       508-1.01114E+00 9.02813E-02-1.76988E+03 9.69624E-02 2.83591E+00-4.21262E+01
 -1       509 5.07078E-01-1.01841E-01-1.07121E+03 1.11482E+00 1.86334E+02-2.16958E+01
 -1       510 3.61255E-01 6.20231E-02-1.44646E+03 4.10536E-02 5.31394E+00-4.10480E+01
 -1       511 2.78699E-01-1.96423E-01-1.06957E+03 9.31520E-01 1.93217E+02-2.04910E+01
 -1       512 3.73373E-01 7.58603E-03-1.44493E+03-7.49559E-04 4.70734E+00-4.26882E+01
 -1       513 4.18587E-01-1.40587E-01-1.15194E+03 1.52333E+00 1.83920E+02-2.23401E+01
 -1       514 3.95675E-01-3.33906E-02-1.25898E+03 5.85895E-01 9.64034E+01-2.99678E+01
 -1       515 1.38098E-01 5.37780E-02-1.55420E+03 4.69810E-02 2.81974E+00-4.13774E+01
 -1       516 4.60600E-01-6.85587E-02-9.10283E+02 5.84716E-01 1.86182E+02-2.06313E+01
 -1       517 4.46089E-01 3.81003E-02-1.23171E+03 1.99366E-02 5.29693E+00-4.03097E+01
 -1       518 2.73825E-01-1.15469E-01-9.09459E+02 4.83247E-01 1.93316E+02-1.94570E+01
 -1       519 3.66897E-01 1.08980E-02-1.23096E+03-1.70185E-05 4.69053E+00-4.19610E+01
 -1       520 4.92348E-01-1.02204E-01-9.90845E+02 8.17293E-01 1.83735E+02-2.10821E+01
 -1       521 4.30113E-01-2.46055E-02-1.07112E+03 3.05375E-01 9.63109E+01-2.90062E+01
 -1       522 4.28967E-01 3.74552E-02-1.33919E+03 2.07165E-02 2.80494E+00-4.06040E+01
 -1       523 3.34074E-01-4.03423E-02-7.49524E+02 2.93470E-01 1.86092E+02-1.99668E+01
 -1       524 3.57147E-01 2.25773E-02-1.01728E+03 8.97486E-03 5.28763E+00-3.98049E+01
 -1       525 2.04905E-01-6.23143E-02-7.49138E+02 2.39451E-01 1.93357E+02-1.88232E+01
 -1       526 2.72394E-01 9.21419E-03-1.01694E+03-1.50310E-04 4.68215E+00-4.14745E+01
 -1       527 3.92395E-01-6.28646E-02-8.29987E+02 4.19841E-01 1.83618E+02-2.02543E+01
 -1       528 3.32558E-01-1.50429E-02-8.83502E+02 1.52089E-01 9.62570E+01-2.83881E+01
 -1       529 4.01436E-01 2.09614E-02-1.12459E+03 8.06903E-03 2.79723E+00-4.00162E+01
 -1       530 2.15674E-01-2.14725E-02-5.88847E+02 1.40370E-01 1.86045E+02-1.95766E+01
 -1       531 2.41167E-01 1.17613E-02-8.03014E+02 3.66879E-03 5.28299E+00-3.94914E+01
 -1       532 1.34559E-01-3.10768E-02-5.88684E+02 1.12762E-01 1.93376E+02-1.84563E+01
 -1       533 1.76468E-01 5.52948E-03-8.02879E+02-2.95956E-04 4.67844E+00-4.11771E+01
 -1       534 2.67292E-01-3.49969E-02-6.69252E+02 2.06057E-01 1.83553E+02-1.97486E+01
 -1       535 2.21830E-01-8.23573E-03-6.96003E+02 7.20479E-02 9.62294E+01-2.80183E+01
 -1       536 2.92134E-01 1.10940E-02-9.10227E+02 2.46251E-03 2.79341E+00-3.96272E+01
 -1       537 1.28062E-01-1.04775E-02-4.28208E+02 6.34219E-02 1.86024E+02-1.93592E+01
 -1       538 1.46648E-01 5.66828E-03-5.88819E+02 1.28713E-03 5.28102E+00-3.93101E+01
 -1       539 8.07849E-02-1.42894E-02-4.28150E+02 4.99461E-02 1.93385E+02-1.82543E+01
 -1       540 1.04298E-01 2.89387E-03-5.88779E+02-3.18884E-04 4.67710E+00-4.10072E+01
 -1       541 1.65467E-01-1.78937E-02-5.08577E+02 9.60440E-02 1.83520E+02-1.94569E+01
 -1       542 1.34320E-01-4.09317E-03-5.08564E+02 3.21460E-02 9.62167E+01-2.78097E+01
 -1       543 1.87024E-01 5.26118E-03-6.95976E+02 2.84699E-04 2.79186E+00-3.93912E+01
 -1       544 6.93741E-02-4.57710E-03-2.67586E+02 2.64208E-02 1.86015E+02-1.92449E+01
 -1       545 8.04990E-02 2.42795E-03-3.74656E+02 3.26472E-04 5.28033E+00-3.92121E+01
 -1       546 4.40950E-02-5.89063E-03-2.67569E+02 2.02774E-02 1.93390E+02-1.81492E+01
 -1       547 5.60251E-02 1.26819E-03-3.74650E+02-2.57599E-04 4.67676E+00-4.09164E+01
 -1       548 9.43817E-02-8.38581E-03-3.47931E+02 4.19376E-02 1.83506E+02-1.92975E+01
 -1       549 7.37039E-02-1.80700E-03-3.21151E+02 1.31696E-02 9.62117E+01-2.76990E+01
 -1       550 1.08704E-01 2.25877E-03-4.81778E+02-3.60068E-04 2.79132E+00-3.92576E+01
 -1       551 3.03875E-02-1.52666E-03-1.06970E+02 8.91774E-03 1.86012E+02-1.91910E+01
 -1       552 3.57199E-02 8.37407E-04-1.60503E+02-2.81374E-06 5.28018E+00-3.91650E+01
 -1       553 1.94206E-02-1.87395E-03-1.06965E+02 6.60953E-03 1.93393E+02-1.81000E+01
 -1       554 2.44362E-02 3.97047E-04-1.60503E+02-1.65849E-04 4.67678E+00-4.08732E+01
 -1       555 4.75011E-02-3.39268E-03-1.87296E+02 1.63060E-02 1.83501E+02-1.92166E+01
 -1       556 3.26463E-02-5.95771E-04-1.33749E+02 4.33932E-03 9.62102E+01-2.76466E+01
 -1       557 5.53962E-02 8.23767E-04-2.67602E+02-3.86397E-04 2.79121E+00-3.91882E+01
 -1       558 7.11127E-04 2.13301E-04 5.36430E+01-8.46850E-04 1.86012E+02-1.91753E+01
 -1       559 1.67687E-03 1.75407E-05 5.36469E+01-1.09369E-04 5.28025E+00-3.91512E+01
 -1       560 5.08932E-04 2.44921E-04 5.36492E+01-7.83961E-04 1.93394E+02-1.80858E+01
 -1       561 1.01040E-03-6.47987E-05 5.36530E+01-7.92739E-05 4.67689E+00-4.08605E+01
 -1       562 1.48664E-02-7.24450E-04-2.66665E+01 3.65864E-03 1.83499E+02-1.91832E+01
 -1       563 1.14271E-03 9.45854E-05 5.36498E+01-4.92189E-04 9.62101E+01-2.76313E+01
 -1       564 1.78963E-02 1.96759E-04-5.34323E+01-2.03686E-04 2.79125E+00-3.91589E+01
 -1       565-2.99991E-02 1.70595E-03 2.14256E+02-1.08257E-02 1.86013E+02-1.91918E+01
 -1       566-3.28725E-02-6.23961E-04 2.67798E+02-2.39171E-04 5.28046E+00-3.91657E+01
 -1       567-1.90273E-02 2.12818E-03 2.14263E+02-8.40706E-03 1.93393E+02-1.81005E+01
 -1       568-2.26418E-02-3.58031E-04 2.67809E+02-2.16822E-05 4.67705E+00-4.08735E+01
 -1       569-1.37117E-02 1.09871E-03 1.33962E+02-5.42046E-03 1.83500E+02-1.91836E+01
 -1       570-3.12782E-02 6.40967E-04 2.41049E+02-5.45044E-03 9.62106E+01-2.76474E+01
 -1       571-1.45966E-02-1.06319E-04 1.60736E+02 1.14250E-05 2.79134E+00-3.91592E+01
 -1       572-7.27087E-02 3.85853E-03 3.74869E+02-2.89351E-02 1.86014E+02-1.92486E+01
 -1       573-7.96943E-02-1.59507E-03 4.81952E+02-6.31401E-04 5.28090E+00-3.92157E+01
 -1       574-4.59639E-02 5.28259E-03 3.74864E+02-2.27454E-02 1.93389E+02-1.81520E+01
 -1       575-5.51869E-02-6.30237E-04 4.81957E+02-1.78643E-05 4.67731E+00-4.09191E+01
 -1       576-4.86228E-02 3.20238E-03 2.94590E+02-1.84860E-02 1.83501E+02-1.92188E+01
 -1       577-7.57237E-02 1.33443E-03 4.28450E+02-1.46409E-02 9.62119E+01-2.77029E+01
 -1       578-5.33268E-02-4.19786E-04 3.74906E+02 1.50813E-04 2.79151E+00-3.91902E+01
 -1       579-1.39807E-01 7.70775E-03 5.35486E+02-6.67721E-02 1.86019E+02-1.93711E+01
 -1       580-1.51166E-01-3.51143E-03 6.96116E+02-1.66713E-03 5.28187E+00-3.93224E+01
 -1       581-8.78061E-02 1.16893E-02 5.35437E+02-5.34230E-02 1.93379E+02-1.82641E+01
 -1       582-1.06075E-01-9.30802E-04 6.96083E+02-1.02046E-04 4.67793E+00-4.10172E+01
 -1       583-1.01357E-01 6.72919E-03 4.55221E+02-4.48649E-02 1.83503E+02-1.93050E+01
 -1       584-1.44265E-01 2.45335E-03 6.15858E+02-3.41199E-02 9.62148E+01-2.78220E+01
 -1       585-1.10240E-01-1.08984E-03 5.89084E+02 4.85727E-05 2.79184E+00-3.92652E+01
 -1       586-2.44248E-01 1.45511E-02 6.96112E+02-1.44317E-01 1.86028E+02-1.96068E+01
 -1       587-2.57761E-01-7.10276E-03 9.10305E+02-4.06371E-03 5.28392E+00-3.95237E+01
 -1       588-1.51976E-01 2.44006E-02 6.95953E+02-1.17238E-01 1.93358E+02-1.84821E+01
 -1       589-1.84396E-01-9.67424E-04 9.10171E+02-3.08802E-04 4.67941E+00-4.12045E+01
 -1       590-1.84733E-01 1.31230E-02 6.15858E+02-9.97562E-02 1.83510E+02-1.94771E+01
 -1       591-2.48185E-01 4.26476E-03 8.03284E+02-7.44007E-02 9.62215E+01-2.80495E+01
 -1       592-1.97185E-01-2.58361E-03 8.03279E+02-6.70743E-04 2.79261E+00-3.94126E+01
 -1       593-3.93801E-01 2.56540E-02 8.56763E+02-2.96633E-01 1.86049E+02-2.00333E+01
 -1       594-3.98610E-01-1.35615E-02 1.12455E+03-9.15968E-03 5.28812E+00-3.98773E+01
 -1       595-2.41719E-01 4.79357E-02 8.56367E+02-2.43985E-01 1.93314E+02-1.88816E+01
 -1       596-2.93325E-01 5.43217E-05 1.12419E+03-6.05951E-04 4.68279E+00-4.15377E+01
 -1       597-3.10137E-01 2.41888E-02 7.76514E+02-2.09832E-01 1.83524E+02-1.97952E+01
 -1       598-3.90257E-01 6.76386E-03 9.90751E+02-1.54042E-01 9.62358E+01-2.84570E+01
 -1       599-3.20782E-01-5.70562E-03 1.01751E+03-2.83518E-03 2.79428E+00-3.96776E+01
 -1       600-5.74002E-01 4.03392E-02 1.01747E+03-5.83255E-01 1.86088E+02-2.07641E+01
 -1       601-5.34748E-01-2.19964E-02 1.33892E+03-1.93466E-02 5.29564E+00-4.04559E+01
 -1       602-3.44320E-01 8.75428E-02 1.01661E+03-4.84772E-01 1.93223E+02-1.95754E+01
 -1       603-4.13034E-01 6.34720E-03 1.33812E+03-6.70881E-04 4.68966E+00-4.20907E+01
 -1       604-4.77292E-01 4.11760E-02 9.37211E+02-4.21234E-01 1.83552E+02-2.03506E+01
 -1       605-5.43499E-01 8.91833E-03 1.17831E+03-3.04729E-01 9.62629E+01-2.91438E+01
 -1       606-4.66422E-01-1.10400E-02 1.23184E+03-8.14637E-03 2.79780E+00-4.01218E+01
 -1       607-7.06056E-01 5.17876E-02 1.17831E+03-1.10009E+00 1.86149E+02-2.19402E+01
 -1       608-5.33233E-01-3.56297E-02 1.55353E+03-3.84764E-02 5.30806E+00-4.13196E+01
 -1       609-4.03394E-01 1.46395E-01 1.17658E+03-9.22622E-01 1.93035E+02-2.07121E+01
 -1       610-4.64937E-01 2.19303E-02 1.55190E+03 7.72620E-04 4.70239E+00-4.29326E+01
 -1       611-6.46920E-01 6.22984E-02 1.09800E+03-8.10339E-01 1.83601E+02-2.12647E+01
 -1       612-6.00930E-01 5.89614E-03 1.36604E+03-5.77655E-01 9.63062E+01-3.02209E+01
 -1       613-5.60180E-01-2.06242E-02 1.44634E+03-1.98201E-02 2.80417E+00-4.08063E+01
 -1       614-5.57663E-01 3.06595E-02 1.33940E+03-1.98985E+00 1.86217E+02-2.36836E+01
 -1       615-2.87011E-02-2.39420E-02 1.76856E+03-7.26386E-02 5.31845E+00-4.24312E+01
 -1       616-2.58564E-01 2.12887E-01 1.33615E+03-1.68267E+00 1.92643E+02-2.24406E+01
 -1       617-2.17585E-01 8.48087E-02 1.76549E+03 7.65774E-03 4.71897E+00-4.40528E+01
 -1       618-6.79208E-01 7.25245E-02 1.25898E+03-1.49551E+00 1.83668E+02-2.26608E+01
 -1       619-2.70711E-01-1.43221E-02 1.55407E+03-1.04948E+00 9.63585E+01-3.17461E+01
 -1       620-3.81413E-01-2.72746E-02 1.66115E+03-4.36952E-02 2.81539E+00-4.17363E+01
 -1       621 4.56460E-01-7.53946E-02 1.50100E+03-3.44416E+00 1.86218E+02-2.59455E+01
 -1       622 1.75323E+00-6.40470E-02 1.98422E+03-1.27452E-01 5.31927E+00-4.34351E+01
 -1       623 4.75270E-01 2.56688E-01 1.49521E+03-2.93249E+00 1.91831E+02-2.47932E+01
 -1       624 8.15380E-01 1.49673E-01 1.97878E+03 3.06852E-02 4.73410E+00-4.51705E+01
 -1       625-1.98507E-01 3.64057E-02 1.42033E+03-2.64477E+00 1.83716E+02-2.45727E+01
 -1       626 1.14546E+00-8.55655E-02 1.74262E+03-1.82194E+00 9.63654E+01-3.35388E+01
 -1       627 5.92092E-01-5.36466E-02 1.87645E+03-8.85549E-02 2.82330E+00-4.27153E+01
 -1       628 3.60279E+00-4.70453E-01 1.66356E+03-5.66339E+00 1.85975E+02-2.81489E+01
 -1       629 6.67925E+00 2.66317E-01 2.20063E+03-2.15603E-01 5.19038E+00-4.31585E+01
 -1       630 2.65485E+00 1.39624E-01 1.65388E+03-4.85584E+00 1.90196E+02-2.73719E+01
 -1       631 3.89330E+00 6.30060E-01 2.19168E+03 9.77877E-02 4.66777E+00-4.52703E+01
 -1       632 1.66900E+00-1.67081E-01 1.58243E+03-4.46009E+00 1.83667E+02-2.66761E+01
 -1       633 5.13564E+00-2.50772E-01 1.93183E+03-3.00534E+00 9.62163E+01-3.47490E+01
 -1       634 3.56124E+00 2.52804E-02 2.09236E+03-1.70334E-01 2.83116E+00-4.29758E+01
 -1       635 1.19805E+01-8.89040E-01 1.82839E+03-8.78941E+00 1.85191E+02-2.82482E+01
 -1       636 1.75578E+01-7.51268E-01 2.41720E+03-3.05090E-01 4.92878E+00-3.84455E+01
 -1       637 8.12818E+00 7.37901E-04 1.81287E+03-7.54547E+00 1.87170E+02-2.86226E+01
 -1       638 1.04860E+01-7.85344E-02 2.40322E+03 2.67535E-01 4.47749E+00-4.16514E+01
 -1       639 6.89094E+00-5.79828E-01 1.74593E+03-7.12630E+00 1.83236E+02-2.77490E+01
 -1       640 1.50995E+01-5.26044E-01 2.12263E+03-4.65519E+00 9.55082E+01-3.28181E+01
 -1       641 1.07330E+01-3.38666E-01 2.30864E+03-2.93936E-01 2.67096E+00-4.04600E+01
 -1       642 3.07762E+01-2.93468E+00 1.99659E+03-1.26036E+01 1.84109E+02-2.11842E+01
 -1       643 4.34239E+01 3.66924E+00 2.63186E+03-5.28716E-01 3.40554E+00-2.20973E+01
 -1       644 2.11357E+01-8.31526E-01 1.97587E+03-1.08861E+01 1.82502E+02-2.40900E+01
 -1       645 2.80819E+01 4.99600E+00 2.61499E+03 7.17127E-01 3.28476E+00-2.74876E+01
 -1       646 1.96656E+01-1.74450E+00 1.91300E+03-1.06358E+01 1.82967E+02-2.41798E+01
 -1       647 3.71201E+01-8.06159E-01 2.31344E+03-6.71905E+00 9.46242E+01-2.16535E+01
 -1       648 2.75552E+01 1.04021E+00 2.52404E+03-5.23781E-01 2.59035E+00-2.99465E+01
 -1       649 8.38329E+01 8.22657E+00 2.18280E+03-1.67370E+01 1.85620E+02 6.55688E+00
 -1       650 9.09899E+01-1.91934E+01 2.83933E+03-4.47909E-01 1.97052E+00 2.29215E+01
 -1       651 5.32197E+01 6.32643E+00 2.14919E+03-1.40324E+01 1.78605E+02-2.62472E+00
 -1       652 5.11199E+01-2.04529E+01 2.81213E+03 1.48425E+00 2.65722E+00 1.20932E+01
 -1       653 5.03780E+01-3.07706E-01 2.08373E+03-1.46780E+01 1.82722E+02-7.96170E+00
 -1       654 9.38665E+01 2.43486E+00 2.51964E+03-8.79201E+00 9.16650E+01 1.37141E+01
 -1       655 6.12394E+01-7.22989E+00 2.73389E+03-7.33541E-01-8.64503E-02-7.01301E-01
 -1       656 1.91648E+02 4.75266E+00 2.37779E+03-1.99358E+01 2.25572E+02 6.77642E+01
 -1       657 2.16367E+02 4.34064E+01 2.97242E+03-1.30300E+00-2.52851E+01 1.14220E+02
 -1       658 1.40021E+02 1.00295E+01 2.36342E+03-1.71441E+01 2.07935E+02 6.58210E+01
 -1       659 1.53462E+02 4.76334E+01 2.98220E+03 3.16800E+00-2.26121E+01 1.18556E+02
 -1       660 1.23549E+02-2.11898E+00 2.27816E+03-1.85635E+01 2.04645E+02 3.65407E+01
 -1       661 2.29928E+02 2.88272E+01 2.74480E+03-1.05278E+01 1.07191E+02 8.73866E+01
 -1       662 1.49279E+02 2.02304E+01 2.92887E+03-8.23605E-01 3.03944E+00 6.76196E+01
 -1       663 6.22391E+02 4.16876E+02 2.67761E+03-2.05338E+01 4.40652E+02 1.96287E+02
 -1       664 5.19480E+02-1.74459E+02 3.30521E+03-4.12028E+00-1.02377E+02 2.75461E+02
 -1       665 5.00189E+02 3.98198E+02 2.70953E+03-1.59592E+01 4.03428E+02 2.19548E+02
 -1       666 3.64143E+02-1.87064E+02 3.33685E+03-5.02285E+00-9.91283E+01 3.13630E+02
 -1       667 3.19749E+02 1.15015E+02 2.41177E+03-2.16921E+01 2.86844E+02 1.27974E+02
 -1       668 5.96173E+02 1.91978E+02 2.99272E+03-1.44696E+01 1.96038E+02 2.28373E+02
 -1       669 2.62181E+02-1.85864E+02 3.00178E+03-1.59850E+00-5.64228E+01 1.95346E+02
 -1       670 1.01755E+03 1.01756E+03 2.22097E+03 4.70242E-04 3.65342E+02 2.49175E+02
 -1       671 2.28059E+03 2.28060E+03 4.97776E+03 3.56806E-04 1.30499E+03 3.36202E+02
 -1       672 9.81672E+02 9.81663E+02 2.14272E+03-6.12367E-04 3.44609E+02 3.28109E+02
 -1       673 2.18427E+03 2.18426E+03 4.76764E+03-4.13332E-04 1.25430E+03 4.42918E+02
 -1       674 7.28957E+02 4.87854E+02 2.40456E+03-1.69443E+01 4.25815E+02 2.30092E+02
 -1       675 1.54013E+03 1.54012E+03 3.36168E+03-3.94405E-04 7.93297E+02 2.93503E+02
 -1       676 1.16763E+03 5.36627E+02 3.95109E+03-4.20238E+00 5.12377E+02 3.17472E+02
 -1       677-2.24573E+03-2.24575E+03-4.90169E+03-2.04266E-04 1.29310E+03 1.48935E+02
 -1       678-9.65318E+02-9.65329E+02-2.10696E+03-2.72599E-04 3.75976E+02 1.10386E+02
 -1       679-6.69557E+02-4.11695E+02-2.57017E+03 1.26661E+01 4.59989E+02 8.70587E+01
 -1       680-6.08024E+02 1.75252E+02-3.22230E+03 6.50067E-01-9.31051E+01 1.22353E+02
 -1       681-2.22446E+03-2.22445E+03-4.85535E+03 3.58813E-04 1.27728E+03 2.32017E+02
 -1       682-9.67236E+02-9.67225E+02-2.11121E+03 4.21304E-04 3.64351E+02 1.70746E+02
 -1       683-6.31628E+02-4.01811E+02-2.56165E+03 1.60065E+01 4.45748E+02 1.32843E+02
 -1       684-5.60071E+02 1.71877E+02-3.21175E+03-7.15648E-01-9.37146E+01 1.88306E+02
 -1       685-1.49232E+03-1.49230E+03-3.25731E+03 2.33771E-04 7.91941E+02 1.30337E+02
 -1       686-7.31887E+02-4.73091E+02-2.30776E+03 8.82188E+00 4.39649E+02 9.97736E+01
 -1       687-6.56622E+02-1.84079E+02-2.89089E+03 7.83609E+00 2.10484E+02 1.01934E+02
 -1       688-1.20571E+03-5.43812E+02-3.89691E+03 2.72154E+00 5.14494E+02 1.37975E+02
 -1       689-2.74054E+02-8.73619E+00-2.28350E+03 1.34111E+01 2.44111E+02 4.37165E+01
 -1       690-3.36000E+02-4.99683E+01-2.87786E+03 1.25606E+00-2.32055E+01 6.93680E+01
 -1       691-2.34028E+02-5.28757E+00-2.27691E+03 1.59770E+01 2.35660E+02 5.65940E+01
 -1       692-2.81702E+02-4.57977E+01-2.87717E+03-8.32399E-01-2.22054E+01 9.32244E+01
 -1       693-3.85097E+02-1.12005E+02-2.30261E+03 1.34652E+01 3.07031E+02 6.47579E+01
 -1       694-3.27449E+02-3.34564E+01-2.65093E+03 7.53526E+00 1.17829E+02 5.50317E+01
 -1       695-3.63145E+02 1.88494E+02-2.89764E+03 5.31020E-01-5.40678E+01 9.71644E+01
 -1       696-1.31992E+02-7.73753E+00-2.09876E+03 1.14135E+01 1.97587E+02 9.90896E+00
 -1       697-1.62039E+02 1.86610E+01-2.75016E+03 8.93527E-01 2.00580E+00 2.11399E+01
 -1       698-1.07240E+02-6.52896E+00-2.08947E+03 1.38358E+01 1.93084E+02 9.38771E+00
 -1       699-1.26395E+02 2.04521E+01-2.74524E+03-2.14084E-01 2.65179E+00 2.36230E+01
 -1       700-1.88159E+02 1.97285E+00-2.18719E+03 1.25203E+01 2.19744E+02 2.55468E+01
 -1       701-1.51920E+02-2.40366E+00-2.43476E+03 6.35092E+00 9.78484E+01 1.47428E+01
 -1       702-2.42769E+02-2.08905E+01-2.83245E+03 9.42870E-01 3.37570E+00 4.35809E+01
 -1       703-5.68634E+01 1.97486E+00-1.91763E+03 8.79618E+00 1.89895E+02-8.58908E+00
 -1       704-8.37981E+01-5.32367E+00-2.55179E+03 5.79520E-01 3.26970E+00-7.17401E+00
 -1       705-4.58046E+01 1.85373E+00-1.90771E+03 1.07621E+01 1.87949E+02-1.31474E+01
 -1       706-6.60659E+01-4.72228E+00-2.54378E+03-1.28768E-01 3.43990E+00-1.23109E+01
 -1       707-8.61355E+01 6.18735E-02-2.00353E+03 1.01612E+01 1.91710E+02 1.46219E-01
 -1       708-6.91981E+01-4.45412E-01-2.23509E+03 4.81621E+00 9.75735E+01-8.19111E+00
 -1       709-1.15733E+02 5.63367E+00-2.65163E+03 8.19768E-01 1.69387E-01 6.18823E+00
 -1       710-2.36351E+01 7.41289E-01-1.74254E+03 6.18227E+00 1.86272E+02-1.48301E+01
 -1       711-3.77692E+01 9.94243E-02-2.33113E+03 3.70369E-01 4.67612E+00-1.89082E+01
 -1       712-1.88775E+01 5.06836E-01-1.73456E+03 7.53564E+00 1.86170E+02-2.04713E+01
 -1       713-2.88911E+01 3.81063E-01-2.32395E+03 3.44753E-02 4.66105E+00-2.71691E+01
 -1       714-3.68259E+01 1.91572E+00-1.82924E+03 7.45783E+00 1.86493E+02-1.16793E+01
 -1       715-3.03417E+01 7.37772E-02-2.03755E+03 3.36485E+00 9.60409E+01-1.68799E+01
 -1       716-5.57530E+01-1.36815E+00-2.43946E+03 5.17162E-01 2.45957E+00-1.31453E+01
 -1       717-8.34787E+00 5.12906E-01-1.57085E+03 4.02305E+00 1.83589E+02-1.60159E+01
 -1       718-1.62057E+01-4.15008E-01-2.10795E+03 2.35866E-01 4.90755E+00-2.30839E+01
 -1       719-6.83823E+00 1.71335E-01-1.56551E+03 4.89965E+00 1.84779E+02-2.13912E+01
 -1       720-1.23562E+01-4.47164E-01-2.10295E+03 5.29044E-02 4.76657E+00-3.20870E+01
 -1       721-1.44477E+01 6.28303E-01-1.65628E+03 5.04111E+00 1.82609E+02-1.52923E+01
 -1       722-1.18503E+01 1.39504E-01-1.83975E+03 2.18404E+00 9.49871E+01-1.93436E+01
 -1       723-2.47084E+01 1.16251E-01-2.21881E+03 3.14061E-01 2.47912E+00-2.09411E+01
 -1       724-2.11141E+00 1.73346E-01-1.40279E+03 2.46546E+00 1.81492E+02-1.53188E+01
 -1       725-6.02423E+00 8.19437E-02-1.88601E+03 1.38493E-01 4.99735E+00-2.39719E+01
 -1       726-1.81881E+00-8.29547E-02-1.39944E+03 2.98864E+00 1.83547E+02-2.02181E+01
 -1       727-4.43051E+00-3.88789E-04-1.88282E+03 5.08423E-02 4.79179E+00-3.30234E+01
 -1       728-4.65099E+00 1.90154E-01-1.48683E+03 3.18252E+00 1.80114E+02-1.55160E+01
 -1       729-3.87217E+00 8.46813E-02-1.64482E+03 1.33323E+00 9.39341E+01-1.92831E+01
 -1       730-1.00756E+01-7.70388E-02-1.99670E+03 1.80216E-01 2.55785E+00-2.34112E+01
 -1       731 1.69829E-01 5.93284E-02-1.23745E+03 1.43486E+00 1.80005E+02-1.42618E+01
 -1       732-1.71885E+00 9.58447E-02-1.66656E+03 7.87508E-02 4.97956E+00-2.37490E+01
 -1       733 3.49162E-02-1.19164E-01-1.23551E+03 1.73185E+00 1.82602E+02-1.87228E+01
 -1       734-1.15952E+00 1.35454E-02-1.66470E+03 3.56646E-02 4.74039E+00-3.26243E+01
 -1       735-7.93768E-01-3.36488E-02-1.32024E+03 1.90117E+00 1.78241E+02-1.46778E+01
 -1       736-6.70424E-01 5.03638E-02-1.45235E+03 7.73412E-01 9.31654E+01-1.85368E+01
 -1       737-3.47270E+00 4.57760E-02-1.77629E+03 9.70784E-02 2.51515E+00-2.37665E+01
 -1       738 7.67492E-01 1.49303E-02-1.07401E+03 7.98290E-01 1.79047E+02-1.33549E+01
 -1       739-8.60818E-02 1.02362E-01-1.44915E+03 4.24315E-02 4.96041E+00-2.32757E+01
 -1       740 5.49551E-01-9.74628E-02-1.07295E+03 9.58399E-01 1.81968E+02-1.74957E+01
 -1       741 5.39107E-02 4.13341E-02-1.44814E+03 2.23270E-02 4.70272E+00-3.19609E+01
 -1       742 4.86225E-01-7.48584E-02-1.15588E+03 1.08240E+00 1.77006E+02-1.37328E+01
 -1       743 3.86515E-01 2.98655E-02-1.26185E+03 4.28633E-01 9.26570E+01-1.77788E+01
 -1       744-7.75076E-01 3.77008E-02-1.55796E+03 5.03290E-02 2.48584E+00-2.34463E+01
 -1       745 7.48405E-01 4.57279E-03-9.11784E+02 4.25669E-01 1.78479E+02-1.27095E+01
 -1       746 3.85103E-01 7.16164E-02-1.23315E+03 2.18742E-02 4.94534E+00-2.28524E+01
 -1       747 5.59702E-01-6.25000E-02-9.11242E+02 5.08055E-01 1.81584E+02-1.66394E+01
 -1       748 3.73833E-01 3.15138E-02-1.23265E+03 1.27658E-02 4.67815E+00-3.13901E+01
 -1       749 7.25801E-01-6.47246E-02-9.93032E+02 5.90056E-01 1.76241E+02-1.29861E+01
 -1       750 5.87226E-01 1.88624E-02-1.07266E+03 2.27584E-01 9.23547E+01-1.72035E+01
 -1       751 1.68052E-01 3.27183E-02-1.34128E+03 2.46931E-02 2.46441E+00-2.30231E+01
 -1       752 5.58634E-01 2.81236E-03-7.50294E+02 2.17571E-01 1.78165E+02-1.22941E+01
 -1       753 4.17366E-01 4.58571E-02-1.01802E+03 1.07270E-02 4.93766E+00-2.25488E+01
 -1       754 4.24663E-01-3.52405E-02-7.50039E+02 2.57908E-01 1.81371E+02-1.60950E+01
 -1       755 3.67690E-01 2.15477E-02-1.01779E+03 6.80910E-03 4.66553E+00-3.09877E+01
 -1       756 6.14710E-01-4.24076E-02-8.31150E+02 3.08407E-01 1.75803E+02-1.24754E+01
 -1       757 4.96547E-01 1.21580E-02-8.84289E+02 1.15744E-01 9.21877E+01-1.68204E+01
 -1       758 3.85512E-01 2.05844E-02-1.12570E+03 1.14472E-02 2.45322E+00-2.26769E+01
 -1       759 3.66840E-01 2.75392E-03-5.89224E+02 1.06295E-01 1.78002E+02-1.20445E+01
 -1       760 3.19079E-01 2.64755E-02-8.03370E+02 4.97762E-03 4.93426E+00-2.23543E+01
 -1       761 2.81274E-01-1.79086E-02-5.89118E+02 1.24973E-01 1.81260E+02-1.57708E+01
 -1       762 2.71598E-01 1.26178E-02-8.03281E+02 3.40029E-03 4.65970E+00-3.07327E+01
 -1       763 4.31411E-01-2.43052E-02-6.69844E+02 1.54366E-01 1.75567E+02-1.21551E+01
 -1       764 3.46490E-01 7.75710E-03-6.96388E+02 5.62066E-02 9.21016E+01-1.65854E+01
 -1       765 3.47038E-01 1.19723E-02-9.10786E+02 4.91901E-03 2.44775E+00-2.24389E+01
 -1       766 2.20445E-01 2.45707E-03-4.28384E+02 4.92751E-02 1.77923E+02-1.19028E+01
 -1       767 2.08602E-01 1.42876E-02-5.88982E+02 2.15600E-03 4.93316E+00-2.22390E+01
 -1       768 1.69957E-01-8.25273E-03-4.28348E+02 5.73505E-02 1.81207E+02-1.55881E+01
 -1       769 1.74262E-01 6.81631E-03-5.88958E+02 1.58071E-03 4.65741E+00-3.05829E+01
 -1       770 2.72178E-01-1.25728E-02-5.08866E+02 7.36512E-02 1.75448E+02-1.19665E+01
 -1       771 2.15929E-01 4.77069E-03-5.08743E+02 2.58602E-02 9.20600E+01-1.64500E+01
 -1       772 2.46720E-01 6.24745E-03-6.96245E+02 1.89713E-03 2.44544E+00-2.22906E+01
 -1       773 1.20396E-01 1.84100E-03-2.67663E+02 2.11854E-02 1.77887E+02-1.18270E+01
 -1       774 1.20172E-01 7.04631E-03-3.74725E+02 8.42953E-04 4.93300E+00-2.21756E+01
 -1       775 9.31770E-02-3.35266E-03-2.67654E+02 2.43521E-02 1.81184E+02-1.54910E+01
 -1       776 9.91751E-02 3.30097E-03-3.74724E+02 6.64886E-04 4.65670E+00-3.05010E+01
 -1       777 1.57330E-01-5.89084E-03-3.48064E+02 3.30942E-02 1.75391E+02-1.18618E+01
 -1       778 1.20821E-01 2.73111E-03-3.21229E+02 1.10135E-02 9.20415E+01-1.63770E+01
 -1       779 1.53083E-01 3.00021E-03-4.81900E+02 6.08520E-04 2.44458E+00-2.22049E+01
 -1       780 5.27861E-02 1.04940E-03-1.06999E+02 7.44151E-03 1.77873E+02-1.17909E+01
 -1       781 5.49179E-02 2.81850E-03-1.60529E+02 2.51543E-04 4.93314E+00-2.21447E+01
 -1       782 4.09880E-02-1.03443E-03-1.06997E+02 8.42320E-03 1.81175E+02-1.54449E+01
 -1       783 4.49808E-02 1.26845E-03-1.60530E+02 2.12400E-04 4.65661E+00-3.04613E+01
 -1       784 7.98004E-02-2.34721E-03-1.87352E+02 1.33252E-02 1.75366E+02-1.18079E+01
 -1       785 5.39942E-02 1.26779E-03-1.33778E+02 3.82034E-03 9.20343E+01-1.63419E+01
 -1       786 8.14296E-02 1.26667E-03-2.67652E+02 1.26451E-04 2.44435E+00-2.21596E+01
 -1       787 5.95175E-04 1.01308E-04 5.36410E+01-5.17491E-04 1.77869E+02-1.17804E+01
 -1       788 2.37921E-03-2.84574E-06 5.36451E+01-5.87915E-05 4.93331E+00-2.21356E+01
 -1       789 5.74976E-04 1.01165E-04 5.36466E+01-6.65042E-04 1.81173E+02-1.54316E+01
 -1       790 1.97922E-03-2.83859E-05 5.36506E+01-5.45118E-05 4.65672E+00-3.04497E+01
 -1       791 2.47646E-02-4.70391E-04-2.66829E+01 3.18432E-03 1.75358E+02-1.17854E+01
 -1       792 1.33474E-03 1.03172E-05 5.36479E+01-2.98824E-04 9.20327E+01-1.63318E+01
 -1       793 2.68730E-02 3.63646E-04-5.34468E+01-1.96036E-05 2.44436E+00-2.21404E+01
 -1       794-5.35699E-02-1.16699E-03 2.14281E+02-8.58145E-03 1.77873E+02-1.17918E+01
 -1       795-5.14877E-02-2.70295E-03 2.67820E+02-3.76056E-04 4.93346E+00-2.21455E+01
 -1       796-4.13412E-02 9.65200E-04 2.14289E+02-9.90710E-03 1.81175E+02-1.54459E+01
 -1       797-4.19301E-02-1.15864E-03 2.67832E+02-3.35872E-04 4.65692E+00-3.04622E+01
 -1       798-2.39565E-02 7.40860E-04 1.33975E+02-4.25176E-03 1.75358E+02-1.17858E+01
 -1       799-5.31362E-02-1.46079E-03 2.41074E+02-4.47781E-03 9.20349E+01-1.63428E+01
 -1       800-2.22522E-02-2.04997E-04 1.60747E+02-8.01363E-05 2.44447E+00-2.21408E+01
 -1       801-1.28163E-01-3.09218E-03 3.74945E+02-2.26053E-02 1.77887E+02-1.18303E+01
 -1       802-1.21767E-01-6.50712E-03 4.82021E+02-9.81882E-04 4.93365E+00-2.21788E+01
 -1       803-9.88675E-02 2.31954E-03 3.74946E+02-2.62619E-02 1.81184E+02-1.54948E+01
 -1       804-9.96170E-02-2.60524E-03 4.82029E+02-8.29693E-04 4.65734E+00-3.05048E+01
 -1       805-8.31606E-02 2.00780E-03 2.94644E+02-1.45923E-02 1.75367E+02-1.18098E+01
 -1       806-1.26502E-01-3.67090E-03 4.28526E+02-1.18299E-02 9.20420E+01-1.63803E+01
 -1       807-7.97144E-02-8.14903E-04 3.74956E+02-2.38234E-04 2.44470E+00-2.21615E+01
 -1       808-2.43579E-01-6.20560E-03 5.35665E+02-5.10107E-02 1.77919E+02-1.19120E+01
 -1       809-2.22330E-01-1.28345E-02 6.96285E+02-2.29345E-03 4.93413E+00-2.22488E+01
 -1       810-1.87458E-01 5.08777E-03 5.35637E+02-5.98081E-02 1.81203E+02-1.55993E+01
 -1       811-1.83315E-01-4.84341E-03 6.96268E+02-1.80431E-03 4.65835E+00-3.05946E+01
 -1       812-1.71193E-01 3.98937E-03 4.55356E+02-3.46801E-02 1.75389E+02-1.18677E+01
 -1       813-2.36425E-01-7.32447E-03 6.16041E+02-2.68531E-02 9.20586E+01-1.64596E+01
 -1       814-1.59360E-01-1.84550E-03 5.89209E+02-7.33724E-04 2.44518E+00-2.22111E+01
 -1       815-4.19906E-01-1.13732E-02 6.96505E+02-1.08024E-01 1.77986E+02-1.20667E+01
 -1       816-3.58659E-01-2.32766E-02 9.10680E+02-5.04350E-03 4.93540E+00-2.23782E+01
 -1       817-3.21919E-01 1.05687E-02 6.96401E+02-1.27693E-01 1.81244E+02-1.57983E+01
 -1       818-2.99339E-01-8.17921E-03 9.10592E+02-3.67176E-03 4.66077E+00-3.07622E+01
 -1       819-3.07578E-01 7.40603E-03 6.16157E+02-7.54425E-02 1.75438E+02-1.19817E+01
 -1       820-3.96727E-01-1.33939E-02 8.03686E+02-5.71846E-02 9.20942E+01-1.66083E+01
 -1       821-2.71018E-01-3.73700E-03 8.03561E+02-2.00858E-03 2.44628E+00-2.23067E+01
 -1       822-6.65661E-01-2.02242E-02 8.57574E+02-2.18171E-01 1.78122E+02-1.23414E+01
 -1       823-5.07561E-01-3.95852E-02 1.12533E+03-1.05401E-02 4.93841E+00-2.26007E+01
 -1       824-5.07283E-01 2.03325E-02 8.57311E+02-2.59649E-01 1.81328E+02-1.61542E+01
 -1       825-4.32586E-01-1.27159E-02 1.12509E+03-7.04661E-03 4.66615E+00-3.10523E+01
 -1       826-5.07178E-01 1.29021E-02 7.77136E+02-1.55698E-01 1.75538E+02-1.21887E+01
 -1       827-6.01999E-01-2.32437E-02 9.91582E+02-1.16050E-01 9.21665E+01-1.68695E+01
 -1       828-4.08189E-01-7.08590E-03 1.01811E+03-4.92682E-03 2.44870E+00-2.24755E+01
 -1       829-9.45871E-01-3.67514E-02 1.01906E+03-4.22391E-01 1.78383E+02-1.28016E+01
 -1       830-5.67251E-01-6.02758E-02 1.34046E+03-2.10442E-02 4.94432E+00-2.29547E+01
 -1       831-7.13116E-01 3.48279E-02 1.01849E+03-5.05578E-01 1.81489E+02-1.67555E+01
 -1       832-5.07155E-01-1.53602E-02 1.33992E+03-1.27315E-02 4.67687E+00-3.15186E+01
 -1       833-7.60811E-01 1.99290E-02 9.38441E+02-3.07448E-01 1.75735E+02-1.25429E+01
 -1       834-7.88060E-01-3.88862E-02 1.17994E+03-2.25617E-01 9.23053E+01-1.72992E+01
 -1       835-5.16322E-01-1.18351E-02 1.23302E+03-1.11367E-02 2.45378E+00-2.27516E+01
 -1       836-1.10445E+00-6.99368E-02 1.18128E+03-7.85373E-01 1.78853E+02-1.35205E+01
 -1       837-2.51287E-01-8.35711E-02 1.55641E+03-4.02000E-02 4.95459E+00-2.34616E+01
 -1       838-8.13051E-01 4.99445E-02 1.18016E+03-9.44647E-01 1.81779E+02-1.77061E+01
 -1       839-3.04449E-01-1.41832E-02 1.55534E+03-2.14741E-02 4.69643E+00-3.21965E+01
 -1       840-9.85456E-01 2.39898E-02 1.10032E+03-5.82719E-01 1.76100E+02-1.31112E+01
 -1       841-7.39769E-01-6.33143E-02 1.36908E+03-4.21041E-01 9.25548E+01-1.79511E+01
 -1       842-4.21229E-01-1.82956E-02 1.44858E+03-2.36176E-02 2.46334E+00-2.31630E+01
 -1       843-6.99495E-01-1.46200E-01 1.34472E+03-1.40143E+00 1.79646E+02-1.45377E+01
 -1       844 1.14046E+00-6.65884E-02 1.77370E+03-7.37910E-02 4.96281E+00-2.40620E+01
 -1       845-4.52234E-01 4.37563E-02 1.34266E+03-1.69310E+00 1.82254E+02-1.90765E+01
 -1       846 7.23900E-01 2.91585E-02 1.77172E+03-3.28747E-02 4.72291E+00-3.30241E+01
 -1       847-9.12958E-01 6.45428E-03 1.26317E+03-1.06060E+00 1.76738E+02-1.39476E+01
 -1       848 9.58710E-02-1.01681E-01 1.55949E+03-7.53884E-01 9.29724E+01-1.88241E+01
 -1       849 3.22815E-01-1.57446E-02 1.66517E+03-4.76543E-02 2.48048E+00-2.36892E+01
 -1       850 1.36169E+00-2.96962E-01 1.51006E+03-2.39290E+00 1.80877E+02-1.57403E+01
 -1       851 5.10901E+00-4.42837E-02 1.99288E+03-1.28602E-01 4.95881E+00-2.44554E+01
 -1       852 1.22110E+00-2.52919E-02 1.50651E+03-2.90065E+00 1.82953E+02-2.07643E+01
 -1       853 3.72866E+00 5.75466E-02 1.98948E+03-4.41012E-02 4.75215E+00-3.36480E+01
 -1       854 1.52930E-01-7.17961E-02 1.42752E+03-1.85042E+00 1.77770E+02-1.50181E+01
 -1       855 3.02086E+00-1.54854E-01 1.75180E+03-1.29093E+00 9.35959E+01-1.97226E+01
 -1       856 2.72472E+00-1.70061E-02 1.88331E+03-9.13334E-02 2.50007E+00-2.41558E+01
 -1       857 7.44727E+00-6.66508E-01 1.67813E+03-3.88298E+00 1.82616E+02-1.65886E+01
 -1       858 1.49004E+01 4.65477E-01 2.21426E+03-2.18221E-01 4.82647E+00-2.37509E+01
 -1       859 6.10661E+00-3.07066E-01 1.67247E+03-4.72398E+00 1.83846E+02-2.21459E+01
 -1       860 1.13327E+01 5.23240E-01 2.20894E+03-3.86500E-02 4.68428E+00-3.29624E+01
 -1       861 3.80212E+00-3.36964E-01 1.59411E+03-3.07942E+00 1.79348E+02-1.60030E+01
 -1       862 1.07439E+01-2.19072E-01 1.94644E+03-2.10258E+00 9.44401E+01-1.99419E+01
 -1       863 8.94322E+00 1.10528E-01 2.10328E+03-1.69210E-01 2.52380E+00-2.39760E+01
 -1       864 2.29199E+01-8.64993E-01 1.84986E+03-5.93879E+00 1.84888E+02-1.54629E+01
 -1       865 3.61638E+01-1.08102E-01 2.43637E+03-3.41023E-01 4.52498E+00-1.96656E+01
 -1       866 1.82534E+01-6.22997E-01 1.84144E+03-7.21980E+00 1.84847E+02-2.13372E+01
 -1       867 2.75653E+01-3.68210E-01 2.42877E+03-8.60554E-03 4.50925E+00-2.81989E+01
 -1       868 1.35614E+01-7.95041E-01 1.76356E+03-4.85290E+00 1.81473E+02-1.58882E+01
 -1       869 2.92429E+01-1.23587E-01 2.14377E+03-3.22306E+00 9.52305E+01-1.75437E+01
 -1       870 2.31865E+01-1.09973E-01 2.32457E+03-2.94432E-01 2.40670E+00-2.16470E+01
 -1       871 5.71921E+01-1.97420E+00 2.02505E+03-8.42003E+00 1.88240E+02-8.98738E+00
 -1       872 8.24634E+01 5.38975E+00 2.65515E+03-5.38814E-01 2.98173E+00-7.69922E+00
 -1       873 4.59777E+01-1.86097E+00 2.01464E+03-1.02550E+01 1.86374E+02-1.37561E+01
 -1       874 6.48646E+01 4.80758E+00 2.64678E+03 1.73682E-01 3.15309E+00-1.30968E+01
 -1       875 3.64502E+01-2.04509E+00 1.93657E+03-7.14958E+00 1.85048E+02-1.21992E+01
 -1       876 6.88631E+01 5.19853E-01 2.34058E+03-4.59790E+00 9.65533E+01-8.61728E+00
 -1       877 5.41173E+01 1.36219E+00 2.54373E+03-4.85808E-01 2.33100E+00-1.37936E+01
 -1       878 1.35522E+02 8.54008E+00 2.20660E+03-1.09256E+01 1.96373E+02 1.04521E+01
 -1       879 1.62002E+02-1.97345E+01 2.85023E+03-8.47898E-01 1.57527E+00 2.16306E+01
 -1       880 1.09955E+02 7.25645E+00 2.19702E+03-1.31349E+01 1.91932E+02 9.91630E+00
 -1       881 1.25903E+02-2.15662E+01 2.84525E+03 2.68819E-01 2.23421E+00 2.40513E+01
 -1       882 8.76455E+01 1.55772E-01 2.11095E+03-9.72347E+00 1.90321E+02 1.78161E-01
 -1       883 1.54297E+02 2.81081E+00 2.53958E+03-6.06957E+00 9.68542E+01 1.52805E+01
 -1       884 1.14812E+02-6.04734E+00 2.75347E+03-7.75384E-01-1.19577E-01 6.12266E+00
 -1       885 2.84482E+02 1.05871E+01 2.39235E+03-1.29308E+01 2.46322E+02 4.60740E+01
 -1       886 3.40930E+02 5.07651E+01 2.97200E+03-1.22397E+00-2.46018E+01 7.18404E+01
 -1       887 2.42850E+02 6.95382E+00 2.38589E+03-1.52365E+01 2.37815E+02 5.96550E+01
 -1       888 2.85415E+02 4.64927E+01 2.97175E+03 8.92568E-01-2.35946E+01 9.64293E+01
 -1       889 1.94419E+02-1.12172E+00 2.29534E+03-1.20174E+01 2.20238E+02 2.69067E+01
 -1       890 3.36895E+02 3.56008E+01 2.75656E+03-7.26375E+00 1.18415E+02 5.74172E+01
 -1       891 2.45112E+02 2.11372E+01 2.93052E+03-8.85203E-01 3.12946E+00 4.49642E+01
 -1       892 6.97990E+02 4.30836E+02 2.68501E+03-1.24111E+01 4.74961E+02 9.15640E+01
 -1       893 6.23494E+02-1.82386E+02 3.32310E+03-6.10799E-01-9.65946E+01 1.27089E+02
 -1       894 6.58643E+02 4.20764E+02 2.67694E+03-1.55927E+01 4.60530E+02 1.39688E+02
 -1       895 5.74344E+02-1.78996E+02 3.31318E+03 7.71116E-01-9.73014E+01 1.95476E+02
 -1       896 4.01001E+02 1.18556E+02 2.40954E+03-1.30789E+01 3.13918E+02 6.81585E+01
 -1       897 6.79847E+02 1.92775E+02 2.99971E+03-7.68992E+00 2.17583E+02 1.06470E+02
 -1       898 3.69102E+02-1.96599E+02 2.98900E+03-4.68935E-01-5.64738E+01 1.00761E+02
 -1       899 1.00825E+03 1.00826E+03 2.20067E+03 2.68054E-04 3.96410E+02 1.15663E+02
 -1       900 2.32369E+03 2.32371E+03 5.07185E+03 2.02116E-04 1.34489E+03 1.54378E+02
 -1       901 1.01060E+03 1.01059E+03 2.20587E+03-4.14586E-04 3.84623E+02 1.78900E+02
 -1       902 2.30260E+03 2.30258E+03 5.02590E+03-3.55388E-04 1.32911E+03 2.40409E+02
 -1       903 7.65011E+02 4.97098E+02 2.41144E+03-8.69894E+00 4.57671E+02 1.04724E+02
 -1       904 1.54873E+03 1.54871E+03 3.38043E+03-2.31518E-04 8.27022E+02 1.35661E+02
 -1       905 1.24558E+03 5.63083E+02 4.02736E+03-2.77276E+00 5.34864E+02 1.43136E+02
 -1       906-2.26930E+03-2.26932E+03-4.95312E+03 4.35207E-14 1.30831E+03 4.91764E-11
 -1       907-9.71055E+02-9.71066E+02-2.11948E+03 5.66112E-12 3.83260E+02 4.38291E-11
 -1       908-6.88189E+02-4.14669E+02-2.57083E+03 3.65098E-12 4.70472E+02 5.98169E-11
 -1       909-6.33670E+02 1.77658E+02-3.22754E+03 3.49237E-12-9.25462E+01 6.69968E-11
 -1       910-2.25997E+03-2.25995E+03-4.93284E+03 1.16354E-04 1.30389E+03 7.30928E+01
 -1       911-9.68043E+02-9.68031E+02-2.11297E+03 1.50324E-04 3.82216E+02 5.42059E+01
 -1       912-6.75130E+02-4.09822E+02-2.56736E+03 5.61294E+00 4.67050E+02 4.23517E+01
 -1       913-6.17227E+02 1.79650E+02-3.22346E+03 5.01749E-01-9.14198E+01 5.95349E+01
 -1       914-1.50455E+03-1.50453E+03-3.28400E+03 6.65200E-12 8.02646E+02 4.40172E-11
 -1       915-7.43652E+02-4.75721E+02-2.31249E+03 6.43247E-12 4.48706E+02 5.02129E-11
 -1       916-6.78115E+02-1.85080E+02-2.89296E+03 1.34520E-12 2.16505E+02 6.65183E-11
 -1       917-1.22965E+03-5.49618E+02-3.92222E+03-2.01927E-12 5.20269E+02 6.40088E-11
 -1       918-2.95982E+02-6.87393E+00-2.28224E+03 6.46710E-12 2.50736E+02 6.96922E-11
 -1       919-3.67073E+02-4.87613E+01-2.87089E+03 4.46321E-12-2.33936E+01 7.65397E-11
 -1       920-2.81360E+02-3.75481E+00-2.27948E+03 6.18911E+00 2.48924E+02 2.17029E+01
 -1       921-3.47056E+02-4.46429E+01-2.86922E+03 8.45757E-02-2.23993E+01 3.43396E+01
 -1       922-4.12351E+02-1.14397E+02-2.30475E+03 6.21372E-12 3.14590E+02 6.44804E-11
 -1       923-3.53363E+02-3.19400E+01-2.64803E+03 6.40102E-12 1.21201E+02 7.63118E-11
 -1       924-4.00048E+02 1.89188E+02-2.89856E+03-1.92757E-12-5.40135E+01 8.08809E-11
 -1       925-1.50521E+02-7.78529E+00-2.10355E+03 7.69557E-12 2.01341E+02 7.72503E-11
 -1       926-1.88469E+02 1.86255E+01-2.75104E+03-4.26883E-12 2.00741E+00 9.64519E-11
 -1       927-1.41288E+02-5.99767E+00-2.10087E+03 5.41346E+00 2.00375E+02 5.34963E+00
 -1       928-1.75019E+02 2.08967E+01-2.74864E+03-1.71903E-02 2.52124E+00 1.10448E+01
 -1       929-2.09963E+02 1.99185E+00-2.19107E+03 4.97825E-12 2.24708E+02 7.37572E-11
 -1       930-1.73686E+02-2.41892E+00-2.43809E+03 5.26704E-12 9.97376E+01 8.59716E-11
 -1       931-2.74358E+02-2.20220E+01-2.83298E+03-2.99083E-12 3.69329E+00 9.09335E-11
 -1       932-6.75269E+01 1.67364E+00-1.92514E+03 8.67223E-13 1.91715E+02 7.47586E-11
 -1       933-1.00103E+02-6.14682E+00-2.55745E+03 8.01775E-12 3.18047E+00 8.51341E-11
 -1       934-6.28331E+01 2.55750E+00-1.92246E+03 4.24839E+00 1.91276E+02-3.82046E+00
 -1       935-9.25401E+01-4.71209E+00-2.55468E+03 4.11440E-03 3.45015E+00-2.94633E+00
 -1       936-1.00024E+02 1.33896E-01-2.00973E+03 3.46020E-12 1.94531E+02 7.73333E-11
 -1       937-8.22500E+01-9.84823E-01-2.24207E+03 2.82008E-12 9.84663E+01 8.46799E-11
 -1       938-1.36375E+02 5.32066E+00-2.65524E+03-7.62529E-13 1.90773E-01 1.00964E-10
 -1       939-2.83078E+01 7.68494E-01-1.74893E+03 4.62501E-12 1.86655E+02 6.42814E-11
 -1       940-4.58004E+01-2.08013E-01-2.33673E+03 1.16409E-11 4.61245E+00 9.36089E-11
 -1       941-2.66129E+01 9.30105E-01-1.74727E+03 3.01822E+00 1.86582E+02-7.20915E+00
 -1       942-4.23797E+01 3.11402E-01-2.33490E+03 3.37075E-02 4.66613E+00-9.14199E+00
 -1       943-4.38655E+01 2.04980E+00-1.83580E+03 1.82680E-12 1.87654E+02 6.75806E-11
 -1       944-3.63773E+01-5.33546E-02-2.04379E+03-5.31494E-12 9.62225E+01 8.14514E-11
 -1       945-6.71461E+01-1.62554E+00-2.44464E+03 4.15925E-12 2.45824E+00 1.04309E-10
 -1       946-1.02346E+01 5.77292E-01-1.57550E+03-7.71232E-12 1.82923E+02 7.23352E-11
 -1       947-2.00908E+01-5.75704E-01-2.11226E+03 1.11000E-11 4.85880E+00 7.14480E-11
 -1       948-9.85529E+00 4.74930E-01-1.57455E+03 1.98101E+00 1.83113E+02-7.91031E+00
 -1       949-1.87252E+01-4.70250E-01-2.11122E+03 3.27227E-02 4.76721E+00-1.13689E+01
 -1       950-1.74454E+01 7.28671E-01-1.66168E+03 3.52604E-12 1.82497E+02 7.41424E-11
 -1       951-1.45304E+01 9.93669E-02-1.84439E+03 9.03520E-13 9.46510E+01 8.19257E-11
 -1       952-3.02742E+01-3.30201E-02-2.22360E+03 1.82073E-11 2.46809E+00 9.34170E-11
 -1       953-2.71181E+00 2.48989E-01-1.40580E+03-4.20696E-12 1.80112E+02 6.06244E-11
 -1       954-7.74733E+00 2.73777E-02-1.88888E+03-8.16693E-12 4.95110E+00 7.00955E-11
 -1       955-2.78089E+00 1.05413E-01-1.40530E+03 1.22019E+00 1.80484E+02-7.62268E+00
 -1       956-7.26392E+00 4.16835E-03-1.88832E+03 2.69730E-02 4.77465E+00-1.18977E+01
 -1       957-5.77502E+00 2.65313E-01-1.49059E+03-6.05280E-12 1.79106E+02 6.75170E-11
 -1       958-4.90926E+00 9.45589E-02-1.64788E+03 4.16474E-12 9.32388E+01 6.84279E-11
 -1       959-1.26851E+01-1.49951E-01-2.00018E+03-6.44240E-12 2.53263E+00 8.96341E-11
 -1       960 7.35597E-02 1.21314E-01-1.23927E+03-2.63269E-11 1.78166E+02 6.10063E-11
 -1       961-2.42947E+00 8.41409E-02-1.66831E+03 3.44256E-14 4.93491E+00 6.71447E-11
 -1       962-1.15897E-01-6.64718E-03-1.23905E+03 7.13468E-01 1.78655E+02-7.11644E+00
 -1       963-2.32154E+00 2.27051E-02-1.66807E+03 1.80426E-02 4.70600E+00-1.18226E+01
 -1       964-1.11235E+00 1.24589E-02-1.32265E+03-9.27710E-12 1.76638E+02 6.43597E-11
 -1       965-1.00135E+00 7.30911E-02-1.45421E+03-3.31671E-11 9.22389E+01 6.78926E-11
 -1       966-4.61418E+00 8.97778E-03-1.77857E+03-9.00701E-12 2.48370E+00 8.38148E-11
 -1       967 8.35379E-01 5.79741E-02-1.07506E+03-2.24637E-11 1.76931E+02 5.60171E-11
 -1       968-3.41567E-01 1.05541E-01-1.45016E+03-4.38305E-11 4.91623E+00 2.78846E-11
 -1       969 6.61816E-01-3.26406E-02-1.07498E+03 3.98456E-01 1.77490E+02-6.67005E+00
 -1       970-3.59427E-01 5.10912E-02-1.45008E+03 1.11456E-02 4.65691E+00-1.16016E+01
 -1       971 4.68997E-01-4.73606E-02-1.15732E+03-2.92053E-11 1.75031E+02 7.31385E-11
 -1       972 3.32945E-01 5.02468E-02-1.26292E+03-2.80799E-11 9.15896E+01 5.21952E-11
 -1       973-1.23460E+00 2.00455E-02-1.55934E+03-1.36189E-11 2.44941E+00 6.70496E-11
 -1       974 8.45431E-01 3.21961E-02-9.12359E+02 2.62371E-11 1.76203E+02 5.14472E-11
 -1       975 3.17840E-01 7.81696E-02-1.23371E+03 3.44577E-11 4.90162E+00 4.71171E-11
 -1       976 7.17815E-01-2.65329E-02-9.12354E+02 2.13249E-01 1.76803E+02-6.34817E+00
 -1       977 2.68932E-01 3.87444E-02-1.23371E+03 6.37187E-03 4.62515E+00-1.13956E+01
 -1       978 7.96637E-01-4.91092E-02-9.93855E+02 1.64751E-11 1.74046E+02 4.91407E-11
 -1       979 6.23551E-01 3.37912E-02-1.07325E+03 1.76177E-11 9.12061E+01 4.91467E-11
 -1       980 1.01522E-02 2.47140E-02-1.34207E+03 8.01667E-12 2.42519E+00 7.55661E-11
 -1       981 6.39863E-01 1.94187E-02-7.50596E+02 8.66514E-13 1.75800E+02 2.75494E-11
 -1       982 4.18525E-01 5.17366E-02-1.01831E+03-2.01277E-11 4.89434E+00 7.65332E-12
 -1       983 5.56599E-01-1.59491E-02-7.50623E+02 1.09393E-01 1.76423E+02-6.13937E+00
 -1       984 3.73626E-01 2.64189E-02-1.01834E+03 3.43782E-03 4.60848E+00-1.12455E+01
 -1       985 6.92574E-01-3.38117E-02-8.31598E+02 2.44581E-11 1.73483E+02 4.62208E-11
 -1       986 5.48695E-01 2.18997E-02-8.84599E+02-2.13459E-11 9.09942E+01 3.20944E-11
 -1       987 3.49477E-01 1.71620E-02-1.12613E+03 1.29073E-11 2.41241E+00 4.37147E-11
 -1       988 4.23482E-01 1.22599E-02-5.89376E+02 1.48346E-11 1.75590E+02 2.73882E-11
 -1       989 3.38450E-01 3.07054E-02-8.03515E+02-5.61424E-12 4.89127E+00 1.97969E-12
 -1       990 3.73086E-01-7.94183E-03-5.89411E+02 5.36503E-02 1.76225E+02-6.01321E+00
 -1       991 3.05992E-01 1.56249E-02-8.03557E+02 1.75206E-03 4.60049E+00-1.11484E+01
 -1       992 4.91928E-01-1.97466E-02-6.70078E+02 1.93718E-11 1.73179E+02 3.45139E-11
 -1       993 3.89845E-01 1.36710E-02-6.96544E+02 6.44766E-11 9.08843E+01 1.44326E-11
 -1       994 3.53300E-01 1.06735E-02-9.11009E+02 2.46360E-11 2.40609E+00 2.17834E-11
 -1       995 2.55837E-01 7.62818E-03-4.28457E+02-2.53076E-11 1.75487E+02 1.37942E-11
 -1       996 2.27617E-01 1.69842E-02-5.89051E+02 7.94773E-11 4.89040E+00 4.85367E-12
 -1       997 2.27242E-01-3.32069E-03-4.28488E+02 2.49777E-02 1.76128E+02-5.94125E+00
 -1       998 2.06990E-01 8.56178E-03-5.89089E+02 8.40608E-04 4.59713E+00-1.10904E+01
 -1       999 3.12651E-01-1.02465E-02-5.08982E+02-8.36123E-14 1.73024E+02 2.65163E-11
 -1      1000 2.45609E-01 8.13926E-03-5.08817E+02-8.40015E-12 9.08307E+01 9.11415E-12
 -1      1001 2.62641E-01 5.84381E-03-6.96355E+02 4.65222E-11 2.40336E+00 2.91850E-11
 -1      1002 1.40233E-01 4.45420E-03-2.67696E+02-5.86952E-11 1.75439E+02 3.54283E-11
 -1      1003 1.33395E-01 8.57625E-03-3.74756E+02 3.22699E-12 4.89040E+00 3.21381E-11
 -1      1004 1.25258E-01-1.07179E-03-2.67717E+02 1.07920E-02 1.76083E+02-5.90265E+00
 -1      1005 1.21699E-01 4.23133E-03-3.74782E+02 3.70273E-04 4.59593E+00-1.10584E+01
 -1      1006 1.81642E-01-4.76335E-03-3.48119E+02-2.21185E-11 1.72949E+02 2.80493E-11
 -1      1007 1.38412E-01 4.49559E-03-3.21262E+02-2.16693E-11 9.08064E+01 4.57082E-11
 -1      1008 1.67018E-01 2.93492E-03-4.81951E+02 1.61700E-11 2.40230E+00 6.34876E-11
 -1      1009 6.15508E-02 2.11511E-03-1.07012E+02-3.93244E-11 1.75420E+02 3.79429E-11
 -1      1010 6.15534E-02 3.49629E-03-1.60540E+02-6.96916E-11 4.89064E+00 1.45269E-11
 -1      1011 5.51836E-02-1.72968E-04-1.07021E+02 3.81337E-03 1.76065E+02-5.88419E+00
 -1      1012 5.62712E-02 1.66584E-03-1.60552E+02 1.28768E-04 4.59564E+00-1.10427E+01
 -1      1013 9.24116E-02-1.85426E-03-1.87376E+02-7.19744E-11 1.72916E+02 2.37826E-11
 -1      1014 6.20627E-02 2.00441E-03-1.33791E+02-5.36089E-11 9.07967E+01 3.38186E-11
 -1      1015 9.01676E-02 1.29465E-03-2.67674E+02-1.89391E-11 2.40198E+00 3.94688E-11
 -1      1016 4.83014E-04 6.15051E-05 5.36404E+01-8.22081E-11 1.75415E+02-1.29853E-12
 -1      1017 2.55681E-03-1.85564E-05 5.36445E+01 1.56300E-10 4.89084E+00-1.06369E-10
 -1      1018 4.66693E-04 5.61772E-05 5.36454E+01-2.51010E-04 1.76061E+02-5.87885E+00
 -1      1019 2.40668E-03-3.42239E-05 5.36495E+01-1.89473E-05 4.59570E+00-1.10381E+01
 -1      1020 2.86152E-02-3.39694E-04-2.66899E+01-8.74742E-11 1.72904E+02 4.86665E-11
 -1      1021 1.33781E-03-2.26047E-05 5.36474E+01 3.27229E-11 9.07944E+01-4.70066E-11
 -1      1022 2.99420E-02 3.88786E-04-5.34531E+01 2.23483E-11 2.40196E+00 8.37849E-12
 -1      1023-6.29506E-02-2.33888E-03 2.14293E+02-6.08154E-11 1.75421E+02-3.29660E-11
 -1      1024-5.81403E-02-3.43783E-03 2.67831E+02-5.52846E-11 4.89097E+00-7.64651E-11
 -1      1025-5.63833E-02 5.32270E-06 2.14312E+02-4.36588E-03 1.76066E+02-5.88468E+00
 -1      1026-5.29361E-02-1.57544E-03 2.67852E+02-1.70888E-04 4.59597E+00-1.10432E+01
 -1      1027-2.80755E-02 5.85973E-04 1.33981E+02-7.60392E-12 1.72905E+02-2.47077E-11
 -1      1028-6.15805E-02-2.28982E-03 2.41086E+02-4.78952E-11 9.07973E+01-5.25298E-11
 -1      1029-2.50046E-02-2.11017E-04 1.60753E+02 4.15056E-11 2.40208E+00-6.42578E-11
 -1      1030-1.49964E-01-5.89767E-03 3.74977E+02 1.00326E-10 1.75440E+02-2.28684E-12
 -1      1031-1.36335E-01-8.18104E-03 4.82052E+02-2.08955E-11 4.89108E+00-1.07122E-10
 -1      1032-1.33975E-01-8.18051E-05 3.75009E+02-1.14788E-02 1.76084E+02-5.90441E+00
 -1      1033-1.23918E-01-3.58101E-03 4.82088E+02-4.23978E-04 4.59660E+00-1.10602E+01
 -1      1034-9.68289E-02 1.47698E-03 2.94668E+02 2.77463E-11 1.72917E+02-3.16880E-11
 -1      1035-1.45800E-01-5.61502E-03 4.28560E+02 7.21517E-11 9.08070E+01-5.08523E-11
 -1      1036-8.88950E-02-8.37542E-04 3.74977E+02-1.89501E-11 2.40234E+00-7.57054E-11
 -1      1037-2.83775E-01-1.17326E-02 5.35740E+02 3.53398E-11 1.75483E+02-6.35267E-11
 -1      1038-2.45646E-01-1.58534E-02 6.96356E+02 9.50879E-11 4.89142E+00-6.83449E-11
 -1      1039-2.52403E-01 1.23804E-05 5.35782E+02-2.58144E-02 1.76124E+02-5.94615E+00
 -1      1040-2.22494E-01-6.68694E-03 6.96404E+02-9.08753E-04 4.59811E+00-1.10956E+01
 -1      1041-1.98480E-01 2.79393E-03 4.55412E+02 4.59502E-11 1.72947E+02-3.45653E-11
 -1      1042-2.70684E-01-1.10424E-02 6.16118E+02 2.67978E-11 9.08294E+01-5.44627E-11
 -1      1043-1.75678E-01-1.81230E-03 5.89262E+02 4.64632E-11 2.40292E+00-1.41670E-11
 -1      1044-4.86624E-01-2.15002E-02 6.96664E+02-3.53196E-11 1.75574E+02-7.88676E-11
 -1      1045-3.88162E-01-2.81495E-02 9.10833E+02-4.37309E-11 4.89247E+00-7.27348E-11
 -1      1046-4.30080E-01 4.67048E-04 6.96709E+02-5.44779E-02 1.76209E+02-6.02483E+00
 -1      1047-3.49573E-01-1.13774E-02 9.10885E+02-1.82544E-03 4.60156E+00-1.11609E+01
 -1      1048-3.54789E-01 4.96073E-03 6.16279E+02-9.48175E-13 1.73014E+02-6.68428E-11
 -1      1049-4.50128E-01-1.99415E-02 8.03849E+02-3.34937E-11 9.08770E+01-7.68831E-11
 -1      1050-2.93371E-01-3.44875E-03 8.03677E+02-3.24497E-11 2.40423E+00-7.55794E-11
 -1      1051-7.66003E-01-3.78321E-02 8.57893E+02-3.32942E-11 1.75757E+02-1.26638E-11
 -1      1052-5.29489E-01-4.66377E-02 1.12564E+03-1.19304E-11 4.89517E+00-1.04283E-10
 -1      1053-6.70625E-01 1.01722E-03 8.57929E+02-1.09662E-01 1.76380E+02-6.16392E+00
 -1      1054-4.71796E-01-1.79296E-02 1.12568E+03-3.47934E-03 4.60900E+00-1.12725E+01
 -1      1055-5.81164E-01 8.14906E-03 7.77383E+02-5.30741E-11 1.73150E+02-1.80346E-11
 -1      1056-6.73813E-01-3.40479E-02 9.91910E+02 2.45421E-11 9.09728E+01-6.22616E-11
 -1      1057-4.28597E-01-6.07121E-03 1.01835E+03-1.50005E-11 2.40705E+00-7.19394E-11
 -1      1058-1.07630E+00-6.58412E-02 1.01967E+03 7.41737E-11 1.76105E+02-1.52176E-11
 -1      1059-5.38784E-01-6.88027E-02 1.34106E+03-8.98108E-11 4.90066E+00-1.08774E-10
 -1      1060-9.26771E-01-8.05219E-04 1.01968E+03-2.11619E-01 1.76705E+02-6.39560E+00
 -1      1061-4.65632E-01-2.31565E-02 1.34106E+03-6.28630E-03 4.62352E+00-1.14484E+01
 -1      1062-8.63298E-01 1.10431E-02 9.38918E+02-9.66919E-11 1.73414E+02-4.40833E-11
 -1      1063-8.59742E-01-5.54451E-02 1.18056E+03-1.50289E-11 9.11557E+01-5.35167E-11
 -1      1064-5.08085E-01-9.01223E-03 1.23348E+03 5.69149E-13 2.41293E+00-8.93140E-11
 -1      1065-1.22616E+00-1.14826E-01 1.18240E+03 1.49814E-10 1.76732E+02-1.09561E-10
 -1      1066-6.27132E-02-8.97911E-02 1.55750E+03-3.02073E-12 4.91036E+00 7.94528E-12
 -1      1067-1.01599E+00-1.36726E-02 1.18233E+03-3.92128E-01 1.77293E+02-6.75487E+00
 -1      1068-2.48519E-03-2.48070E-02 1.55742E+03-1.07281E-02 4.64976E+00-1.16971E+01
 -1      1069-1.09786E+00 7.99854E-03 1.10120E+03 5.98851E-11 1.73902E+02-5.77010E-11
 -1      1070-7.44899E-01-8.59054E-02 1.37022E+03 4.97973E-11 9.14851E+01-4.18493E-11
 -1      1071-3.13516E-01-1.14418E-02 1.44942E+03-5.53810E-11 2.42394E+00-2.37917E-11
 -1      1072-6.81828E-01-2.09888E-01 1.34667E+03 2.89466E-11 1.77797E+02-9.72619E-11
 -1      1073 1.74499E+00-5.90666E-02 1.77559E+03 1.19980E-10 4.91782E+00-9.04723E-11
 -1      1074-4.36220E-01-6.56925E-02 1.34644E+03-6.97169E-01 1.78288E+02-7.25689E+00
 -1      1075 1.70546E+00 1.88289E-02 1.77534E+03-1.68925E-02 4.68664E+00-1.19825E+01
 -1      1076-9.60103E-01-2.14109E-02 1.26471E+03 4.46881E-11 1.74756E+02-7.04257E-11
 -1      1077 3.37795E-01-1.26827E-01 1.56148E+03 4.79323E-11 9.20403E+01-9.28863E-11
 -1      1078 6.98703E-01-1.22555E-04 1.66666E+03 1.88095E-10 2.44358E+00-6.11591E-11
 -1      1079 1.86303E+00-3.72555E-01 1.51328E+03 8.04649E-11 1.79477E+02-1.04210E-10
 -1      1080 6.68079E+00 5.57044E-03 1.99595E+03 3.20353E-11 4.91148E+00-1.64874E-10
 -1      1081 2.00813E+00-2.07026E-01 1.51276E+03-1.18493E+00 1.79855E+02-7.83560E+00
 -1      1082 6.29686E+00 5.15496E-02 1.99537E+03-2.44103E-02 4.73140E+00-1.21430E+01
 -1      1083 3.82569E-01-1.17940E-01 1.43010E+03 1.61553E-11 1.76152E+02-9.65763E-11
 -1      1084 3.93887E+00-1.65955E-01 1.75506E+03 8.44902E-11 9.28897E+01-1.24882E-10
 -1      1085 3.73886E+00 1.64763E-02 1.88575E+03 1.23636E-10 2.46759E+00-1.03473E-10
 -1      1086 9.24304E+00-7.25496E-01 1.68308E+03 1.49985E-10 1.81917E+02-1.57860E-10
 -1      1087 1.86043E+01 6.23027E-01 2.21886E+03-7.74661E-11 4.77526E+00-1.00682E-10
 -1      1088 8.94883E+00-5.97932E-01 1.68209E+03-1.91317E+00 1.82117E+02-8.19616E+00
 -1      1089 1.73648E+01 5.44905E-01 2.21778E+03-2.76129E-02 4.67847E+00-1.17037E+01
 -1      1090 4.82514E+00-4.11078E-01 1.59812E+03 1.20018E-10 1.78315E+02-1.18253E-10
 -1      1091 1.32981E+01-1.75661E-01 1.95137E+03 7.81598E-11 9.40847E+01-1.31588E-10
 -1      1092 1.13824E+01 1.78472E-01 2.10702E+03 8.15861E-11 2.49648E+00-1.41209E-10
 -1      1093 2.75830E+01-8.77324E-01 1.85663E+03-2.07725E-11 1.85221E+02-1.58006E-10
 -1      1094 4.40431E+01 2.00090E-01 2.44231E+03 7.57168E-11 4.45569E+00-1.51742E-10
 -1      1095 2.59387E+01-1.02277E+00 1.85490E+03-2.90069E+00 1.85162E+02-7.51886E+00
 -1      1096 4.07382E+01-2.98729E-01 2.44043E+03-2.48485E-02 4.50390E+00-9.51568E+00
 -1      1097 1.64916E+01-8.91207E-01 1.76929E+03-1.89759E-11 1.81320E+02-1.39610E-10
 -1      1098 3.52127E+01 1.55766E-02 2.15037E+03 2.53419E-11 9.53820E+01-1.44714E-10
 -1      1099 2.85700E+01 3.33744E-02 2.32968E+03 1.11353E-10 2.39212E+00-9.76231E-11
 -1      1100 6.81030E+01-1.63200E+00 2.03294E+03 3.38244E-11 1.90001E+02-1.44049E-10
 -1      1101 9.88237E+01 6.23073E+00 2.66111E+03-2.80252E-10 2.88379E+00-2.48490E-10
 -1      1102 6.33298E+01-2.53543E+00 2.03016E+03-4.06792E+00 1.89580E+02-3.99693E+00
 -1      1103 9.12739E+01 4.78764E+00 2.65827E+03 9.37364E-03 3.15028E+00-3.18670E+00
 -1      1104 4.35702E+01-2.16914E+00 1.94348E+03-5.56101E-11 1.86155E+02-1.81998E-10
 -1      1105 8.20862E+01 1.09682E+00 2.34790E+03-8.85505E-11 9.74099E+01-1.94463E-10
 -1      1106 6.54240E+01 1.61319E+00 2.54921E+03-8.84185E-11 2.32393E+00-2.09673E-10
 -1      1107 1.54679E+02 8.61594E+00 2.21149E+03 1.66771E-11 2.00096E+02-1.51982E-10
 -1      1108 1.88844E+02-1.97001E+01 2.85104E+03 9.64702E-11 1.56844E+00-1.96262E-10
 -1      1109 1.45135E+02 6.76121E+00 2.20874E+03-5.17948E+00 1.99139E+02 5.64393E+00
 -1      1110 1.75194E+02-2.20174E+01 2.84863E+03 3.35324E-02 2.08542E+00 1.13134E+01
 -1      1111 1.01928E+02 1.02793E-01 2.11738E+03-1.99979E-11 1.93096E+02-1.60448E-10
 -1      1112 1.76586E+02 2.84570E+00 2.54295E+03 5.99050E-11 9.87225E+01-1.86110E-10
 -1      1113 1.35641E+02-5.73873E+00 2.75719E+03 1.49732E-10-1.05005E-01-1.21212E-10
 -1      1114 3.07215E+02 8.64823E+00 2.39066E+03 3.31784E-11 2.52994E+02-1.83528E-10
 -1      1115 3.72652E+02 4.94923E+01 2.96440E+03 5.09758E-11-2.48023E+01-1.56132E-10
 -1      1116 2.91988E+02 5.38493E+00 2.38787E+03-5.95900E+00 2.51167E+02 2.28793E+01
 -1      1117 3.52124E+02 4.52435E+01 2.96279E+03-7.79690E-02-2.37886E+01 3.55721E+01
 -1      1118 2.17016E+02-1.11791E+00 2.29916E+03 2.48507E-11 2.25205E+02-1.53968E-10
 -1      1119 3.63524E+02 3.40194E+01 2.75316E+03 3.57049E-11 1.21807E+02-1.56654E-10
 -1      1120 2.77319E+02 2.22918E+01 2.93083E+03-4.87062E-11 3.45366E+00-2.08668E-10
 -1      1121 7.17172E+02 4.33744E+02 2.68505E+03 1.85187E-11 4.85597E+02-1.31622E-10
 -1      1122 6.49641E+02-1.84821E+02 3.32779E+03 4.28859E-11-9.60024E+01-9.50041E-11
 -1      1123 7.03610E+02 4.28762E+02 2.68162E+03-5.48422E+00 4.82122E+02 4.45512E+01
 -1      1124 6.32748E+02-1.86930E+02 3.32374E+03-5.13998E-01-9.48736E+01 6.18515E+01
 -1      1125 4.29312E+02 1.21016E+02 2.41132E+03 1.15215E-11 3.21567E+02-1.23517E-10
 -1      1126 7.01845E+02 1.93743E+02 3.00117E+03 1.91558E-11 2.23709E+02-1.17570E-10
 -1      1127 4.06924E+02-1.97269E+02 2.98942E+03 6.06892E-12-5.63985E+01-9.88771E-11
 -1      1128 1.01400E+03 1.01401E+03 2.21320E+03 7.00915E-11 4.03787E+02-1.13081E-10
 -1      1129 2.34741E+03 2.34743E+03 5.12361E+03 2.63540E-11 1.36024E+03-9.82179E-11
 -1      1130 1.01091E+03 1.01089E+03 2.20652E+03-1.48273E-04 4.02730E+02 5.68000E+01
 -1      1131 2.33795E+03 2.33793E+03 5.10305E+03-1.15073E-04 1.35578E+03 7.57741E+01
 -1      1132 7.77053E+02 4.99673E+02 2.41577E+03 1.39515E-11 4.66859E+02-1.40183E-10
 -1      1133 1.56099E+03 1.56097E+03 3.40721E+03-8.59667E-12 8.37842E+02-1.26254E-10
 -1      1134 1.26984E+03 5.68890E+02 4.05246E+03 3.49453E-11 5.40681E+02-1.00854E-10
 -1      1135-2.24573E+03-2.24575E+03-4.90169E+03 2.04266E-04 1.29310E+03-1.48935E+02
 -1      1136-9.65318E+02-9.65329E+02-2.10696E+03 2.72599E-04 3.75976E+02-1.10386E+02
 -1      1137-6.69557E+02-4.11695E+02-2.57017E+03-1.26661E+01 4.59989E+02-8.70587E+01
 -1      1138-6.08024E+02 1.75252E+02-3.22230E+03-6.50067E-01-9.31051E+01-1.22353E+02
 -1      1139-2.25997E+03-2.25995E+03-4.93284E+03-1.16354E-04 1.30389E+03-7.30928E+01
 -1      1140-9.68043E+02-9.68031E+02-2.11297E+03-1.50324E-04 3.82216E+02-5.42059E+01
 -1      1141-6.75130E+02-4.09822E+02-2.56736E+03-5.61294E+00 4.67050E+02-4.23517E+01
 -1      1142-6.17227E+02 1.79650E+02-3.22346E+03-5.01749E-01-9.14198E+01-5.95349E+01
 -1      1143-1.49232E+03-1.49230E+03-3.25731E+03-2.33771E-04 7.91941E+02-1.30337E+02
 -1      1144-7.31887E+02-4.73091E+02-2.30776E+03-8.82188E+00 4.39649E+02-9.97736E+01
 -1      1145-6.56622E+02-1.84079E+02-2.89089E+03-7.83609E+00 2.10484E+02-1.01934E+02
 -1      1146-1.20571E+03-5.43812E+02-3.89691E+03-2.72154E+00 5.14494E+02-1.37975E+02
 -1      1147-2.74054E+02-8.73619E+00-2.28350E+03-1.34111E+01 2.44111E+02-4.37165E+01
 -1      1148-3.36000E+02-4.99683E+01-2.87786E+03-1.25606E+00-2.32055E+01-6.93680E+01
 -1      1149-2.81360E+02-3.75481E+00-2.27948E+03-6.18911E+00 2.48924E+02-2.17029E+01
 -1      1150-3.47056E+02-4.46429E+01-2.86922E+03-8.45757E-02-2.23993E+01-3.43396E+01
 -1      1151-3.85097E+02-1.12005E+02-2.30261E+03-1.34652E+01 3.07031E+02-6.47579E+01
 -1      1152-3.27449E+02-3.34564E+01-2.65093E+03-7.53526E+00 1.17829E+02-5.50317E+01
 -1      1153-3.63145E+02 1.88494E+02-2.89764E+03-5.31020E-01-5.40678E+01-9.71644E+01
 -1      1154-1.31992E+02-7.73753E+00-2.09876E+03-1.14135E+01 1.97587E+02-9.90896E+00
 -1      1155-1.62039E+02 1.86610E+01-2.75016E+03-8.93527E-01 2.00580E+00-2.11399E+01
 -1      1156-1.41288E+02-5.99767E+00-2.10087E+03-5.41346E+00 2.00375E+02-5.34963E+00
 -1      1157-1.75019E+02 2.08967E+01-2.74864E+03 1.71903E-02 2.52124E+00-1.10448E+01
 -1      1158-1.88159E+02 1.97285E+00-2.18719E+03-1.25203E+01 2.19744E+02-2.55468E+01
 -1      1159-1.51920E+02-2.40366E+00-2.43476E+03-6.35092E+00 9.78484E+01-1.47428E+01
 -1      1160-2.42769E+02-2.08905E+01-2.83245E+03-9.42870E-01 3.37570E+00-4.35809E+01
 -1      1161-5.68634E+01 1.97486E+00-1.91763E+03-8.79618E+00 1.89895E+02 8.58908E+00
 -1      1162-8.37981E+01-5.32367E+00-2.55179E+03-5.79520E-01 3.26970E+00 7.17401E+00
 -1      1163-6.28331E+01 2.55750E+00-1.92246E+03-4.24839E+00 1.91276E+02 3.82046E+00
 -1      1164-9.25401E+01-4.71209E+00-2.55468E+03-4.11440E-03 3.45015E+00 2.94633E+00
 -1      1165-8.61355E+01 6.18735E-02-2.00353E+03-1.01612E+01 1.91710E+02-1.46219E-01
 -1      1166-6.91981E+01-4.45412E-01-2.23509E+03-4.81621E+00 9.75735E+01 8.19111E+00
 -1      1167-1.15733E+02 5.63367E+00-2.65163E+03-8.19768E-01 1.69387E-01-6.18823E+00
 -1      1168-2.36351E+01 7.41289E-01-1.74254E+03-6.18227E+00 1.86272E+02 1.48301E+01
 -1      1169-3.77692E+01 9.94243E-02-2.33113E+03-3.70369E-01 4.67612E+00 1.89082E+01
 -1      1170-2.66129E+01 9.30105E-01-1.74727E+03-3.01822E+00 1.86582E+02 7.20915E+00
 -1      1171-4.23797E+01 3.11402E-01-2.33490E+03-3.37075E-02 4.66613E+00 9.14199E+00
 -1      1172-3.68259E+01 1.91572E+00-1.82924E+03-7.45783E+00 1.86493E+02 1.16793E+01
 -1      1173-3.03417E+01 7.37772E-02-2.03755E+03-3.36485E+00 9.60409E+01 1.68799E+01
 -1      1174-5.57530E+01-1.36815E+00-2.43946E+03-5.17162E-01 2.45957E+00 1.31453E+01
 -1      1175-8.34787E+00 5.12906E-01-1.57085E+03-4.02305E+00 1.83589E+02 1.60159E+01
 -1      1176-1.62057E+01-4.15008E-01-2.10795E+03-2.35866E-01 4.90755E+00 2.30839E+01
 -1      1177-9.85529E+00 4.74930E-01-1.57455E+03-1.98101E+00 1.83113E+02 7.91031E+00
 -1      1178-1.87252E+01-4.70250E-01-2.11122E+03-3.27227E-02 4.76721E+00 1.13689E+01
 -1      1179-1.44477E+01 6.28303E-01-1.65628E+03-5.04111E+00 1.82609E+02 1.52923E+01
 -1      1180-1.18503E+01 1.39504E-01-1.83975E+03-2.18404E+00 9.49871E+01 1.93436E+01
 -1      1181-2.47084E+01 1.16251E-01-2.21881E+03-3.14061E-01 2.47912E+00 2.09411E+01
 -1      1182-2.11141E+00 1.73346E-01-1.40279E+03-2.46546E+00 1.81492E+02 1.53188E+01
 -1      1183-6.02423E+00 8.19437E-02-1.88601E+03-1.38493E-01 4.99735E+00 2.39719E+01
 -1      1184-2.78089E+00 1.05413E-01-1.40530E+03-1.22019E+00 1.80484E+02 7.62268E+00
 -1      1185-7.26392E+00 4.16835E-03-1.88832E+03-2.69730E-02 4.77465E+00 1.18977E+01
 -1      1186-4.65099E+00 1.90154E-01-1.48683E+03-3.18252E+00 1.80114E+02 1.55160E+01
 -1      1187-3.87217E+00 8.46813E-02-1.64482E+03-1.33323E+00 9.39341E+01 1.92831E+01
 -1      1188-1.00756E+01-7.70388E-02-1.99670E+03-1.80216E-01 2.55785E+00 2.34112E+01
 -1      1189 1.69829E-01 5.93284E-02-1.23745E+03-1.43486E+00 1.80005E+02 1.42618E+01
 -1      1190-1.71885E+00 9.58447E-02-1.66656E+03-7.87508E-02 4.97956E+00 2.37490E+01
 -1      1191-1.15897E-01-6.64718E-03-1.23905E+03-7.13468E-01 1.78655E+02 7.11644E+00
 -1      1192-2.32154E+00 2.27051E-02-1.66807E+03-1.80426E-02 4.70600E+00 1.18226E+01
 -1      1193-7.93768E-01-3.36488E-02-1.32024E+03-1.90117E+00 1.78241E+02 1.46778E+01
 -1      1194-6.70424E-01 5.03638E-02-1.45235E+03-7.73412E-01 9.31654E+01 1.85368E+01
 -1      1195-3.47270E+00 4.57760E-02-1.77629E+03-9.70784E-02 2.51515E+00 2.37665E+01
 -1      1196 7.67492E-01 1.49303E-02-1.07401E+03-7.98290E-01 1.79047E+02 1.33549E+01
 -1      1197-8.60818E-02 1.02362E-01-1.44915E+03-4.24315E-02 4.96041E+00 2.32757E+01
 -1      1198 6.61816E-01-3.26406E-02-1.07498E+03-3.98456E-01 1.77490E+02 6.67005E+00
 -1      1199-3.59427E-01 5.10912E-02-1.45008E+03-1.11456E-02 4.65691E+00 1.16016E+01
 -1      1200 4.86225E-01-7.48584E-02-1.15588E+03-1.08240E+00 1.77006E+02 1.37328E+01
 -1      1201 3.86515E-01 2.98655E-02-1.26185E+03-4.28633E-01 9.26570E+01 1.77788E+01
 -1      1202-7.75076E-01 3.77008E-02-1.55796E+03-5.03290E-02 2.48584E+00 2.34463E+01
 -1      1203 7.48405E-01 4.57279E-03-9.11784E+02-4.25669E-01 1.78479E+02 1.27095E+01
 -1      1204 3.85103E-01 7.16164E-02-1.23315E+03-2.18742E-02 4.94534E+00 2.28524E+01
 -1      1205 7.17815E-01-2.65329E-02-9.12354E+02-2.13249E-01 1.76803E+02 6.34817E+00
 -1      1206 2.68932E-01 3.87444E-02-1.23371E+03-6.37187E-03 4.62515E+00 1.13956E+01
 -1      1207 7.25801E-01-6.47246E-02-9.93032E+02-5.90056E-01 1.76241E+02 1.29861E+01
 -1      1208 5.87226E-01 1.88624E-02-1.07266E+03-2.27584E-01 9.23547E+01 1.72035E+01
 -1      1209 1.68052E-01 3.27183E-02-1.34128E+03-2.46931E-02 2.46441E+00 2.30231E+01
 -1      1210 5.58634E-01 2.81236E-03-7.50294E+02-2.17571E-01 1.78165E+02 1.22941E+01
 -1      1211 4.17366E-01 4.58571E-02-1.01802E+03-1.07270E-02 4.93766E+00 2.25488E+01
 -1      1212 5.56599E-01-1.59491E-02-7.50623E+02-1.09393E-01 1.76423E+02 6.13937E+00
 -1      1213 3.73626E-01 2.64189E-02-1.01834E+03-3.43782E-03 4.60848E+00 1.12455E+01
 -1      1214 6.14710E-01-4.24076E-02-8.31150E+02-3.08407E-01 1.75803E+02 1.24754E+01
 -1      1215 4.96547E-01 1.21580E-02-8.84289E+02-1.15744E-01 9.21877E+01 1.68204E+01
 -1      1216 3.85512E-01 2.05844E-02-1.12570E+03-1.14472E-02 2.45322E+00 2.26769E+01
 -1      1217 3.66840E-01 2.75392E-03-5.89224E+02-1.06295E-01 1.78002E+02 1.20445E+01
 -1      1218 3.19079E-01 2.64755E-02-8.03370E+02-4.97762E-03 4.93426E+00 2.23543E+01
 -1      1219 3.73086E-01-7.94183E-03-5.89411E+02-5.36503E-02 1.76225E+02 6.01321E+00
 -1      1220 3.05992E-01 1.56249E-02-8.03557E+02-1.75206E-03 4.60049E+00 1.11484E+01
 -1      1221 4.31411E-01-2.43052E-02-6.69844E+02-1.54366E-01 1.75567E+02 1.21551E+01
 -1      1222 3.46490E-01 7.75710E-03-6.96388E+02-5.62066E-02 9.21016E+01 1.65854E+01
 -1      1223 3.47038E-01 1.19723E-02-9.10786E+02-4.91901E-03 2.44775E+00 2.24389E+01
 -1      1224 2.20445E-01 2.45707E-03-4.28384E+02-4.92751E-02 1.77923E+02 1.19028E+01
 -1      1225 2.08602E-01 1.42876E-02-5.88982E+02-2.15600E-03 4.93316E+00 2.22390E+01
 -1      1226 2.27242E-01-3.32069E-03-4.28488E+02-2.49777E-02 1.76128E+02 5.94125E+00
 -1      1227 2.06990E-01 8.56178E-03-5.89089E+02-8.40608E-04 4.59713E+00 1.10904E+01
 -1      1228 2.72178E-01-1.25728E-02-5.08866E+02-7.36512E-02 1.75448E+02 1.19665E+01
 -1      1229 2.15929E-01 4.77069E-03-5.08743E+02-2.58602E-02 9.20600E+01 1.64500E+01
 -1      1230 2.46720E-01 6.24745E-03-6.96245E+02-1.89713E-03 2.44544E+00 2.22906E+01
 -1      1231 1.20396E-01 1.84100E-03-2.67663E+02-2.11854E-02 1.77887E+02 1.18270E+01
 -1      1232 1.20172E-01 7.04631E-03-3.74725E+02-8.42953E-04 4.93300E+00 2.21756E+01
 -1      1233 1.25258E-01-1.07179E-03-2.67717E+02-1.07920E-02 1.76083E+02 5.90265E+00
 -1      1234 1.21699E-01 4.23133E-03-3.74782E+02-3.70273E-04 4.59593E+00 1.10584E+01
 -1      1235 1.57330E-01-5.89084E-03-3.48064E+02-3.30942E-02 1.75391E+02 1.18618E+01
 -1      1236 1.20821E-01 2.73111E-03-3.21229E+02-1.10135E-02 9.20415E+01 1.63770E+01
 -1      1237 1.53083E-01 3.00021E-03-4.81900E+02-6.08520E-04 2.44458E+00 2.22049E+01
 -1      1238 5.27861E-02 1.04940E-03-1.06999E+02-7.44151E-03 1.77873E+02 1.17909E+01
 -1      1239 5.49179E-02 2.81850E-03-1.60529E+02-2.51543E-04 4.93314E+00 2.21447E+01
 -1      1240 5.51836E-02-1.72968E-04-1.07021E+02-3.81337E-03 1.76065E+02 5.88419E+00
 -1      1241 5.62712E-02 1.66584E-03-1.60552E+02-1.28768E-04 4.59564E+00 1.10427E+01
 -1      1242 7.98004E-02-2.34721E-03-1.87352E+02-1.33252E-02 1.75366E+02 1.18079E+01
 -1      1243 5.39942E-02 1.26779E-03-1.33778E+02-3.82034E-03 9.20343E+01 1.63419E+01
 -1      1244 8.14296E-02 1.26667E-03-2.67652E+02-1.26451E-04 2.44435E+00 2.21596E+01
 -1      1245 5.95175E-04 1.01307E-04 5.36410E+01 5.17491E-04 1.77869E+02 1.17804E+01
 -1      1246 2.37921E-03-2.84566E-06 5.36451E+01 5.87914E-05 4.93331E+00 2.21356E+01
 -1      1247 4.66694E-04 5.61769E-05 5.36454E+01 2.51010E-04 1.76061E+02 5.87885E+00
 -1      1248 2.40668E-03-3.42241E-05 5.36495E+01 1.89472E-05 4.59570E+00 1.10381E+01
 -1      1249 2.47646E-02-4.70391E-04-2.66829E+01-3.18432E-03 1.75358E+02 1.17854E+01
 -1      1250 1.33474E-03 1.03171E-05 5.36479E+01 2.98824E-04 9.20327E+01 1.63318E+01
 -1      1251 2.68730E-02 3.63646E-04-5.34468E+01 1.96035E-05 2.44436E+00 2.21404E+01
 -1      1252-5.35699E-02-1.16699E-03 2.14281E+02 8.58145E-03 1.77873E+02 1.17918E+01
 -1      1253-5.14877E-02-2.70295E-03 2.67820E+02 3.76056E-04 4.93346E+00 2.21455E+01
 -1      1254-5.63833E-02 5.32283E-06 2.14312E+02 4.36588E-03 1.76066E+02 5.88468E+00
 -1      1255-5.29361E-02-1.57544E-03 2.67852E+02 1.70888E-04 4.59597E+00 1.10432E+01
 -1      1256-2.39565E-02 7.40860E-04 1.33975E+02 4.25176E-03 1.75358E+02 1.17858E+01
 -1      1257-5.31362E-02-1.46079E-03 2.41074E+02 4.47781E-03 9.20349E+01 1.63428E+01
 -1      1258-2.22522E-02-2.04997E-04 1.60747E+02 8.01362E-05 2.44447E+00 2.21408E+01
 -1      1259-1.28163E-01-3.09218E-03 3.74945E+02 2.26053E-02 1.77887E+02 1.18303E+01
 -1      1260-1.21767E-01-6.50712E-03 4.82021E+02 9.81882E-04 4.93365E+00 2.21788E+01
 -1      1261-1.33975E-01-8.18050E-05 3.75009E+02 1.14788E-02 1.76084E+02 5.90441E+00
 -1      1262-1.23918E-01-3.58101E-03 4.82088E+02 4.23978E-04 4.59660E+00 1.10602E+01
 -1      1263-8.31606E-02 2.00781E-03 2.94644E+02 1.45923E-02 1.75367E+02 1.18098E+01
 -1      1264-1.26502E-01-3.67090E-03 4.28526E+02 1.18299E-02 9.20420E+01 1.63803E+01
 -1      1265-7.97144E-02-8.14903E-04 3.74956E+02 2.38234E-04 2.44470E+00 2.21615E+01
 -1      1266-2.43579E-01-6.20560E-03 5.35665E+02 5.10107E-02 1.77919E+02 1.19120E+01
 -1      1267-2.22330E-01-1.28345E-02 6.96285E+02 2.29345E-03 4.93413E+00 2.22488E+01
 -1      1268-2.52403E-01 1.23803E-05 5.35782E+02 2.58144E-02 1.76124E+02 5.94615E+00
 -1      1269-2.22494E-01-6.68694E-03 6.96404E+02 9.08753E-04 4.59811E+00 1.10956E+01
 -1      1270-1.71193E-01 3.98937E-03 4.55356E+02 3.46801E-02 1.75389E+02 1.18677E+01
 -1      1271-2.36425E-01-7.32447E-03 6.16041E+02 2.68531E-02 9.20586E+01 1.64596E+01
 -1      1272-1.59360E-01-1.84550E-03 5.89209E+02 7.33724E-04 2.44518E+00 2.22111E+01
 -1      1273-4.19906E-01-1.13732E-02 6.96505E+02 1.08024E-01 1.77986E+02 1.20667E+01
 -1      1274-3.58659E-01-2.32766E-02 9.10680E+02 5.04350E-03 4.93540E+00 2.23782E+01
 -1      1275-4.30080E-01 4.67048E-04 6.96709E+02 5.44779E-02 1.76209E+02 6.02483E+00
 -1      1276-3.49573E-01-1.13774E-02 9.10885E+02 1.82544E-03 4.60156E+00 1.11609E+01
 -1      1277-3.07578E-01 7.40603E-03 6.16157E+02 7.54425E-02 1.75438E+02 1.19817E+01
 -1      1278-3.96727E-01-1.33939E-02 8.03686E+02 5.71846E-02 9.20942E+01 1.66083E+01
 -1      1279-2.71018E-01-3.73700E-03 8.03561E+02 2.00858E-03 2.44628E+00 2.23067E+01
 -1      1280-6.65661E-01-2.02242E-02 8.57574E+02 2.18171E-01 1.78122E+02 1.23414E+01
 -1      1281-5.07561E-01-3.95852E-02 1.12533E+03 1.05401E-02 4.93841E+00 2.26007E+01
 -1      1282-6.70625E-01 1.01722E-03 8.57929E+02 1.09662E-01 1.76380E+02 6.16392E+00
 -1      1283-4.71796E-01-1.79296E-02 1.12568E+03 3.47934E-03 4.60900E+00 1.12725E+01
 -1      1284-5.07178E-01 1.29021E-02 7.77136E+02 1.55698E-01 1.75538E+02 1.21887E+01
 -1      1285-6.01999E-01-2.32437E-02 9.91582E+02 1.16050E-01 9.21665E+01 1.68695E+01
 -1      1286-4.08189E-01-7.08590E-03 1.01811E+03 4.92682E-03 2.44870E+00 2.24755E+01
 -1      1287-9.45871E-01-3.67514E-02 1.01906E+03 4.22391E-01 1.78383E+02 1.28016E+01
 -1      1288-5.67251E-01-6.02758E-02 1.34046E+03 2.10442E-02 4.94432E+00 2.29547E+01
 -1      1289-9.26771E-01-8.05219E-04 1.01968E+03 2.11619E-01 1.76705E+02 6.39560E+00
 -1      1290-4.65632E-01-2.31565E-02 1.34106E+03 6.28630E-03 4.62352E+00 1.14484E+01
 -1      1291-7.60811E-01 1.99290E-02 9.38441E+02 3.07448E-01 1.75735E+02 1.25429E+01
 -1      1292-7.88060E-01-3.88862E-02 1.17994E+03 2.25617E-01 9.23053E+01 1.72992E+01
 -1      1293-5.16322E-01-1.18351E-02 1.23302E+03 1.11367E-02 2.45378E+00 2.27516E+01
 -1      1294-1.10445E+00-6.99368E-02 1.18128E+03 7.85373E-01 1.78853E+02 1.35205E+01
 -1      1295-2.51287E-01-8.35711E-02 1.55641E+03 4.02000E-02 4.95459E+00 2.34616E+01
 -1      1296-1.01599E+00-1.36726E-02 1.18233E+03 3.92128E-01 1.77293E+02 6.75487E+00
 -1      1297-2.48519E-03-2.48070E-02 1.55742E+03 1.07281E-02 4.64976E+00 1.16971E+01
 -1      1298-9.85456E-01 2.39898E-02 1.10032E+03 5.82719E-01 1.76100E+02 1.31112E+01
 -1      1299-7.39769E-01-6.33143E-02 1.36908E+03 4.21041E-01 9.25548E+01 1.79511E+01
 -1      1300-4.21229E-01-1.82956E-02 1.44858E+03 2.36176E-02 2.46334E+00 2.31630E+01
 -1      1301-6.99495E-01-1.46200E-01 1.34472E+03 1.40143E+00 1.79646E+02 1.45377E+01
 -1      1302 1.14046E+00-6.65884E-02 1.77370E+03 7.37910E-02 4.96281E+00 2.40620E+01
 -1      1303-4.36220E-01-6.56925E-02 1.34644E+03 6.97169E-01 1.78288E+02 7.25689E+00
 -1      1304 1.70546E+00 1.88289E-02 1.77534E+03 1.68925E-02 4.68664E+00 1.19825E+01
 -1      1305-9.12958E-01 6.45428E-03 1.26317E+03 1.06060E+00 1.76738E+02 1.39476E+01
 -1      1306 9.58710E-02-1.01681E-01 1.55949E+03 7.53884E-01 9.29724E+01 1.88241E+01
 -1      1307 3.22815E-01-1.57446E-02 1.66517E+03 4.76543E-02 2.48048E+00 2.36892E+01
 -1      1308 1.36169E+00-2.96962E-01 1.51006E+03 2.39290E+00 1.80877E+02 1.57403E+01
 -1      1309 5.10901E+00-4.42837E-02 1.99288E+03 1.28602E-01 4.95881E+00 2.44554E+01
 -1      1310 2.00813E+00-2.07026E-01 1.51276E+03 1.18493E+00 1.79855E+02 7.83560E+00
 -1      1311 6.29686E+00 5.15496E-02 1.99537E+03 2.44103E-02 4.73140E+00 1.21430E+01
 -1      1312 1.52930E-01-7.17961E-02 1.42752E+03 1.85042E+00 1.77770E+02 1.50181E+01
 -1      1313 3.02086E+00-1.54854E-01 1.75180E+03 1.29093E+00 9.35959E+01 1.97226E+01
 -1      1314 2.72472E+00-1.70061E-02 1.88331E+03 9.13334E-02 2.50007E+00 2.41558E+01
 -1      1315 7.44727E+00-6.66508E-01 1.67813E+03 3.88298E+00 1.82616E+02 1.65886E+01
 -1      1316 1.49004E+01 4.65477E-01 2.21426E+03 2.18221E-01 4.82647E+00 2.37509E+01
 -1      1317 8.94883E+00-5.97932E-01 1.68209E+03 1.91317E+00 1.82117E+02 8.19616E+00
 -1      1318 1.73648E+01 5.44905E-01 2.21778E+03 2.76129E-02 4.67847E+00 1.17037E+01
 -1      1319 3.80212E+00-3.36964E-01 1.59411E+03 3.07942E+00 1.79348E+02 1.60030E+01
 -1      1320 1.07439E+01-2.19072E-01 1.94644E+03 2.10258E+00 9.44401E+01 1.99419E+01
 -1      1321 8.94322E+00 1.10528E-01 2.10328E+03 1.69210E-01 2.52380E+00 2.39760E+01
 -1      1322 2.29199E+01-8.64993E-01 1.84986E+03 5.93879E+00 1.84888E+02 1.54629E+01
 -1      1323 3.61638E+01-1.08102E-01 2.43637E+03 3.41023E-01 4.52498E+00 1.96656E+01
 -1      1324 2.59387E+01-1.02277E+00 1.85490E+03 2.90069E+00 1.85162E+02 7.51886E+00
 -1      1325 4.07382E+01-2.98729E-01 2.44043E+03 2.48485E-02 4.50390E+00 9.51568E+00
 -1      1326 1.35614E+01-7.95041E-01 1.76356E+03 4.85290E+00 1.81473E+02 1.58882E+01
 -1      1327 2.92429E+01-1.23587E-01 2.14377E+03 3.22306E+00 9.52305E+01 1.75437E+01
 -1      1328 2.31865E+01-1.09973E-01 2.32457E+03 2.94432E-01 2.40670E+00 2.16470E+01
 -1      1329 5.71921E+01-1.97420E+00 2.02505E+03 8.42003E+00 1.88240E+02 8.98738E+00
 -1      1330 8.24634E+01 5.38975E+00 2.65515E+03 5.38814E-01 2.98173E+00 7.69922E+00
 -1      1331 6.33298E+01-2.53543E+00 2.03016E+03 4.06792E+00 1.89580E+02 3.99693E+00
 -1      1332 9.12739E+01 4.78764E+00 2.65827E+03-9.37364E-03 3.15028E+00 3.18670E+00
 -1      1333 3.64502E+01-2.04509E+00 1.93657E+03 7.14958E+00 1.85048E+02 1.21992E+01
 -1      1334 6.88631E+01 5.19853E-01 2.34058E+03 4.59790E+00 9.65533E+01 8.61728E+00
 -1      1335 5.41173E+01 1.36219E+00 2.54373E+03 4.85808E-01 2.33100E+00 1.37936E+01
 -1      1336 1.35522E+02 8.54008E+00 2.20660E+03 1.09256E+01 1.96373E+02-1.04521E+01
 -1      1337 1.62002E+02-1.97345E+01 2.85023E+03 8.47898E-01 1.57527E+00-2.16306E+01
 -1      1338 1.45135E+02 6.76121E+00 2.20874E+03 5.17948E+00 1.99139E+02-5.64393E+00
 -1      1339 1.75194E+02-2.20174E+01 2.84863E+03-3.35324E-02 2.08542E+00-1.13134E+01
 -1      1340 8.76455E+01 1.55772E-01 2.11095E+03 9.72347E+00 1.90321E+02-1.78161E-01
 -1      1341 1.54297E+02 2.81081E+00 2.53958E+03 6.06957E+00 9.68542E+01-1.52805E+01
 -1      1342 1.14812E+02-6.04734E+00 2.75347E+03 7.75384E-01-1.19577E-01-6.12266E+00
 -1      1343 2.84482E+02 1.05871E+01 2.39235E+03 1.29308E+01 2.46322E+02-4.60740E+01
 -1      1344 3.40930E+02 5.07651E+01 2.97200E+03 1.22397E+00-2.46018E+01-7.18404E+01
 -1      1345 2.91988E+02 5.38493E+00 2.38787E+03 5.95900E+00 2.51167E+02-2.28793E+01
 -1      1346 3.52124E+02 4.52435E+01 2.96279E+03 7.79690E-02-2.37886E+01-3.55721E+01
 -1      1347 1.94419E+02-1.12172E+00 2.29534E+03 1.20174E+01 2.20238E+02-2.69067E+01
 -1      1348 3.36895E+02 3.56008E+01 2.75656E+03 7.26375E+00 1.18415E+02-5.74172E+01
 -1      1349 2.45112E+02 2.11372E+01 2.93052E+03 8.85203E-01 3.12946E+00-4.49642E+01
 -1      1350 6.97990E+02 4.30836E+02 2.68501E+03 1.24111E+01 4.74961E+02-9.15640E+01
 -1      1351 6.23494E+02-1.82386E+02 3.32310E+03 6.10799E-01-9.65946E+01-1.27089E+02
 -1      1352 7.03610E+02 4.28762E+02 2.68162E+03 5.48422E+00 4.82122E+02-4.45512E+01
 -1      1353 6.32748E+02-1.86930E+02 3.32374E+03 5.13998E-01-9.48736E+01-6.18515E+01
 -1      1354 4.01001E+02 1.18556E+02 2.40954E+03 1.30789E+01 3.13918E+02-6.81585E+01
 -1      1355 6.79847E+02 1.92775E+02 2.99971E+03 7.68992E+00 2.17583E+02-1.06470E+02
 -1      1356 3.69102E+02-1.96599E+02 2.98900E+03 4.68935E-01-5.64738E+01-1.00761E+02
 -1      1357 1.00825E+03 1.00826E+03 2.20067E+03-2.68054E-04 3.96410E+02-1.15663E+02
 -1      1358 2.32369E+03 2.32371E+03 5.07185E+03-2.02116E-04 1.34489E+03-1.54378E+02
 -1      1359 1.01091E+03 1.01089E+03 2.20652E+03 1.48273E-04 4.02730E+02-5.68000E+01
 -1      1360 2.33795E+03 2.33793E+03 5.10305E+03 1.15073E-04 1.35578E+03-7.57741E+01
 -1      1361 7.65011E+02 4.97098E+02 2.41144E+03 8.69894E+00 4.57671E+02-1.04724E+02
 -1      1362 1.54873E+03 1.54871E+03 3.38043E+03 2.31518E-04 8.27022E+02-1.35661E+02
 -1      1363 1.24558E+03 5.63083E+02 4.02736E+03 2.77276E+00 5.34864E+02-1.43136E+02
 -1      1364-2.20196E+03-2.20197E+03-4.80614E+03 3.63339E-04 1.25317E+03-3.24565E+02
 -1      1365-9.73402E+02-9.73410E+02-2.12460E+03 4.80790E-04 3.45297E+02-2.37826E+02
 -1      1366-5.96531E+02-3.97784E+02-2.56121E+03-2.11746E+01 4.26104E+02-1.86752E+02
 -1      1367-5.06430E+02 1.67472E+02-3.20265E+03-4.09792E+00-9.86435E+01-2.65525E+02
 -1      1368-2.22446E+03-2.22445E+03-4.85535E+03-3.58813E-04 1.27728E+03-2.32017E+02
 -1      1369-9.67236E+02-9.67225E+02-2.11121E+03-4.21304E-04 3.64351E+02-1.70746E+02
 -1      1370-6.31628E+02-4.01811E+02-2.56165E+03-1.60065E+01 4.45748E+02-1.32843E+02
 -1      1371-5.60071E+02 1.71877E+02-3.21175E+03 7.15648E-01-9.37146E+01-1.88306E+02
 -1      1372-1.48265E+03-1.48264E+03-3.23622E+03-4.02033E-04 7.58396E+02-2.82097E+02
 -1      1373-6.96688E+02-4.63673E+02-2.29935E+03-1.72417E+01 4.08167E+02-2.19286E+02
 -1      1374-5.75282E+02-1.83128E+02-2.88214E+03-1.47975E+01 1.89308E+02-2.18811E+02
 -1      1375-1.12883E+03-5.17597E+02-3.81978E+03-4.20396E+00 4.92204E+02-3.06321E+02
 -1      1376-1.84838E+02-3.24687E+00-2.26862E+03-2.10202E+01 2.23471E+02-6.42954E+01
 -1      1377-2.14373E+02-4.28225E+01-2.87735E+03-1.41449E+00-2.38768E+01-1.10629E+02
 -1      1378-2.34028E+02-5.28757E+00-2.27691E+03-1.59770E+01 2.35660E+02-5.65940E+01
 -1      1379-2.81702E+02-4.57977E+01-2.87717E+03 8.32399E-01-2.22054E+01-9.32244E+01
 -1      1380-3.06884E+02-1.08465E+02-2.30342E+03-2.26041E+01 2.80248E+02-1.21662E+02
 -1      1381-2.23762E+02-2.70001E+01-2.63869E+03-1.11747E+01 1.06676E+02-8.38942E+01
 -1      1382-2.58675E+02 1.77993E+02-2.90849E+03-1.72691E+00-5.39940E+01-1.88711E+02
 -1      1383-8.19349E+01-7.52305E+00-2.07573E+03-1.77160E+01 1.86688E+02-6.18870E+00
 -1      1384-9.18426E+01 1.81542E+01-2.73949E+03-5.87797E-01 2.35603E+00-2.27042E+01
 -1      1385-1.07240E+02-6.52896E+00-2.08947E+03-1.38358E+01 1.93084E+02-9.38771E+00
 -1      1386-1.26395E+02 2.04521E+01-2.74524E+03 2.14084E-01 2.65179E+00-2.36230E+01
 -1      1387-1.19825E+02 2.84039E+00-2.17014E+03-1.96252E+01 2.04124E+02-3.47063E+01
 -1      1388-9.28202E+01-2.11217E+00-2.41543E+03-9.38314E+00 9.25574E+01-1.33515E+01
 -1      1389-1.48643E+02-1.99325E+01-2.83025E+03-9.73281E-01 3.25596E+00-6.58042E+01
 -1      1390-3.09443E+01 2.81184E+00-1.89053E+03-1.32793E+01 1.85583E+02 2.02508E+01
 -1      1391-4.46198E+01-3.63212E+00-2.52960E+03-6.16451E-01 3.66626E+00 2.09493E+01
 -1      1392-4.58046E+01 1.85373E+00-1.90771E+03-1.07621E+01 1.87949E+02 1.31474E+01
 -1      1393-6.60659E+01-4.72228E+00-2.54378E+03 1.28768E-01 3.43990E+00 1.23109E+01
 -1      1394-4.98218E+01 4.33474E-01-1.97742E+03-1.55095E+01 1.83952E+02 7.62499E+00
 -1      1395-3.77111E+01 7.80549E-01-2.20922E+03-7.11676E+00 9.55321E+01 2.06894E+01
 -1      1396-6.23955E+01 6.81952E+00-2.63280E+03-8.39922E-01 1.80331E-01 1.72194E-01
 -1      1397-1.25930E+01 7.17773E-01-1.72221E+03-9.19630E+00 1.86440E+02 2.71235E+01
 -1      1398-1.86514E+01 7.44764E-01-2.31303E+03-3.61598E-01 5.06510E+00 3.71325E+01
 -1      1399-1.88775E+01 5.06836E-01-1.73456E+03-7.53564E+00 1.86170E+02 2.04713E+01
 -1      1400-2.88911E+01 3.81063E-01-2.32395E+03-3.44753E-02 4.66105E+00 2.71691E+01
 -1      1401-2.01300E+01 1.58056E+00-1.80685E+03-1.11707E+01 1.84259E+02 2.31683E+01
 -1      1402-1.59449E+01 4.40024E-01-2.01752E+03-4.89415E+00 9.62373E+01 3.16554E+01
 -1      1403-2.87650E+01-1.01695E+00-2.42078E+03-5.86596E-01 2.69933E+00 2.87304E+01
 -1      1404-4.22484E+00 3.01752E-01-1.55711E+03-5.88348E+00 1.86863E+02 2.72166E+01
 -1      1405-7.46345E+00-2.02548E-01-2.09514E+03-2.46114E-01 5.26520E+00 4.20908E+01
 -1      1406-6.83823E+00 1.71335E-01-1.56551E+03-4.89965E+00 1.84779E+02 2.13912E+01
 -1      1407-1.23562E+01-4.47164E-01-2.10295E+03-5.29044E-02 4.76657E+00 3.20870E+01
 -1      1408-7.54574E+00 3.96038E-01-1.63961E+03-7.43236E+00 1.84264E+02 2.67429E+01
 -1      1409-5.87351E+00 1.64424E-01-1.82596E+03-3.13327E+00 9.67145E+01 3.37845E+01
 -1      1410-1.17059E+01 3.62543E-01-2.20380E+03-3.30095E-01 2.73352E+00 3.92917E+01
 -1      1411-9.34581E-01-4.85180E-02-1.39426E+03-3.55118E+00 1.86788E+02 2.52894E+01
 -1      1412-2.26705E+00 1.15387E-01-1.87790E+03-1.42890E-01 5.35534E+00 4.26923E+01
 -1      1413-1.81881E+00-8.29547E-02-1.39944E+03-2.98864E+00 1.83547E+02 2.02181E+01
 -1      1414-4.43051E+00-3.88789E-04-1.88282E+03-5.08423E-02 4.79179E+00 3.30234E+01
 -1      1415-2.23216E+00 1.42576E-02-1.47582E+03-4.61789E+00 1.84368E+02 2.59033E+01
 -1      1416-1.67724E+00 1.93966E-02-1.63617E+03-1.88374E+00 9.66776E+01 3.28594E+01
 -1      1417-4.22811E+00 2.12271E-02-1.98644E+03-1.88539E-01 2.85976E+00 4.20926E+01
 -1      1418 2.34665E-01-1.13053E-01-1.23244E+03-2.03511E+00 1.86554E+02 2.32666E+01
 -1      1419-2.79365E-01 6.42834E-02-1.66175E+03-7.95356E-02 5.33457E+00 4.19636E+01
 -1      1420 3.49162E-02-1.19164E-01-1.23551E+03-1.73185E+00 1.82602E+02 1.87228E+01
 -1      1421-1.15952E+00 1.35454E-02-1.66470E+03-3.56646E-02 4.74039E+00 3.26243E+01
 -1      1422-2.05797E-01-1.43320E-01-1.31347E+03-2.71717E+00 1.84154E+02 2.40514E+01
 -1      1423-7.37166E-02-3.02542E-02-1.44724E+03-1.07533E+00 9.65392E+01 3.13142E+01
 -1      1424-1.01114E+00 9.02813E-02-1.76988E+03-9.69624E-02 2.83591E+00 4.21262E+01
 -1      1425 5.07078E-01-1.01841E-01-1.07121E+03-1.11482E+00 1.86334E+02 2.16958E+01
 -1      1426 3.61255E-01 6.20231E-02-1.44646E+03-4.10536E-02 5.31394E+00 4.10480E+01
 -1      1427 5.49551E-01-9.74628E-02-1.07295E+03-9.58399E-01 1.81968E+02 1.74957E+01
 -1      1428 5.39107E-02 4.13341E-02-1.44814E+03-2.23270E-02 4.70272E+00 3.19609E+01
 -1      1429 4.18587E-01-1.40587E-01-1.15194E+03-1.52333E+00 1.83920E+02 2.23401E+01
 -1      1430 3.95675E-01-3.33906E-02-1.25898E+03-5.85895E-01 9.64034E+01 2.99678E+01
 -1      1431 1.38098E-01 5.37780E-02-1.55420E+03-4.69810E-02 2.81974E+00 4.13774E+01
 -1      1432 4.60600E-01-6.85587E-02-9.10283E+02-5.84716E-01 1.86182E+02 2.06313E+01
 -1      1433 4.46089E-01 3.81003E-02-1.23171E+03-1.99366E-02 5.29693E+00 4.03097E+01
 -1      1434 5.59702E-01-6.25000E-02-9.11242E+02-5.08055E-01 1.81584E+02 1.66394E+01
 -1      1435 3.73833E-01 3.15138E-02-1.23265E+03-1.27658E-02 4.67815E+00 3.13901E+01
 -1      1436 4.92348E-01-1.02204E-01-9.90845E+02-8.17293E-01 1.83735E+02 2.10821E+01
 -1      1437 4.30113E-01-2.46055E-02-1.07112E+03-3.05375E-01 9.63109E+01 2.90062E+01
 -1      1438 4.28967E-01 3.74552E-02-1.33919E+03-2.07165E-02 2.80494E+00 4.06040E+01
 -1      1439 3.34074E-01-4.03423E-02-7.49524E+02-2.93470E-01 1.86092E+02 1.99668E+01
 -1      1440 3.57147E-01 2.25773E-02-1.01728E+03-8.97486E-03 5.28763E+00 3.98049E+01
 -1      1441 4.24663E-01-3.52405E-02-7.50039E+02-2.57908E-01 1.81371E+02 1.60950E+01
 -1      1442 3.67690E-01 2.15477E-02-1.01779E+03-6.80910E-03 4.66553E+00 3.09877E+01
 -1      1443 3.92395E-01-6.28646E-02-8.29987E+02-4.19841E-01 1.83618E+02 2.02543E+01
 -1      1444 3.32558E-01-1.50429E-02-8.83502E+02-1.52089E-01 9.62570E+01 2.83881E+01
 -1      1445 4.01436E-01 2.09614E-02-1.12459E+03-8.06903E-03 2.79723E+00 4.00162E+01
 -1      1446 2.15674E-01-2.14725E-02-5.88847E+02-1.40370E-01 1.86045E+02 1.95766E+01
 -1      1447 2.41167E-01 1.17613E-02-8.03014E+02-3.66879E-03 5.28299E+00 3.94914E+01
 -1      1448 2.81274E-01-1.79086E-02-5.89118E+02-1.24973E-01 1.81260E+02 1.57708E+01
 -1      1449 2.71598E-01 1.26178E-02-8.03281E+02-3.40029E-03 4.65970E+00 3.07327E+01
 -1      1450 2.67292E-01-3.49969E-02-6.69252E+02-2.06057E-01 1.83553E+02 1.97486E+01
 -1      1451 2.21830E-01-8.23573E-03-6.96003E+02-7.20479E-02 9.62294E+01 2.80183E+01
 -1      1452 2.92134E-01 1.10940E-02-9.10227E+02-2.46251E-03 2.79341E+00 3.96272E+01
 -1      1453 1.28062E-01-1.04775E-02-4.28208E+02-6.34219E-02 1.86024E+02 1.93592E+01
 -1      1454 1.46648E-01 5.66828E-03-5.88819E+02-1.28713E-03 5.28102E+00 3.93101E+01
 -1      1455 1.69957E-01-8.25273E-03-4.28348E+02-5.73505E-02 1.81207E+02 1.55881E+01
 -1      1456 1.74262E-01 6.81631E-03-5.88958E+02-1.58071E-03 4.65741E+00 3.05829E+01
 -1      1457 1.65467E-01-1.78937E-02-5.08577E+02-9.60440E-02 1.83520E+02 1.94569E+01
 -1      1458 1.34320E-01-4.09317E-03-5.08564E+02-3.21460E-02 9.62167E+01 2.78097E+01
 -1      1459 1.87024E-01 5.26118E-03-6.95976E+02-2.84699E-04 2.79186E+00 3.93912E+01
 -1      1460 6.93741E-02-4.57710E-03-2.67586E+02-2.64208E-02 1.86015E+02 1.92449E+01
 -1      1461 8.04990E-02 2.42795E-03-3.74656E+02-3.26472E-04 5.28033E+00 3.92121E+01
 -1      1462 9.31770E-02-3.35266E-03-2.67654E+02-2.43521E-02 1.81184E+02 1.54910E+01
 -1      1463 9.91751E-02 3.30097E-03-3.74724E+02-6.64886E-04 4.65670E+00 3.05010E+01
 -1      1464 9.43817E-02-8.38581E-03-3.47931E+02-4.19376E-02 1.83506E+02 1.92975E+01
 -1      1465 7.37039E-02-1.80700E-03-3.21151E+02-1.31696E-02 9.62117E+01 2.76990E+01
 -1      1466 1.08704E-01 2.25877E-03-4.81778E+02 3.60068E-04 2.79132E+00 3.92576E+01
 -1      1467 3.03875E-02-1.52666E-03-1.06970E+02-8.91774E-03 1.86012E+02 1.91910E+01
 -1      1468 3.57199E-02 8.37407E-04-1.60503E+02 2.81369E-06 5.28018E+00 3.91650E+01
 -1      1469 4.09880E-02-1.03443E-03-1.06997E+02-8.42320E-03 1.81175E+02 1.54449E+01
 -1      1470 4.49808E-02 1.26845E-03-1.60530E+02-2.12400E-04 4.65661E+00 3.04613E+01
 -1      1471 4.75011E-02-3.39268E-03-1.87296E+02-1.63060E-02 1.83501E+02 1.92166E+01
 -1      1472 3.26463E-02-5.95771E-04-1.33749E+02-4.33932E-03 9.62102E+01 2.76466E+01
 -1      1473 5.53962E-02 8.23767E-04-2.67602E+02 3.86397E-04 2.79121E+00 3.91882E+01
 -1      1474 7.11127E-04 2.13301E-04 5.36430E+01 8.46850E-04 1.86012E+02 1.91753E+01
 -1      1475 1.67687E-03 1.75400E-05 5.36469E+01 1.09369E-04 5.28025E+00 3.91512E+01
 -1      1476 5.74976E-04 1.01165E-04 5.36466E+01 6.65042E-04 1.81173E+02 1.54316E+01
 -1      1477 1.97922E-03-2.83859E-05 5.36506E+01 5.45123E-05 4.65672E+00 3.04497E+01
 -1      1478 1.48664E-02-7.24451E-04-2.66665E+01-3.65864E-03 1.83499E+02 1.91832E+01
 -1      1479 1.14271E-03 9.45845E-05 5.36498E+01 4.92190E-04 9.62101E+01 2.76313E+01
 -1      1480 1.78963E-02 1.96759E-04-5.34323E+01 2.03686E-04 2.79125E+00 3.91589E+01
 -1      1481-2.99991E-02 1.70595E-03 2.14256E+02 1.08257E-02 1.86013E+02 1.91918E+01
 -1      1482-3.28725E-02-6.23960E-04 2.67798E+02 2.39171E-04 5.28046E+00 3.91657E+01
 -1      1483-4.13412E-02 9.65200E-04 2.14289E+02 9.90710E-03 1.81175E+02 1.54459E+01
 -1      1484-4.19301E-02-1.15864E-03 2.67832E+02 3.35872E-04 4.65692E+00 3.04622E+01
 -1      1485-1.37117E-02 1.09871E-03 1.33962E+02 5.42046E-03 1.83500E+02 1.91836E+01
 -1      1486-3.12782E-02 6.40967E-04 2.41049E+02 5.45044E-03 9.62106E+01 2.76474E+01
 -1      1487-1.45966E-02-1.06319E-04 1.60736E+02-1.14249E-05 2.79134E+00 3.91592E+01
 -1      1488-7.27087E-02 3.85853E-03 3.74869E+02 2.89351E-02 1.86014E+02 1.92486E+01
 -1      1489-7.96943E-02-1.59507E-03 4.81952E+02 6.31401E-04 5.28090E+00 3.92157E+01
 -1      1490-9.88675E-02 2.31954E-03 3.74946E+02 2.62619E-02 1.81184E+02 1.54948E+01
 -1      1491-9.96170E-02-2.60524E-03 4.82029E+02 8.29693E-04 4.65734E+00 3.05048E+01
 -1      1492-4.86228E-02 3.20238E-03 2.94590E+02 1.84860E-02 1.83501E+02 1.92188E+01
 -1      1493-7.57237E-02 1.33443E-03 4.28450E+02 1.46409E-02 9.62119E+01 2.77029E+01
 -1      1494-5.33268E-02-4.19787E-04 3.74906E+02-1.50813E-04 2.79151E+00 3.91902E+01
 -1      1495-1.39807E-01 7.70775E-03 5.35486E+02 6.67721E-02 1.86019E+02 1.93711E+01
 -1      1496-1.51166E-01-3.51143E-03 6.96116E+02 1.66713E-03 5.28187E+00 3.93224E+01
 -1      1497-1.87458E-01 5.08777E-03 5.35637E+02 5.98081E-02 1.81203E+02 1.55993E+01
 -1      1498-1.83315E-01-4.84341E-03 6.96268E+02 1.80431E-03 4.65835E+00 3.05946E+01
 -1      1499-1.01357E-01 6.72919E-03 4.55221E+02 4.48649E-02 1.83503E+02 1.93050E+01
 -1      1500-1.44265E-01 2.45335E-03 6.15858E+02 3.41199E-02 9.62148E+01 2.78220E+01
 -1      1501-1.10240E-01-1.08984E-03 5.89084E+02-4.85727E-05 2.79184E+00 3.92652E+01
 -1      1502-2.44248E-01 1.45511E-02 6.96112E+02 1.44317E-01 1.86028E+02 1.96068E+01
 -1      1503-2.57761E-01-7.10276E-03 9.10305E+02 4.06371E-03 5.28392E+00 3.95237E+01
 -1      1504-3.21919E-01 1.05687E-02 6.96401E+02 1.27693E-01 1.81244E+02 1.57983E+01
 -1      1505-2.99339E-01-8.17921E-03 9.10592E+02 3.67176E-03 4.66077E+00 3.07622E+01
 -1      1506-1.84733E-01 1.31230E-02 6.15858E+02 9.97562E-02 1.83510E+02 1.94771E+01
 -1      1507-2.48185E-01 4.26476E-03 8.03284E+02 7.44007E-02 9.62215E+01 2.80495E+01
 -1      1508-1.97185E-01-2.58361E-03 8.03279E+02 6.70743E-04 2.79261E+00 3.94126E+01
 -1      1509-3.93801E-01 2.56540E-02 8.56763E+02 2.96633E-01 1.86049E+02 2.00333E+01
 -1      1510-3.98610E-01-1.35615E-02 1.12455E+03 9.15968E-03 5.28812E+00 3.98773E+01
 -1      1511-5.07283E-01 2.03325E-02 8.57311E+02 2.59649E-01 1.81328E+02 1.61542E+01
 -1      1512-4.32586E-01-1.27159E-02 1.12509E+03 7.04661E-03 4.66615E+00 3.10523E+01
 -1      1513-3.10137E-01 2.41888E-02 7.76514E+02 2.09832E-01 1.83524E+02 1.97952E+01
 -1      1514-3.90257E-01 6.76386E-03 9.90751E+02 1.54042E-01 9.62358E+01 2.84570E+01
 -1      1515-3.20782E-01-5.70562E-03 1.01751E+03 2.83518E-03 2.79428E+00 3.96776E+01
 -1      1516-5.74002E-01 4.03392E-02 1.01747E+03 5.83255E-01 1.86088E+02 2.07641E+01
 -1      1517-5.34748E-01-2.19964E-02 1.33892E+03 1.93466E-02 5.29564E+00 4.04559E+01
 -1      1518-7.13116E-01 3.48279E-02 1.01849E+03 5.05578E-01 1.81489E+02 1.67555E+01
 -1      1519-5.07155E-01-1.53602E-02 1.33992E+03 1.27315E-02 4.67687E+00 3.15186E+01
 -1      1520-4.77292E-01 4.11760E-02 9.37211E+02 4.21234E-01 1.83552E+02 2.03506E+01
 -1      1521-5.43499E-01 8.91833E-03 1.17831E+03 3.04729E-01 9.62629E+01 2.91438E+01
 -1      1522-4.66422E-01-1.10400E-02 1.23184E+03 8.14637E-03 2.79780E+00 4.01218E+01
 -1      1523-7.06056E-01 5.17876E-02 1.17831E+03 1.10009E+00 1.86149E+02 2.19402E+01
 -1      1524-5.33233E-01-3.56297E-02 1.55353E+03 3.84764E-02 5.30806E+00 4.13196E+01
 -1      1525-8.13051E-01 4.99445E-02 1.18016E+03 9.44647E-01 1.81779E+02 1.77061E+01
 -1      1526-3.04449E-01-1.41832E-02 1.55534E+03 2.14741E-02 4.69643E+00 3.21965E+01
 -1      1527-6.46920E-01 6.22984E-02 1.09800E+03 8.10339E-01 1.83601E+02 2.12647E+01
 -1      1528-6.00930E-01 5.89614E-03 1.36604E+03 5.77655E-01 9.63062E+01 3.02209E+01
 -1      1529-5.60180E-01-2.06242E-02 1.44634E+03 1.98201E-02 2.80417E+00 4.08063E+01
 -1      1530-5.57663E-01 3.06595E-02 1.33940E+03 1.98985E+00 1.86217E+02 2.36836E+01
 -1      1531-2.87011E-02-2.39420E-02 1.76856E+03 7.26386E-02 5.31845E+00 4.24312E+01
 -1      1532-4.52234E-01 4.37563E-02 1.34266E+03 1.69310E+00 1.82254E+02 1.90765E+01
 -1      1533 7.23900E-01 2.91585E-02 1.77172E+03 3.28747E-02 4.72291E+00 3.30241E+01
 -1      1534-6.79208E-01 7.25245E-02 1.25898E+03 1.49551E+00 1.83668E+02 2.26608E+01
 -1      1535-2.70711E-01-1.43221E-02 1.55407E+03 1.04948E+00 9.63585E+01 3.17461E+01
 -1      1536-3.81413E-01-2.72746E-02 1.66115E+03 4.36952E-02 2.81539E+00 4.17363E+01
 -1      1537 4.56460E-01-7.53946E-02 1.50100E+03 3.44416E+00 1.86218E+02 2.59455E+01
 -1      1538 1.75323E+00-6.40470E-02 1.98422E+03 1.27452E-01 5.31927E+00 4.34351E+01
 -1      1539 1.22110E+00-2.52919E-02 1.50651E+03 2.90065E+00 1.82953E+02 2.07643E+01
 -1      1540 3.72866E+00 5.75466E-02 1.98948E+03 4.41012E-02 4.75215E+00 3.36480E+01
 -1      1541-1.98507E-01 3.64057E-02 1.42033E+03 2.64477E+00 1.83716E+02 2.45727E+01
 -1      1542 1.14546E+00-8.55655E-02 1.74262E+03 1.82194E+00 9.63654E+01 3.35388E+01
 -1      1543 5.92092E-01-5.36466E-02 1.87645E+03 8.85549E-02 2.82330E+00 4.27153E+01
 -1      1544 3.60279E+00-4.70453E-01 1.66356E+03 5.66339E+00 1.85975E+02 2.81489E+01
 -1      1545 6.67925E+00 2.66317E-01 2.20063E+03 2.15603E-01 5.19038E+00 4.31585E+01
 -1      1546 6.10661E+00-3.07066E-01 1.67247E+03 4.72398E+00 1.83846E+02 2.21459E+01
 -1      1547 1.13327E+01 5.23240E-01 2.20894E+03 3.86500E-02 4.68428E+00 3.29624E+01
 -1      1548 1.66900E+00-1.67081E-01 1.58243E+03 4.46009E+00 1.83667E+02 2.66761E+01
 -1      1549 5.13564E+00-2.50772E-01 1.93183E+03 3.00534E+00 9.62163E+01 3.47490E+01
 -1      1550 3.56124E+00 2.52804E-02 2.09236E+03 1.70334E-01 2.83116E+00 4.29758E+01
 -1      1551 1.19805E+01-8.89040E-01 1.82839E+03 8.78941E+00 1.85191E+02 2.82482E+01
 -1      1552 1.75578E+01-7.51268E-01 2.41720E+03 3.05090E-01 4.92878E+00 3.84455E+01
 -1      1553 1.82534E+01-6.22997E-01 1.84144E+03 7.21980E+00 1.84847E+02 2.13372E+01
 -1      1554 2.75653E+01-3.68210E-01 2.42877E+03 8.60554E-03 4.50925E+00 2.81989E+01
 -1      1555 6.89094E+00-5.79828E-01 1.74593E+03 7.12630E+00 1.83236E+02 2.77490E+01
 -1      1556 1.50995E+01-5.26044E-01 2.12263E+03 4.65519E+00 9.55082E+01 3.28181E+01
 -1      1557 1.07330E+01-3.38666E-01 2.30864E+03 2.93936E-01 2.67096E+00 4.04600E+01
 -1      1558 3.07762E+01-2.93468E+00 1.99659E+03 1.26036E+01 1.84109E+02 2.11842E+01
 -1      1559 4.34239E+01 3.66924E+00 2.63186E+03 5.28716E-01 3.40554E+00 2.20973E+01
 -1      1560 4.59777E+01-1.86097E+00 2.01464E+03 1.02550E+01 1.86374E+02 1.37561E+01
 -1      1561 6.48646E+01 4.80758E+00 2.64678E+03-1.73682E-01 3.15309E+00 1.30968E+01
 -1      1562 1.96656E+01-1.74450E+00 1.91300E+03 1.06358E+01 1.82967E+02 2.41798E+01
 -1      1563 3.71201E+01-8.06159E-01 2.31344E+03 6.71905E+00 9.46242E+01 2.16535E+01
 -1      1564 2.75552E+01 1.04021E+00 2.52404E+03 5.23781E-01 2.59035E+00 2.99465E+01
 -1      1565 8.38329E+01 8.22657E+00 2.18280E+03 1.67370E+01 1.85620E+02-6.55688E+00
 -1      1566 9.09899E+01-1.91934E+01 2.83933E+03 4.47909E-01 1.97052E+00-2.29215E+01
 -1      1567 1.09955E+02 7.25645E+00 2.19702E+03 1.31349E+01 1.91932E+02-9.91630E+00
 -1      1568 1.25903E+02-2.15662E+01 2.84525E+03-2.68819E-01 2.23421E+00-2.40513E+01
 -1      1569 5.03780E+01-3.07706E-01 2.08373E+03 1.46780E+01 1.82722E+02 7.96170E+00
 -1      1570 9.38665E+01 2.43486E+00 2.51964E+03 8.79201E+00 9.16650E+01-1.37141E+01
 -1      1571 6.12394E+01-7.22989E+00 2.73389E+03 7.33541E-01-8.64503E-02 7.01301E-01
 -1      1572 1.91648E+02 4.75266E+00 2.37779E+03 1.99358E+01 2.25572E+02-6.77642E+01
 -1      1573 2.16367E+02 4.34064E+01 2.97242E+03 1.30300E+00-2.52851E+01-1.14220E+02
 -1      1574 2.42850E+02 6.95382E+00 2.38589E+03 1.52365E+01 2.37815E+02-5.96550E+01
 -1      1575 2.85415E+02 4.64927E+01 2.97175E+03-8.92568E-01-2.35946E+01-9.64293E+01
 -1      1576 1.23549E+02-2.11898E+00 2.27816E+03 1.85635E+01 2.04645E+02-3.65407E+01
 -1      1577 2.29928E+02 2.88272E+01 2.74480E+03 1.05278E+01 1.07191E+02-8.73866E+01
 -1      1578 1.49279E+02 2.02304E+01 2.92887E+03 8.23605E-01 3.03944E+00-6.76196E+01
 -1      1579 6.22391E+02 4.16876E+02 2.67761E+03 2.05338E+01 4.40652E+02-1.96287E+02
 -1      1580 5.19480E+02-1.74459E+02 3.30521E+03 4.12028E+00-1.02377E+02-2.75461E+02
 -1      1581 6.58643E+02 4.20764E+02 2.67694E+03 1.55927E+01 4.60530E+02-1.39688E+02
 -1      1582 5.74344E+02-1.78996E+02 3.31318E+03-7.71116E-01-9.73014E+01-1.95476E+02
 -1      1583 3.19749E+02 1.15015E+02 2.41177E+03 2.16921E+01 2.86844E+02-1.27974E+02
 -1      1584 5.96173E+02 1.91978E+02 2.99272E+03 1.44696E+01 1.96038E+02-2.28373E+02
 -1      1585 2.62181E+02-1.85864E+02 3.00178E+03 1.59850E+00-5.64228E+01-1.95346E+02
 -1      1586 1.01755E+03 1.01756E+03 2.22097E+03-4.70242E-04 3.65342E+02-2.49175E+02
 -1      1587 2.28059E+03 2.28060E+03 4.97776E+03-3.56806E-04 1.30499E+03-3.36202E+02
 -1      1588 1.01060E+03 1.01059E+03 2.20587E+03 4.14586E-04 3.84623E+02-1.78900E+02
 -1      1589 2.30260E+03 2.30258E+03 5.02590E+03 3.55388E-04 1.32911E+03-2.40409E+02
 -1      1590 7.28957E+02 4.87854E+02 2.40456E+03 1.69443E+01 4.25815E+02-2.30092E+02
 -1      1591 1.54013E+03 1.54012E+03 3.36168E+03 3.94405E-04 7.93297E+02-2.93503E+02
 -1      1592 1.16763E+03 5.36627E+02 3.95109E+03 4.20238E+00 5.12377E+02-3.17472E+02
 -1      1593-2.05169E+03-2.05169E+03-4.47812E+03 4.71914E-04 1.13762E+03-5.60163E+02
 -1      1594-9.40088E+02-9.40091E+02-2.05187E+03 6.09655E-04 2.90785E+02-4.11652E+02
 -1      1595-4.71309E+02-4.19008E+02-2.68078E+03-2.82628E+01 3.38496E+02-2.73449E+02
 -1      1596-3.74104E+02 1.04282E+02-3.34969E+03 2.88170E+00-1.05528E+02-4.03806E+02
 -1      1597-2.10695E+03-2.10694E+03-4.59887E+03-4.26310E-04 1.20315E+03-4.27780E+02
 -1      1598-9.38593E+02-9.38585E+02-2.04869E+03-6.25226E-04 3.24717E+02-3.13142E+02
 -1      1599-4.79385E+02-3.79443E+02-2.59015E+03-1.68369E+01 3.89254E+02-2.08916E+02
 -1      1600-3.55853E+02 1.79306E+02-3.23156E+03-4.86481E+00-9.54535E+01-3.02689E+02
 -1      1601-1.40865E+03-1.40865E+03-3.07472E+03-4.95985E-04 6.75801E+02-4.84771E+02
 -1      1602-4.91491E+02-4.29344E+02-2.32429E+03-1.38971E+01 3.36340E+02-3.46444E+02
 -1      1603-4.49271E+02-2.19934E+02-3.02060E+03-1.62301E+01 1.37580E+02-3.20649E+02
 -1      1604-8.06873E+02-4.49645E+02-3.73078E+03-7.33359E+00 4.49378E+02-4.95024E+02
 -1      1605-2.83478E+01 1.31076E+01-2.19000E+03-1.49160E+01 1.83882E+02-3.74396E+01
 -1      1606-2.83316E+01-2.62085E+01-2.84308E+03 3.21646E+00-2.09536E+01-9.72525E+01
 -1      1607-1.35118E+02-8.43879E+00-2.25426E+03-1.84206E+01 2.05835E+02-6.24474E+01
 -1      1608-1.52337E+02-4.67940E+01-2.88628E+03 3.00677E+00-2.12295E+01-1.15073E+02
 -1      1609-1.28286E+02-8.05602E+01-2.24462E+03-2.13495E+01 2.25779E+02-1.22673E+02
 -1      1610-4.98651E+01-9.68421E+00-2.56881E+03-5.84078E+00 8.72039E+01-6.34309E+01
 -1      1611-4.89583E+01 1.90453E+02-2.86737E+03 7.48023E+00-5.96158E+01-2.14347E+02
 -1      1612-2.09497E+01-8.94025E-01-1.99718E+03-1.39341E+01 1.70765E+02 1.70796E+01
 -1      1613-1.32025E+01 2.15675E+01-2.67500E+03 2.29973E+00 3.91151E+00 5.23426E+00
 -1      1614-5.22175E+01-5.84448E+00-2.04352E+03-1.50608E+01 1.79527E+02 2.55982E+00
 -1      1615-5.21309E+01 1.93882E+01-2.71332E+03 1.34972E+00 3.03112E+00-1.23230E+01
 -1      1616-2.47484E+01 4.88175E+00-2.10462E+03-1.44647E+01 1.75461E+02-1.19863E+01
 -1      1617-2.20458E+01 5.15946E+00-2.33669E+03-6.33050E+00 8.57674E+01 1.18547E+01
 -1      1618-2.68934E+01-1.67659E+01-2.78868E+03 1.85127E+00 4.27602E+00-4.61470E+01
 -1      1619-5.78164E+00 3.65238E+00-1.83682E+03-1.00056E+01 1.83172E+02 2.78553E+01
 -1      1620-7.36927E+00-2.03573E+00-2.48217E+03 9.69075E-01 4.43245E+00 3.53431E+01
 -1      1621-2.12816E+01 7.09521E-01-1.87080E+03-1.15507E+01 1.83854E+02 2.30371E+01
 -1      1622-2.88367E+01-4.86926E+00-2.51357E+03 6.39045E-01 3.53599E+00 2.62317E+01
 -1      1623-1.16767E+01 1.96962E+00-1.91547E+03-1.19256E+01 1.74886E+02 2.11482E+01
 -1      1624-6.84678E+00 2.34406E+00-2.15582E+03-4.75120E+00 9.47395E+01 3.05735E+01
 -1      1625-1.00813E+01 7.43801E+00-2.58101E+03 1.27304E+00 5.38476E-01 1.92309E+01
 -1      1626-2.87905E+00 8.40552E-01-1.68735E+03-6.79982E+00 1.92202E+02 2.80914E+01
 -1      1627-2.24341E+00 1.08946E+00-2.28065E+03 4.63802E-01 5.89345E+00 4.58601E+01
 -1      1628-8.55177E+00-1.90347E-01-1.70751E+03-7.92506E+00 1.88342E+02 2.74966E+01
 -1      1629-1.11509E+01 1.18427E-01-2.29981E+03 2.27346E-01 4.60748E+00 4.03545E+01
 -1      1630-3.98564E+00 1.95174E+00-1.76319E+03-8.31751E+00 1.85717E+02 2.64792E+01
 -1      1631-3.06512E+00 1.06204E+00-1.98208E+03-3.32550E+00 9.96122E+01 3.50900E+01
 -1      1632-3.67825E+00-2.66778E-01-2.38170E+03 5.47303E-01 3.32044E+00 3.91211E+01
 -1      1633-1.05901E+00 3.34531E-02-1.53615E+03-4.23086E+00 1.97691E+02 2.54400E+01
 -1      1634-6.12271E-01-1.92449E-01-2.07537E+03 2.61467E-01 6.07234E+00 4.82157E+01
 -1      1635-3.05994E+00-3.13846E-01-1.54797E+03-5.05164E+00 1.91043E+02 2.64809E+01
 -1      1636-4.34085E+00-5.39535E-01-2.08672E+03 7.91097E-02 4.73655E+00 4.42594E+01
 -1      1637-1.55633E+00 4.81456E-01-1.61191E+03-5.41737E+00 1.92532E+02 2.59685E+01
 -1      1638-1.00163E+00 2.42144E-01-1.80457E+03-2.05730E+00 1.02604E+02 3.44304E+01
 -1      1639-8.99051E-01 5.48315E-01-2.17818E+03 3.01385E-01 3.41544E+00 4.62421E+01
 -1      1640-3.41442E-01-2.96376E-01-1.38218E+03-2.47629E+00 2.00629E+02 2.25635E+01
 -1      1641 1.76958E-01-5.87315E-03-1.86640E+03 1.42972E-01 6.15415E+00 4.78547E+01
 -1      1642-7.81310E-01-3.83411E-01-1.38879E+03-3.02257E+00 1.92381E+02 2.41808E+01
 -1      1643-1.10127E+00-8.38469E-02-1.87279E+03 2.31492E-02 4.76683E+00 4.44825E+01
 -1      1644-3.82674E-01 4.70764E-03-1.45921E+03-3.26987E+00 1.96689E+02 2.34777E+01
 -1      1645-2.22282E-01-3.00280E-02-1.62378E+03-1.20026E+00 1.04081E+02 3.25155E+01
 -1      1646 1.90240E-01 1.26805E-01-1.97084E+03 1.85919E-01 3.58686E+00 4.75087E+01
 -1      1647-4.05419E-02-3.02818E-01-1.22579E+03-1.37589E+00 2.02116E+02 2.02997E+01
 -1      1648 3.39973E-01-5.42043E-02-1.65542E+03 8.40319E-02 6.12655E+00 4.68133E+01
 -1      1649 5.43811E-02-2.96031E-01-1.22937E+03-1.71750E+00 1.92972E+02 2.20580E+01
 -1      1650 5.02344E-02-3.74835E-02-1.65888E+03 5.42810E-03 4.73315E+00 4.36264E+01
 -1      1651 1.72039E-02-1.70056E-01-1.30400E+03-1.86510E+00 1.98856E+02 2.11340E+01
 -1      1652 6.89857E-02-1.05883E-01-1.44041E+03-6.58761E-01 1.04806E+02 3.06959E+01
 -1      1653 4.73135E-01 1.12331E-01-1.76092E+03 1.13192E-01 3.58950E+00 4.70349E+01
 -1      1654 5.43372E-02-2.24822E-01-1.06769E+03-7.28708E-01 2.02842E+02 1.87426E+01
 -1      1655 3.10571E-01-3.07261E-02-1.44312E+03 4.77434E-02 6.09950E+00 4.58457E+01
 -1      1656 2.78699E-01-1.96423E-01-1.06957E+03-9.31520E-01 1.93217E+02 2.04910E+01
 -1      1657 3.73373E-01 7.58603E-03-1.44493E+03 7.49559E-04 4.70734E+00 4.26882E+01
 -1      1658 1.36312E-01-1.62016E-01-1.14676E+03-1.01214E+00 1.99958E+02 1.93532E+01
 -1      1659 1.33385E-01-9.62424E-02-1.25537E+03-3.44456E-01 1.05144E+02 2.93424E+01
 -1      1660 4.45939E-01 5.57328E-02-1.54930E+03 7.01343E-02 3.58479E+00 4.61611E+01
 -1      1661 6.81541E-02-1.42445E-01-9.08504E+02-3.68498E-01 2.03190E+02 1.77590E+01
 -1      1662 2.22171E-01-2.38736E-02-1.23004E+03 2.69924E-02 6.07789E+00 4.51412E+01
 -1      1663 2.73825E-01-1.15469E-01-9.09459E+02-4.83247E-01 1.93316E+02 1.94570E+01
 -1      1664 3.66897E-01 1.08980E-02-1.23096E+03 1.70185E-05 4.69053E+00 4.19610E+01
 -1      1665 1.35791E-01-1.14980E-01-9.88130E+02-5.23977E-01 2.00496E+02 1.81618E+01
 -1      1666 1.19058E-01-6.79977E-02-1.06930E+03-1.71227E-01 1.05302E+02 2.84501E+01
 -1      1667 3.28091E-01 3.12546E-02-1.33663E+03 4.17141E-02 3.57554E+00 4.54047E+01
 -1      1668 5.50055E-02-8.17477E-02-7.48666E+02-1.77301E-01 2.03354E+02 1.71747E+01
 -1      1669 1.41252E-01-1.57858E-02-1.01649E+03 1.47470E-02 6.06531E+00 4.46875E+01
 -1      1670 2.04905E-01-6.23143E-02-7.49138E+02-2.39451E-01 1.93357E+02 1.88232E+01
 -1      1671 2.72394E-01 9.21419E-03-1.01694E+03 1.50310E-04 4.68215E+00 4.14745E+01
 -1      1672 1.02864E-01-6.90813E-02-8.28625E+02-2.58630E-01 2.00756E+02 1.74217E+01
 -1      1673 8.51609E-02-4.20204E-02-8.82628E+02-8.06857E-02 1.05374E+02 2.79063E+01
 -1      1674 2.13183E-01 1.46655E-02-1.12332E+03 2.41388E-02 3.56993E+00 4.48699E+01
 -1      1675 3.74799E-02-4.34074E-02-5.88455E+02-8.05621E-02 2.03432E+02 1.68450E+01
 -1      1676 8.25047E-02-1.04321E-02-8.02661E+02 7.82359E-03 6.05856E+00 4.44180E+01
 -1      1677 1.34559E-01-3.10768E-02-5.88684E+02-1.12762E-01 1.93376E+02 1.84563E+01
 -1      1678 1.76468E-01 5.52948E-03-8.02879E+02 2.95956E-04 4.67844E+00 4.11771E+01
 -1      1679 6.80951E-02-3.73677E-02-6.68600E+02-1.21051E-01 2.00879E+02 1.69885E+01
 -1      1680 5.42529E-02-2.37936E-02-6.95608E+02-3.56441E-02 1.05408E+02 2.75943E+01
 -1      1681 1.27334E-01 6.26354E-03-9.09630E+02 1.34203E-02 3.56689E+00 4.45322E+01
 -1      1682 2.29960E-02-2.14345E-02-4.28042E+02-3.40525E-02 2.03468E+02 1.66675E+01
 -1      1683 4.49746E-02-6.46507E-03-5.88675E+02 3.98468E-03 6.05531E+00 4.42679E+01
 -1      1684 8.07849E-02-1.42894E-02-4.28150E+02-4.99461E-02 1.93385E+02 1.82543E+01
 -1      1685 1.04298E-01 2.89387E-03-5.88779E+02 3.18884E-04 4.67710E+00 4.10072E+01
 -1      1686 4.13618E-02-1.84016E-02-5.08283E+02-5.31507E-02 2.00937E+02 1.67472E+01
 -1      1687 3.17836E-02-1.25031E-02-5.08398E+02-1.44710E-02 1.05423E+02 2.74246E+01
 -1      1688 7.11685E-02 2.11292E-03-6.95713E+02 7.18009E-03 3.56552E+00 4.43347E+01
 -1      1689 1.27613E-02-9.63685E-03-2.67521E+02-1.29630E-02 2.03484E+02 1.65771E+01
 -1      1690 2.26063E-02-3.72310E-03-3.74603E+02 1.91649E-03 6.05387E+00 4.41895E+01
 -1      1691 4.40950E-02-5.89063E-03-2.67569E+02-2.02774E-02 1.93390E+02 1.81492E+01
 -1      1692 5.60251E-02 1.26819E-03-3.74650E+02 2.57599E-04 4.67676E+00 4.09164E+01
 -1      1693 2.32684E-02-8.19065E-03-3.47807E+02-2.14323E-02 2.00964E+02 1.66193E+01
 -1      1694 1.70386E-02-5.99684E-03-3.21088E+02-5.17197E-03 1.05430E+02 2.73374E+01
 -1      1695 3.72258E-02 3.93858E-04-4.81672E+02 3.65251E-03 3.56500E+00 4.42265E+01
 -1      1696 5.77164E-03-3.40053E-03-1.06948E+02-3.83148E-03 2.03491E+02 1.65354E+01
 -1      1697 9.40847E-03-1.73188E-03-1.60486E+02 7.91410E-04 6.05334E+00 4.41528E+01
 -1      1698 1.94206E-02-1.87395E-03-1.06965E+02-6.60953E-03 1.93393E+02 1.81000E+01
 -1      1699 2.44362E-02 3.97047E-04-1.60503E+02 1.65849E-04 4.67678E+00 4.08732E+01
 -1      1700 1.16413E-02-3.06899E-03-1.87249E+02-7.46805E-03 2.00976E+02 1.65561E+01
 -1      1701 7.50776E-03-2.27949E-03-1.33728E+02-1.35835E-03 1.05433E+02 2.72971E+01
 -1      1702 1.74762E-02-1.53184E-04-2.67563E+02 1.68912E-03 3.56485E+00 4.41717E+01
 -1      1703 4.12372E-04 4.12372E-04 5.36462E+01 7.40922E-04 2.03493E+02 1.65233E+01
 -1      1704 4.57552E-04-4.47805E-05 5.36499E+01 8.98475E-05 6.05328E+00 4.41420E+01
 -1      1705 5.08932E-04 2.44920E-04 5.36492E+01 7.83962E-04 1.93394E+02 1.80858E+01
 -1      1706 1.01040E-03-6.47987E-05 5.36530E+01 7.92739E-05 4.67689E+00 4.08605E+01
 -1      1707 3.75279E-03-4.95390E-04-2.66525E+01-1.29551E-03 2.00981E+02 1.65303E+01
 -1      1708 4.86199E-04 1.75973E-04 5.36528E+01 4.12510E-04 1.05434E+02 2.72854E+01
 -1      1709 5.33645E-03-1.61496E-04-5.34211E+01 5.26585E-04 3.56485E+00 4.41490E+01
 -1      1710-5.07500E-03 4.09717E-03 2.14240E+02 5.57157E-03 2.03491E+02 1.65353E+01
 -1      1711-8.39872E-03 1.85840E-03 2.67786E+02-5.67351E-04 6.05359E+00 4.41526E+01
 -1      1712-1.90273E-02 2.12818E-03 2.14263E+02 8.40706E-03 1.93393E+02 1.81005E+01
 -1      1713-2.26418E-02-3.58031E-04 2.67809E+02 2.16822E-05 4.67705E+00 4.08735E+01
 -1      1714-3.02833E-03 1.21985E-03 1.33954E+02 2.86723E-03 2.00981E+02 1.65302E+01
 -1      1715-6.65346E-03 2.57623E-03 2.41033E+02 2.34147E-03 1.05434E+02 2.72971E+01
 -1      1716-4.41899E-03 5.73031E-05 1.60730E+02-3.65342E-04 3.56493E+00 4.41489E+01
 -1      1717-1.25797E-02 9.81851E-03 3.74810E+02 1.54807E-02 2.03483E+02 1.65783E+01
 -1      1718-2.13418E-02 4.61075E-03 4.81903E+02-1.55258E-03 6.05436E+00 4.41907E+01
 -1      1719-4.59639E-02 5.28259E-03 3.74864E+02 2.27454E-02 1.93389E+02 1.81520E+01
 -1      1720-5.51869E-02-6.30237E-04 4.81957E+02 1.78642E-05 4.67731E+00 4.09191E+01
 -1      1721-1.13389E-02 3.37146E-03 2.94548E+02 9.56133E-03 2.00976E+02 1.65567E+01
 -1      1722-1.66764E-02 6.07189E-03 4.28391E+02 6.63796E-03 1.05430E+02 2.73389E+01
 -1      1723-1.65452E-02 3.50638E-04 3.74872E+02-1.43688E-03 3.56509E+00 4.41722E+01
 -1      1724-2.41507E-02 2.02798E-02 5.35322E+02 3.78338E-02 2.03461E+02 1.66739E+01
 -1      1725-4.34131E-02 9.01576E-03 6.95971E+02-3.36908E-03 6.05599E+00 4.42745E+01
 -1      1726-8.78061E-02 1.16893E-02 5.35437E+02 5.34230E-02 1.93379E+02 1.82641E+01
 -1      1727-1.06075E-01-9.30802E-04 6.96083E+02 1.02047E-04 4.67793E+00 4.10172E+01
 -1      1728-2.41355E-02 7.32364E-03 4.55101E+02 2.45619E-02 2.00960E+02 1.66230E+01
 -1      1729-3.27492E-02 1.20037E-02 6.15693E+02 1.67482E-02 1.05420E+02 2.74314E+01
 -1      1730-3.64119E-02 5.71086E-04 5.88979E+02-3.20051E-03 3.56542E+00 4.42303E+01
 -1      1731-4.16579E-02 3.92293E-02 6.95714E+02 8.58783E-02 2.03413E+02 1.68638E+01
 -1      1732-8.09092E-02 1.62008E-02 9.09939E+02-6.83416E-03 6.05924E+00 4.44382E+01
 -1      1733-1.51976E-01 2.44006E-02 6.95953E+02 1.17238E-01 1.93358E+02 1.84821E+01
 -1      1734-1.84396E-01-9.67424E-04 9.10171E+02 3.08802E-04 4.67941E+00 4.12045E+01
 -1      1735-4.48863E-02 1.48772E-02 6.15561E+02 5.77271E-02 2.00925E+02 1.67594E+01
 -1      1736-5.83112E-02 2.19959E-02 8.02879E+02 3.89806E-02 1.05399E+02 2.76142E+01
 -1      1737-7.09642E-02 4.44753E-04 8.03009E+02-6.39065E-03 3.56613E+00 4.43476E+01
 -1      1738-6.53928E-02 7.13605E-02 8.55875E+02 1.83711E-01 2.03309E+02 1.72198E+01
 -1      1739-1.40583E-01 2.73066E-02 1.12372E+03-1.32929E-02 6.06541E+00 4.47365E+01
 -1      1740-2.41719E-01 4.79357E-02 8.56367E+02 2.43985E-01 1.93314E+02 1.88816E+01
 -1      1741-2.93325E-01 5.43217E-05 1.12419E+03 6.05951E-04 4.68279E+00 4.15377E+01
 -1      1742-7.70878E-02 2.83750E-02 7.75842E+02 1.27060E-01 2.00848E+02 1.70194E+01
 -1      1743-9.57094E-02 3.75581E-02 9.89843E+02 8.49914E-02 1.05351E+02 2.79535E+01
 -1      1744-1.28969E-01-6.87728E-04 1.01689E+03-1.21343E-02 3.56756E+00 4.45655E+01
 -1      1745-9.03061E-02 1.20293E-01 1.01561E+03 3.73751E-01 2.03094E+02 1.78543E+01
 -1      1746-2.24810E-01 4.50010E-02 1.33715E+03-2.51390E-02 6.07611E+00 4.52454E+01
 -1      1747-3.44320E-01 8.75428E-02 1.01661E+03 4.84772E-01 1.93223E+02 1.95754E+01
 -1      1748-4.13034E-01 6.34720E-03 1.33812E+03 6.70881E-04 4.68966E+00 4.20907E+01
 -1      1749-1.22255E-01 4.96897E-02 9.35791E+02 2.64865E-01 2.00688E+02 1.74894E+01
 -1      1750-1.42128E-01 5.84915E-02 1.17640E+03 1.75473E-01 1.05252E+02 2.85491E+01
 -1      1751-2.19263E-01-3.76043E-03 1.23050E+03-2.22318E-02 3.57032E+00 4.49435E+01
 -1      1752-9.71955E-02 1.81964E-01 1.17461E+03 7.26590E-01 2.02658E+02 1.89261E+01
 -1      1753-3.21712E-01 6.64040E-02 1.54999E+03-4.59754E-02 6.09315E+00 4.60471E+01
 -1      1754-4.03394E-01 1.46395E-01 1.17658E+03 9.22622E-01 1.93035E+02 2.07121E+01
 -1      1755-4.64937E-01 2.19303E-02 1.55190E+03-7.72620E-04 4.70239E+00 4.29326E+01
 -1      1756-1.73549E-01 7.72221E-02 1.09515E+03 5.26455E-01 2.00362E+02 1.82959E+01
 -1      1757-1.78867E-01 7.78545E-02 1.36224E+03 3.45466E-01 1.05048E+02 2.95322E+01
 -1      1758-3.43622E-01-1.16615E-02 1.44363E+03-3.92468E-02 3.57476E+00 4.55516E+01
 -1      1759-3.61983E-02 2.26077E-01 1.33239E+03 1.35240E+00 2.01789E+02 2.06266E+01
 -1      1760-3.69554E-01 1.10431E-01 1.76184E+03-8.38644E-02 6.11039E+00 4.71735E+01
 -1      1761-2.58564E-01 2.12887E-01 1.33615E+03 1.68267E+00 1.92643E+02 2.24406E+01
 -1      1762-2.17585E-01 8.48087E-02 1.76549E+03-7.65774E-03 4.71897E+00 4.40528E+01
 -1      1763-2.04263E-01 9.40646E-02 1.25352E+03 1.00115E+00 1.99712E+02 1.95986E+01
 -1      1764-1.51884E-01 7.30179E-02 1.54687E+03 6.48942E-01 1.04631E+02 3.10326E+01
 -1      1765-4.79892E-01-2.29658E-02 1.65595E+03-6.77316E-02 3.58094E+00 4.64311E+01
 -1      1766 2.14010E-01 1.68944E-01 1.48825E+03 2.40324E+00 2.00088E+02 2.31038E+01
 -1      1767-2.44551E-01 8.26254E-02 1.97203E+03-1.47882E-01 6.11947E+00 4.84520E+01
 -1      1768 4.75270E-01 2.56688E-01 1.49521E+03 2.93249E+00 1.91831E+02 2.47932E+01
 -1      1769 8.15380E-01 1.49673E-01 1.97878E+03-3.06852E-02 4.73410E+00 4.51705E+01
 -1      1770-1.30424E-01 5.68356E-02 1.41033E+03 1.82014E+00 1.98439E+02 2.15507E+01
 -1      1771 8.20104E-02-2.47411E-02 1.72956E+03 1.16387E+00 1.03786E+02 3.30695E+01
 -1      1772-5.40542E-01-6.27698E-02 1.86695E+03-1.12744E-01 3.57867E+00 4.74953E+01
 -1      1773 8.62317E-01-2.30147E-01 1.64146E+03 4.05674E+00 1.96870E+02 2.62610E+01
 -1      1774 4.76619E-01 2.93021E-01 2.17973E+03-2.79302E-01 6.00223E+00 4.91257E+01
 -1      1775 2.65485E+00 1.39624E-01 1.65388E+03 4.85584E+00 1.90196E+02 2.73719E+01
 -1      1776 3.89330E+00 6.30060E-01 2.19168E+03-9.77877E-02 4.66777E+00 4.52703E+01
 -1      1777 2.07745E-01-1.79637E-01 1.56491E+03 3.15177E+00 1.96036E+02 2.41303E+01
 -1      1778 7.79603E-01-3.25627E-01 1.90931E+03 1.96411E+00 1.02146E+02 3.52672E+01
 -1      1779-3.15357E-01-5.66942E-02 2.07583E+03-1.92201E-01 3.56272E+00 4.82330E+01
 -1      1780 2.61561E+00-1.10399E+00 1.79170E+03 6.43807E+00 1.91087E+02 2.92063E+01
 -1      1781 1.96825E+00-1.05008E+00 2.38309E+03-5.09659E-01 5.77026E+00 4.71014E+01
 -1      1782 8.12818E+00 7.37901E-04 1.81287E+03 7.54547E+00 1.87170E+02 2.86226E+01
 -1      1783 1.04860E+01-7.85344E-02 2.40322E+03-2.67535E-01 4.47749E+00 4.16514E+01
 -1      1784 1.31775E+00-7.20042E-01 1.71676E+03 5.15747E+00 1.91603E+02 2.68972E+01
 -1      1785 2.75330E+00-1.17899E+00 2.08543E+03 3.12378E+00 9.89654E+01 3.62164E+01
 -1      1786 6.79387E-01-4.81009E-01 2.28161E+03-3.24803E-01 3.36259E+00 4.72774E+01
 -1      1787 5.45304E+00-3.98098E+00 1.94027E+03 9.32302E+00 1.81926E+02 2.91015E+01
 -1      1788 6.90820E+00 2.12127E+00 2.58217E+03-1.07043E+00 4.19302E+00 3.67280E+01
 -1      1789 2.11357E+01-8.31526E-01 1.97587E+03 1.08861E+01 1.82502E+02 2.40900E+01
 -1      1790 2.80819E+01 4.99600E+00 2.61499E+03-7.17127E-01 3.28476E+00 2.74876E+01
 -1      1791 3.70105E+00-2.23634E+00 1.86717E+03 7.80468E+00 1.84601E+02 2.75957E+01
 -1      1792 6.43388E+00-2.46827E+00 2.25760E+03 4.35323E+00 9.39734E+01 3.18063E+01
 -1      1793 3.30974E+00 3.53226E-01 2.48300E+03-6.07833E-01 3.23278E+00 4.03735E+01
 -1      1794 2.11136E+01 1.05789E+00 2.10088E+03 1.27939E+01 1.69999E+02 1.78451E+01
 -1      1795 1.22583E+01-2.26297E+01 2.77232E+03-2.53382E+00 3.61592E+00 6.10957E+00
 -1      1796 5.32197E+01 6.32643E+00 2.14919E+03 1.40324E+01 1.78605E+02 2.62472E+00
 -1      1797 5.11199E+01-2.04529E+01 2.81213E+03-1.48425E+00 2.65722E+00-1.20932E+01
 -1      1798 1.15672E+01-2.07912E+00 2.01901E+03 1.10162E+01 1.73920E+02 2.21147E+01
 -1      1799 2.19538E+01-5.20912E+00 2.43780E+03 5.62910E+00 8.51072E+01 1.25604E+01
 -1      1800 9.49322E+00-7.74002E+00 2.67988E+03-1.42709E+00 2.99798E-01 2.03341E+01
 -1      1801 2.87626E+01-1.26928E+01 2.29694E+03 1.32252E+01 1.86021E+02-3.95783E+01
 -1      1802 2.66985E+01 2.65489E+01 2.93796E+03-3.50331E+00-2.22596E+01-9.96609E+01
 -1      1803 1.40021E+02 1.00295E+01 2.36342E+03 1.71441E+01 2.07935E+02-6.58210E+01
 -1      1804 1.53462E+02 4.76334E+01 2.98220E+03-3.16800E+00-2.26121E+01-1.18556E+02
 -1      1805 2.50909E+01-4.53923E+00 2.21045E+03 1.30197E+01 1.76155E+02-1.26803E+01
 -1      1806 5.05348E+01 1.06888E+01 2.67329E+03 4.77343E+00 8.78003E+01-6.57740E+01
 -1      1807 2.61473E+01 1.72272E+01 2.88629E+03-2.10011E+00 4.17128E+00-4.68537E+01
 -1      1808 4.92725E+02 4.40425E+02 2.80652E+03 2.70261E+01 3.52296E+02-2.87249E+02
 -1      1809 3.84954E+02-1.09034E+02 3.46184E+03-3.51472E+00-1.09253E+02-4.17596E+02
 -1      1810 5.00189E+02 3.98198E+02 2.70953E+03 1.59592E+01 4.03428E+02-2.19548E+02
 -1      1811 3.64143E+02-1.87064E+02 3.33685E+03 5.02285E+00-9.91283E+01-3.13630E+02
 -1      1812 1.33649E+02 8.59229E+01 2.35225E+03 1.97703E+01 2.32117E+02-1.29011E+02
 -1      1813 4.66716E+02 2.30889E+02 3.14056E+03 1.52975E+01 1.43848E+02-3.34162E+02
 -1      1814 4.76477E+01-1.98889E+02 2.96134E+03-8.11439E+00-6.23079E+01-2.20758E+02
 -1      1815 9.84003E+02 9.84005E+02 2.14772E+03-5.99696E-04 3.10514E+02-4.31380E+02
 -1      1816 2.12968E+03 2.12969E+03 4.64836E+03-4.65567E-04 1.18803E+03-5.79810E+02
 -1      1817 9.81672E+02 9.81663E+02 2.14272E+03 6.12367E-04 3.44609E+02-3.28109E+02
 -1      1818 2.18427E+03 2.18426E+03 4.76764E+03 4.13332E-04 1.25430E+03-4.42918E+02
 -1      1819 5.14929E+02 4.52782E+02 2.43399E+03 1.32872E+01 3.53373E+02-3.63476E+02
 -1      1820 1.46589E+03 1.46588E+03 3.19965E+03 4.90628E-04 7.09807E+02-5.04263E+02
 -1      1821 8.36130E+02 4.67437E+02 3.86575E+03 7.38277E+00 4.69248E+02-5.12189E+02
 -1      1822-2.73676E+03-2.73676E+03-5.97341E+03 2.49790E-04 9.98451E+02-1.42162E+03
 -1      1823-1.60379E+03-1.60379E+03-3.50050E+03 4.76981E-04 8.86057E+01-1.02859E+03
 -1      1824 8.84947E+01-1.61576E+02-2.30181E+03 8.85722E+00 1.77756E+02 7.64318E+01
 -1      1825 2.01035E+02 1.98708E+02-3.01443E+03 3.22864E+01-1.70028E+02 8.57663E+01
 -1      1826-2.29312E+03-2.29311E+03-5.00524E+03-6.69201E-04 1.07897E+03-9.64713E+02
 -1      1827-1.19768E+03-1.19768E+03-2.61424E+03-5.78644E-04 2.04179E+02-6.99562E+02
 -1      1828-2.46969E+02-3.24934E+02-2.51720E+03-7.58303E+00 2.78946E+02-1.23853E+02
 -1      1829-1.62964E+02 1.10264E+02-3.20736E+03 2.94121E+01-1.15195E+02-1.95449E+02
 -1      1830-2.12432E+03-2.12432E+03-4.63681E+03-7.49727E-04 5.11939E+02-1.22202E+03
 -1      1831-3.39342E+02-4.92317E+02-2.73656E+03-2.16844E+01 1.47099E+02-4.03487E+02
 -1      1832 1.11403E+02-5.49908E+01-2.67455E+03 2.22636E+01 1.35333E+01 1.06744E+02
 -1      1833-5.41018E+02-5.06609E+02-4.10021E+03-4.76135E+01 3.08714E+02-5.54727E+02
 -1      1834-8.95061E+00 6.11907E+01-1.90604E+03-3.92121E+00 1.17510E+02 2.69688E+01
 -1      1835-2.43782E+01-3.72969E+01-2.57645E+03 1.52832E+01-2.91524E+01 1.99918E+01
 -1      1836-3.21148E+01 6.78212E+00-2.12381E+03-8.63446E+00 1.53606E+02-8.00042E+00
 -1      1837-4.03772E+01-5.95398E+01-2.80497E+03 7.80366E+00-1.79378E+01-4.50233E+01
 -1      1838 1.65910E+02 6.80479E+01-1.91316E+03 2.89130E-01 1.07010E+02 5.39933E+01
 -1      1839-2.23177E+01 1.94713E+01-2.25486E+03 3.79389E+00 4.75017E+01 2.70102E+01
 -1      1840 2.37990E+02 2.13762E+02-2.59985E+03 2.30379E+01-5.98931E+01 2.06761E+01
 -1      1841 2.12368E+01 3.03770E+01-1.84893E+03 8.30092E-01 1.53900E+02 6.21735E+00
 -1      1842 3.50901E+01 2.73818E+01-2.52521E+03 1.39690E+00 4.37848E+00 7.42140E+00
 -1      1843-9.59239E+00 3.14507E+00-1.93874E+03-6.15117E+00 1.62457E+02 1.46727E+01
 -1      1844-4.58265E+00 8.48335E+00-2.62986E+03 3.09317E+00 3.30271E+00 9.54790E+00
 -1      1845-8.48068E+00 3.62074E+01-1.90769E+03-1.67720E+00 1.34139E+02 1.42806E+00
 -1      1846 2.54463E+01 2.52783E+01-2.17911E+03 7.17557E-01 7.68503E+01 7.36509E+00
 -1      1847-6.21198E+00-1.68462E+01-2.58496E+03 4.99227E+00-2.56829E+00-1.45071E+00
 -1      1848-2.45355E-01 1.39960E+01-1.75730E+03-1.41160E-01 1.92470E+02 5.54690E+00
 -1      1849-3.89429E-01-4.39361E+00-2.40254E+03 1.39147E+00 9.59244E+00 1.08198E+01
 -1      1850-4.36387E+00 5.08221E+00-1.80145E+03-4.76588E+00 1.85555E+02 1.73710E+01
 -1      1851-6.10917E+00-7.03754E+00-2.45110E+03 1.27167E+00 4.95149E+00 2.41400E+01
 -1      1852 8.52254E+00 2.07379E+01-1.80607E+03 4.67642E-01 1.71259E+02 4.93987E+00
 -1      1853 1.44497E+00 7.85033E+00-2.06985E+03 1.24276E-01 1.02307E+02 6.01867E+00
 -1      1854 1.17366E+01 5.81083E+00-2.47436E+03 1.21642E+00 4.54773E+00 6.86120E+00
 -1      1855 1.06910E+00 7.21727E+00-1.64313E+03-4.85245E-02 2.15804E+02 3.42045E+00
 -1      1856 2.39168E+00 4.65090E-01-2.23628E+03 6.06787E-01 1.32680E+01 1.08407E+01
 -1      1857-2.03247E+00 1.84572E+00-1.66685E+03-3.28520E+00 2.00934E+02 1.64200E+01
 -1      1858-1.90770E+00-1.90725E+00-2.26280E+03 7.58440E-01 6.14414E+00 2.99221E+01
 -1      1859 8.02489E-01 1.09979E+01-1.70078E+03-2.88909E-02 2.02364E+02 2.46521E+00
 -1      1860 2.09559E+00 4.67224E+00-1.93478E+03 1.00253E-01 1.15891E+02 4.12639E+00
 -1      1861 2.37934E+00-5.12974E-01-2.31853E+03 7.77140E-01 9.40705E+00 8.88915E+00
 -1      1862-3.61698E-01 3.21138E+00-1.51282E+03-3.44126E-02 2.28891E+02 2.54262E+00
 -1      1863 9.70655E-02-7.16501E-01-2.05220E+03 3.15535E-01 1.44851E+01 1.09459E+01
 -1      1864-8.98661E-01 7.24783E-01-1.52459E+03-2.04518E+00 2.09864E+02 1.42942E+01
 -1      1865-7.86029E-01-1.50516E+00-2.06510E+03 3.90764E-01 6.41646E+00 3.09462E+01
 -1      1866 7.38574E-01 5.55741E+00-1.57809E+03 4.72554E-02 2.20076E+02 2.08261E+00
 -1      1867 1.80894E-01 1.96335E+00-1.77969E+03 4.09718E-02 1.23418E+02 3.22554E+00
 -1      1868 1.56384E+00 2.86507E-01-2.14453E+03 4.15224E-01 1.13755E+01 9.86188E+00
 -1      1869-2.93203E-01 1.45173E+00-1.37021E+03-1.17987E-02 2.35720E+02 1.93961E+00
 -1      1870 2.05105E-02-2.82149E-01-1.85467E+03 1.65736E-01 1.50274E+01 1.08011E+01
 -1      1871-3.46543E-01 1.58095E-01-1.37597E+03-1.19595E+00 2.14652E+02 1.24293E+01
 -1      1872-1.22965E-01-6.58723E-01-1.86093E+03 2.22949E-01 6.51794E+00 3.06585E+01
 -1      1873 9.82876E-02 2.73443E+00-1.44137E+03 4.37996E-02 2.29911E+02 1.67935E+00
 -1      1874-3.28010E-02 9.04946E-01-1.61113E+03 3.37847E-02 1.27184E+02 2.61083E+00
 -1      1875 5.40639E-01 5.68042E-02-1.95318E+03 2.23528E-01 1.22162E+01 1.02821E+01
 -1      1876-2.88892E-01 6.10921E-01-1.21995E+03 2.13163E-03 2.39139E+02 1.62135E+00
 -1      1877-1.31207E-01-2.11654E-01-1.64980E+03 7.87333E-02 1.52036E+01 1.06828E+01
 -1      1878-1.05852E-01-1.09810E-02-1.22260E+03-6.59173E-01 2.17094E+02 1.10475E+01
 -1      1879 6.70397E-02-3.41450E-01-1.65263E+03 1.19593E-01 6.51526E+00 3.00252E+01
 -1      1880-4.87236E-03 1.31506E+00-1.29498E+03 4.14555E-02 2.34953E+02 1.49132E+00
 -1      1881-1.67794E-01 3.66670E-01-1.43429E+03 2.07883E-02 1.29029E+02 2.27313E+00
 -1      1882 2.11086E-01 7.31922E-02-1.75215E+03 1.21461E-01 1.25647E+01 1.04268E+01
 -1      1883-1.98508E-01 2.51875E-01-1.06499E+03 6.20726E-03 2.40791E+02 1.44254E+00
 -1      1884-1.16657E-01-1.17250E-01-1.44058E+03 3.69712E-02 1.52605E+01 1.05923E+01
 -1      1885-1.09754E-02-4.55974E-02-1.06614E+03-3.45804E-01 2.18299E+02 1.01339E+01
 -1      1886 1.07467E-01-1.55111E-01-1.44180E+03 6.40935E-02 6.50048E+00 2.94675E+01
 -1      1887-5.47746E-02 6.25339E-01-1.14241E+03 3.29371E-02 2.37464E+02 1.38006E+00
 -1      1888-1.45763E-01 1.42062E-01-1.25257E+03 1.33161E-02 1.29897E+02 2.08135E+00
 -1      1889 4.69049E-02 4.04927E-02-1.54515E+03 6.03281E-02 1.26997E+01 1.04746E+01
 -1      1890-1.29897E-01 9.87729E-02-9.07343E+02 6.50222E-03 2.41565E+02 1.35009E+00
 -1      1891-9.14192E-02-7.05082E-02-1.22899E+03 1.52784E-02 1.52731E+01 1.05375E+01
 -1      1892 1.81485E-02-3.59456E-02-9.07804E+02-1.72485E-01 2.18878E+02 9.57035E+00
 -1      1893 8.82609E-02-7.21230E-02-1.22947E+03 3.29502E-02 6.48561E+00 2.90696E+01
 -1      1894-5.13883E-02 2.94223E-01-9.86154E+02 2.31892E-02 2.38668E+02 1.32242E+00
 -1      1895-1.07707E-01 4.75391E-02-1.06812E+03 7.59102E-03 1.30296E+02 1.98086E+00
 -1      1896-7.67764E-03 2.25629E-02-1.33480E+03 2.88968E-02 1.27514E+01 1.04852E+01
 -1      1897-7.81323E-02 3.72168E-02-7.48220E+02 5.02895E-03 2.41918E+02 1.30364E+00
 -1      1898-6.12115E-02-4.03732E-02-1.01612E+03 5.55747E-03 1.52737E+01 1.05073E+01
 -1      1899 2.15930E-02-2.07445E-02-7.48385E+02-8.15501E-02 2.19149E+02 9.24207E+00
 -1      1900 5.96982E-02-3.20183E-02-1.01628E+03 1.64383E-02 6.47610E+00 2.88177E+01
 -1      1901-3.92619E-02 1.37325E-01-8.27795E+02 1.51093E-02 2.39230E+02 1.29280E+00
 -1      1902-6.92049E-02 1.22460E-02-8.82183E+02 4.10816E-03 1.30474E+02 1.93001E+00
 -1      1903-2.23126E-02 9.56931E-03-1.12259E+03 1.24951E-02 1.27703E+01 1.04859E+01
 -1      1904-4.48306E-02 1.31610E-02-5.88318E+02 3.40807E-03 2.42072E+02 1.28171E+00
 -1      1905-3.81905E-02-2.30082E-02-8.02565E+02 1.37286E-03 1.52718E+01 1.04922E+01
 -1      1906 1.69777E-02-9.67289E-03-5.88366E+02-3.61635E-02 2.19274E+02 9.05982E+00
 -1      1907 3.59520E-02-1.40701E-02-8.02614E+02 7.84367E-03 6.47065E+00 2.86702E+01
 -1      1908-2.61320E-02 6.33564E-02-6.68294E+02 9.18294E-03 2.39483E+02 1.27855E+00
 -1      1909-4.13444E-02 5.14250E-04-6.95477E+02 2.04634E-03 1.30551E+02 1.90586E+00
 -1      1910-2.07726E-02 2.90991E-03-9.09380E+02 4.82250E-03 1.27771E+01 1.04848E+01
 -1      1911-2.43872E-02 4.30565E-03-4.28020E+02 2.08370E-03 2.42137E+02 1.27197E+00
 -1      1912-2.22050E-02-1.26921E-02-5.88677E+02-1.01967E-04 1.52703E+01 1.04855E+01
 -1      1913 1.12480E-02-3.52845E-03-4.28029E+02-1.47535E-02 2.19329E+02 8.96321E+00
 -1      1914 1.99089E-02-5.99185E-03-5.88687E+02 3.56167E-03 6.46784E+00 2.85892E+01
 -1      1915-1.60847E-02 2.87643E-02-5.08196E+02 5.27161E-03 2.39594E+02 1.27206E+00
 -1      1916-2.30499E-02-2.23951E-03-5.08384E+02 9.41901E-04 1.30583E+02 1.89508E+00
 -1      1917-1.51584E-02-6.29992E-05-6.95659E+02 1.44832E-03 1.27795E+01 1.04841E+01
 -1      1918-1.23841E-02 1.30940E-03-2.67532E+02 1.15631E-03 2.42163E+02 1.26798E+00
 -1      1919-1.19206E-02-6.66134E-03-3.74626E+02-4.35175E-04 1.52694E+01 1.04828E+01
 -1      1920 6.53340E-03-7.24752E-04-2.67530E+02-5.31143E-03 2.19352E+02 8.91463E+00
 -1      1921 1.00606E-02-2.48032E-03-3.74625E+02 1.50241E-03 6.46651E+00 2.85475E+01
 -1      1922-9.17036E-03 1.27399E-02-3.47798E+02 2.83909E-03 2.39640E+02 1.26934E+00
 -1      1923-1.18656E-02-2.04125E-03-3.21104E+02 3.87528E-04 1.30596E+02 1.89066E+00
 -1      1924-9.59996E-03-9.70776E-04-4.81681E+02 1.80478E-04 1.27805E+01 1.04838E+01
 -1      1925-5.17494E-03 5.05963E-04-1.06958E+02 5.34794E-04 2.42173E+02 1.26649E+00
 -1      1926-5.24050E-03-2.95520E-03-1.60501E+02-3.14187E-04 1.52691E+01 1.04818E+01
 -1      1927 3.01454E-03 2.68355E-04-1.06954E+02-1.41419E-03 2.19362E+02 8.89252E+00
 -1      1928 4.14887E-03-9.22514E-04-1.60498E+02 5.30951E-04 6.46597E+00 2.85283E+01
 -1      1929-4.63360E-03 5.35687E-03-1.87257E+02 1.37354E-03 2.39657E+02 1.26830E+00
 -1      1930-4.98259E-03-1.04865E-03-1.33740E+02 1.29473E-04 1.30601E+02 1.88902E+00
 -1      1931-5.21149E-03-9.33853E-04-2.67580E+02-1.61675E-04 1.27809E+01 1.04838E+01
 -1      1932-4.47803E-05 4.57552E-04 5.36499E+01 8.98473E-05 2.42175E+02 1.26606E+00
 -1      1933-2.15598E-04-2.15597E-04 5.36536E+01-4.26519E-05 1.52691E+01 1.04815E+01
 -1      1934 1.75973E-04 4.86199E-04 5.36528E+01 4.12510E-04 2.19364E+02 8.88610E+00
 -1      1935 9.76654E-05-4.74024E-05 5.36566E+01 5.80685E-06 6.46589E+00 2.85226E+01
 -1      1936-1.45826E-03 1.73542E-03-2.66551E+01 4.45917E-04 2.39664E+02 1.26793E+00
 -1      1937-4.74022E-05 9.76662E-05 5.36566E+01 5.80691E-06 1.30602E+02 1.88857E+00
 -1      1938-1.78308E-03-5.07495E-04-5.34262E+01-1.30489E-04 1.27811E+01 1.04838E+01
 -1      1939 5.30146E-03 5.03794E-04 2.14258E+02-3.10736E-04 2.42173E+02 1.26625E+00
 -1      1940 5.02641E-03 2.74110E-03 2.67809E+02 2.50469E-04 1.52693E+01 1.04816E+01
 -1      1941-2.71781E-03 5.85950E-04 2.14259E+02 2.39731E-03 2.19362E+02 8.89232E+00
 -1      1942-3.90727E-03 9.65758E-04 2.67811E+02-4.92225E-04 6.46616E+00 2.85280E+01
 -1      1943 1.35407E-03-8.17958E-04 1.33965E+02-2.84675E-04 2.39664E+02 1.26785E+00
 -1      1944 5.02583E-03 1.29025E-03 2.41054E+02-9.07467E-05 1.30601E+02 1.88884E+00
 -1      1945 1.35625E-03 8.06698E-05 1.60743E+02 8.01694E-06 1.27812E+01 1.04838E+01
 -1      1946 1.32718E-02-4.48936E-05 3.74833E+02-7.92398E-04 2.42162E+02 1.26749E+00
 -1      1947 1.24994E-02 7.24006E-03 4.81937E+02 4.53889E-04 1.52699E+01 1.04823E+01
 -1      1948-6.45835E-03 1.08688E-03 3.74833E+02 6.77742E-03 2.19351E+02 8.91498E+00
 -1      1949-9.67365E-03 3.01288E-03 4.81939E+02-1.37005E-03 6.46687E+00 2.85479E+01
 -1      1950 4.83105E-03-4.42580E-03 2.94567E+02-1.12130E-03 2.39657E+02 1.26805E+00
 -1      1951 1.23981E-02 2.42821E-03 4.28418E+02-2.55170E-04 1.30596E+02 1.89030E+00
 -1      1952 5.04820E-03 7.70557E-04 3.74899E+02 8.92512E-05 1.27811E+01 1.04836E+01
 -1      1953 2.69379E-02-2.74416E-03 5.35317E+02-1.46810E-03 2.42131E+02 1.27128E+00
 -1      1954 2.46089E-02 1.50960E-02 6.95987E+02 3.21754E-04 1.52709E+01 1.04849E+01
 -1      1955-1.17475E-02 2.56287E-03 5.35324E+02 1.70307E-02 2.19322E+02 8.96598E+00
 -1      1956-1.92624E-02 7.60351E-03 6.95996E+02-3.23086E-03 6.46833E+00 2.85922E+01
 -1      1957 1.01353E-02-1.19261E-02 4.55105E+02-2.38710E-03 2.39636E+02 1.26891E+00
 -1      1958 2.46615E-02 2.88594E-03 6.15693E+02-6.11093E-04 1.30580E+02 1.89460E+00
 -1      1959 1.01627E-02 1.53356E-03 5.88999E+02-1.08096E-04 1.27809E+01 1.04834E+01
 -1      1960 5.05994E-02-1.15654E-02 6.95596E+02-2.41864E-03 2.42052E+02 1.28104E+00
 -1      1961 4.43193E-02 2.91369E-02 9.09858E+02-7.19688E-04 1.52724E+01 1.04917E+01
 -1      1962-1.87755E-02 5.61458E-03 6.95638E+02 3.95001E-02 2.19254E+02 9.06892E+00
 -1      1963-3.49243E-02 1.77910E-02 9.09903E+02-7.14179E-03 6.47106E+00 2.86801E+01
 -1      1964 1.86424E-02-2.85601E-02 6.15491E+02-4.48217E-03 2.39581E+02 1.27146E+00
 -1      1965 4.50653E-02 5.13431E-04 8.02765E+02-1.34447E-03 1.30541E+02 1.90545E+00
 -1      1966 1.73619E-02 2.26652E-03 8.02967E+02-1.03299E-03 1.27801E+01 1.04835E+01
 -1      1967 8.96531E-02-3.65477E-02 8.55448E+02-3.57487E-03 2.41869E+02 1.30354E+00
 -1      1968 7.43508E-02 5.35125E-02 1.12335E+03-4.04997E-03 1.52735E+01 1.05075E+01
 -1      1969-2.60553E-02 1.01960E-02 8.55600E+02 8.58558E-02 2.19102E+02 9.26483E+00
 -1      1970-5.82103E-02 3.95461E-02 1.12351E+03-1.50964E-02 6.47595E+00 2.88426E+01
 -1      1971 3.17079E-02-6.49910E-02 7.75554E+02-7.89698E-03 2.39450E+02 1.27787E+00
 -1      1972 7.67327E-02-1.07581E-02 9.89411E+02-2.76628E-03 1.30449E+02 1.93017E+00
 -1      1973 2.63358E-02 2.65328E-03 1.01665E+03-3.67864E-03 1.27776E+01 1.04843E+01
 -1      1974 1.51025E-01-1.01412E-01 1.01445E+03-4.64886E-03 2.41461E+02 1.35187E+00
 -1      1975 1.16890E-01 9.59789E-02 1.33609E+03-1.21976E-02 1.52707E+01 1.05399E+01
 -1      1976-2.76547E-02 1.28750E-02 1.01490E+03 1.76731E-01 2.18779E+02 9.61961E+00
 -1      1977-8.63953E-02 8.60828E-02 1.33656E+03-3.05848E-02 6.48377E+00 2.91236E+01
 -1      1978 5.01670E-02-1.43404E-01 9.34970E+02-1.32022E-02 2.39156E+02 1.29240E+00
 -1      1979 1.21667E-01-4.56736E-02 1.17521E+03-5.22560E-03 1.30242E+02 1.98269E+00
 -1      1980 3.42424E-02 2.36043E-03 1.22975E+03-9.92553E-03 1.27704E+01 1.04858E+01
 -1      1981 2.34186E-01-2.63015E-01 1.17186E+03-4.43926E-03 2.40589E+02 1.44889E+00
 -1      1982 1.62039E-01 1.62632E-01 1.54737E+03-3.12276E-02 1.52532E+01 1.05996E+01
 -1      1983-7.41252E-03 1.14695E-04 1.17301E+03 3.46813E-01 2.18109E+02 1.02306E+01
 -1      1984-1.05824E-01 1.78932E-01 1.54860E+03-6.02563E-02 6.49476E+00 2.95737E+01
 -1      1985 7.09814E-02-3.09754E-01 1.09315E+03-2.07219E-02 2.38521E+02 1.32320E+00
 -1      1986 1.69583E-01-1.40419E-01 1.35937E+03-9.47889E-03 1.29791E+02 2.08707E+00
 -1      1987 3.07936E-02 5.53067E-04 1.44174E+03-2.37520E-02 1.27502E+01 1.04864E+01
 -1      1988 3.45118E-01-6.40501E-01 1.32636E+03-1.96412E-03 2.38778E+02 1.63750E+00
 -1      1989 2.06971E-01 2.87418E-01 1.75599E+03-6.87295E-02 1.51859E+01 1.07005E+01
 -1      1990 7.29869E-02-7.19176E-02 1.32905E+03 6.49354E-01 2.16758E+02 1.12227E+01
 -1      1991-6.70925E-02 3.79570E-01 1.75888E+03-1.13900E-01 6.50145E+00 3.02178E+01
 -1      1992 8.75415E-02-6.59292E-01 1.24906E+03-3.05344E-02 2.37194E+02 1.38391E+00
 -1      1993 2.05914E-01-3.66723E-01 1.54054E+03-1.50950E-02 1.28836E+02 2.28694E+00
 -1      1994-5.41905E-03 9.93171E-04 1.65163E+03-5.08238E-02 1.26951E+01 1.04792E+01
 -1      1995 3.69956E-01-1.51932E+00 1.47584E+03 6.88943E-03 2.35123E+02 1.97429E+00
 -1      1996 9.21029E-02 3.94762E-01 1.95979E+03-1.49801E-01 1.49905E+01 1.08381E+01
 -1      1997 2.91774E-01-2.98367E-01 1.48175E+03 1.15956E+00 2.14098E+02 1.27244E+01
 -1      1998 1.16458E-01 7.11621E-01 1.96623E+03-2.15744E-01 6.48914E+00 3.09831E+01
 -1      1999 5.44337E-02-1.38247E+00 1.40101E+03-4.10071E-02 2.34493E+02 1.50216E+00
 -1      2000 8.56981E-02-9.11452E-01 1.71643E+03-2.65796E-02 1.26859E+02 2.63963E+00
 -1      2001-1.42571E-01-4.67672E-03 1.85780E+03-1.05260E-01 1.25529E+01 1.04386E+01
 -1      2002 4.62270E-01-3.34703E+00 1.61717E+03 1.65780E-02 2.27981E+02 2.61274E+00
 -1      2003 6.78181E-02 8.81384E-01 2.15552E+03-2.92303E-01 1.44127E+01 1.10183E+01
 -1      2004 8.15179E-01-9.46810E-01 1.62933E+03 1.95199E+00 2.09027E+02 1.47524E+01
 -1      2005 7.67999E-01 1.57850E+00 2.16885E+03-3.83686E-01 6.35988E+00 3.14498E+01
 -1      2006-2.81768E-02-2.85955E+00 1.54637E+03-5.00817E-02 2.29186E+02 1.70349E+00
 -1      2007-1.07561E-01-1.98138E+00 1.88344E+03-3.38929E-02 1.22914E+02 3.28211E+00
 -1      2008-4.34285E-01 4.95490E-02 2.05739E+03-1.97886E-01 1.21902E+01 1.03082E+01
 -1      2009-1.02972E+00-7.49243E+00 1.74558E+03 2.66805E-03 2.14562E+02 3.54363E+00
 -1      2010-2.26323E+00-3.36640E-01 2.33678E+03-5.76444E-01 1.31426E+01 1.09661E+01
 -1      2011 1.91552E+00-2.15753E+00 1.77020E+03 3.08348E+00 1.99807E+02 1.70668E+01
 -1      2012 1.84225E+00 1.94005E+00 2.36425E+03-7.59311E-01 6.04518E+00 3.06329E+01
 -1      2013-6.71268E-01-5.77707E+00 1.68152E+03-7.06735E-02 2.19041E+02 2.13546E+00
 -1      2014-2.06279E+00-4.73770E+00 2.03622E+03-1.01125E-01 1.15180E+02 4.22535E+00
 -1      2015-1.42774E+00-1.50411E-01 2.24649E+03-3.78499E-01 1.13240E+01 9.91338E+00
 -1      2016 3.30894E-01-1.44570E+01 1.85730E+03 3.98080E-02 1.91085E+02 5.78633E+00
 -1      2017 6.70874E-01 4.67506E+00 2.49922E+03-1.37924E+00 9.35663E+00 1.10556E+01
 -1      2018 4.23966E+00-5.49511E+00 1.90324E+03 4.36791E+00 1.84322E+02 1.81371E+01
 -1      2019 6.03029E+00 7.15000E+00 2.54950E+03-1.29464E+00 4.76961E+00 2.49713E+01
 -1      2020-7.16042E-01-1.13664E+01 1.80208E+03-3.16387E-02 2.01112E+02 2.55288E+00
 -1      2021-1.33251E+00-7.92921E+00 2.16825E+03-1.47244E-01 1.01475E+02 6.20055E+00
 -1      2022-2.18856E+00 7.03758E-01 2.41716E+03-7.36453E-01 9.31054E+00 8.98566E+00
 -1      2023-2.22991E+01-3.13212E+01 1.94624E+03-1.06419E+00 1.53025E+02 6.51295E+00
 -1      2024-3.63427E+01-2.86344E+01 2.61665E+03-1.35243E+00 4.08230E+00 7.71759E+00
 -1      2025 9.54273E+00-3.23703E+00 2.03986E+03 5.44977E+00 1.61751E+02 1.53329E+01
 -1      2026 4.01295E+00-9.33270E+00 2.72502E+03-3.18892E+00 3.04314E+00 1.02719E+01
 -1      2027-8.82455E+00-2.13260E+01 1.90495E+03-6.21700E-01 1.70156E+02 5.17854E+00
 -1      2028-2.62957E+01-2.58480E+01 2.27427E+03-8.13306E-01 7.61263E+01 7.62466E+00
 -1      2029-1.18478E+01-5.92201E+00 2.56903E+03-1.17142E+00 4.35998E+00 7.04895E+00
 -1      2030 9.29095E+00-6.28239E+01 2.00092E+03 3.63436E+00 1.19919E+02 2.82748E+01
 -1      2031 2.53538E+01 3.82725E+01 2.66175E+03-1.59314E+01-3.03612E+01 2.12006E+01
 -1      2032 3.31195E+01-6.11239E+00 2.22830E+03 7.56711E+00 1.55949E+02-8.59682E+00
 -1      2033 4.05225E+01 6.09494E+01 2.89817E+03-8.18568E+00-1.90400E+01-4.58233E+01
 -1      2034 8.94201E+00-3.69535E+01 2.00531E+03 1.42836E+00 1.34846E+02 1.53280E+00
 -1      2035 2.37273E+01-1.93260E+01 2.34806E+03-4.17591E+00 4.83017E+01 2.81123E+01
 -1      2036 6.86572E+00 1.74999E+01 2.67508E+03-5.15722E+00-2.74408E+00-1.27491E+00
 -1      2037-9.32459E+01 1.72426E+02 2.41396E+03-9.49025E+00 1.91546E+02 8.01562E+01
 -1      2038-2.09488E+02-2.07161E+02 3.11813E+03-3.33427E+01-1.75032E+02 9.07706E+01
 -1      2039 2.57925E+02 3.42378E+02 2.63715E+03 6.65047E+00 2.92458E+02-1.30121E+02
 -1      2040 1.67304E+02-1.15498E+02 3.31633E+03-3.05301E+01-1.19807E+02-2.01025E+02
 -1      2041-1.74346E+02-6.93586E+01 2.00713E+03-9.23285E-01 1.13421E+02 5.66854E+01
 -1      2042-1.16637E+02 5.93309E+01 2.78351E+03-2.33816E+01 1.91102E+01 1.11355E+02
 -1      2043-2.47802E+02-2.23574E+02 2.68540E+03-2.40146E+01-6.17194E+01 2.25024E+01
 -1      2044 1.68178E+03 1.68178E+03 3.67073E+03-4.70634E-04 1.08253E+02-1.07900E+03
 -1      2045 2.84736E+03 2.84736E+03 6.21481E+03-2.43850E-04 1.05154E+03-1.47471E+03
 -1      2046 1.25492E+03 1.25492E+03 2.73916E+03 5.73287E-04 2.23671E+02-7.33568E+02
 -1      2047 2.38400E+03 2.38400E+03 5.20362E+03 6.73328E-04 1.13050E+03-1.00012E+03
 -1      2048 3.57134E+02 5.21573E+02 2.87153E+03 2.17335E+01 1.64263E+02-4.23357E+02
 -1      2049 2.21521E+03 2.21521E+03 4.83519E+03 7.53854E-04 5.47343E+02-1.27355E+03
 -1      2050 5.63778E+02 5.29369E+02 4.25842E+03 4.91243E+01 3.27911E+02-5.73924E+02
 -1      2051-1.04080E+03-1.04079E+03-2.27170E+03-6.02416E-04-9.13716E+01 6.92632E+02
 -1      2052 8.68974E+01-1.33558E+02-1.36092E+03 7.39499E+00 1.63312E+02-5.28544E+01
 -1      2053-6.10346E+02-6.10344E+02-1.33216E+03-8.07706E-04 1.13708E+02 2.71391E+02
 -1      2054-2.64419E+02-3.24307E+02-1.58960E+03 5.26241E+01 3.02757E+02 1.83799E+02
 -1      2055-1.29664E+03-1.29664E+03-2.83020E+03 7.27343E-04-1.97261E+01 8.61958E+02
 -1      2056-2.46977E+02-4.85956E+02-1.73151E+03 2.11165E+01 3.88719E+01 2.68314E+02
 -1      2057 1.35356E+02-5.75706E+01-1.77242E+03 9.90476E+00 1.56317E+02-6.50124E+01
 -1      2058-7.76353E+02-7.76359E+02-1.69458E+03 6.91924E-04 2.90108E+01 4.69167E+02
 -1      2059-1.27444E+02-2.52091E+02-1.49413E+03 2.84224E+01 2.55426E+02 8.27517E+01
 -1      2060-7.46967E+02-7.46969E+02-1.63044E+03 6.81563E-04 1.82027E+02 3.42551E+02
 -1      2061-3.32985E+02-4.27305E+02-1.43841E+03 2.11058E+01 2.26103E+02 2.32452E+02
 -1      2062-3.23282E+02-2.90874E+02-2.07858E+03 4.30185E+01 2.93405E+02 2.27587E+02
 -1      2063-5.95064E+00 2.43088E+01-1.22169E+03 9.68473E+00 2.27588E+02-1.97496E+01
 -1      2064-2.54562E+01-5.14527E+01-1.43649E+03 4.65906E+01 3.04203E+02 1.86801E+01
 -1      2065 1.04076E+02 4.13941E+00-1.21916E+03 1.26400E+01 1.88771E+02-3.31973E+01
 -1      2066-1.00881E+01 3.21330E+01-1.56873E+03 8.82500E+00 1.81823E+02-2.48394E+01
 -1      2067-2.77576E+01-4.25123E+01-1.38439E+03 3.03306E+01 2.64779E+02 1.10025E+00
 -1      2068-9.31061E+01-1.35357E+02-1.45609E+03 5.18820E+01 3.04366E+02 7.84695E+01
 -1      2069-3.65642E+01-4.31357E+01-1.82580E+03 3.29319E+01 2.54624E+02 2.66418E+01
 -1      2070 1.36050E+01 3.51866E+01-1.21087E+03 3.08386E+00 2.85797E+02-5.35417E+00
 -1      2071-1.52868E+01-7.53913E+00-1.32093E+03 3.49988E+01 3.08466E+02-1.84836E+01
 -1      2072-3.07945E+00 2.94190E+01-1.23303E+03 6.01866E+00 2.55562E+02-2.99615E+00
 -1      2073 2.15684E+01 4.15119E+01-1.52270E+03 2.77518E+00 2.20958E+02-7.21870E+00
 -1      2074-8.22422E+00 3.33394E+00-1.27692E+03 1.95320E+01 2.94800E+02-1.43790E+01
 -1      2075-1.43952E+01-1.95842E+01-1.37721E+03 4.14222E+01 3.03098E+02 7.86358E-01
 -1      2076-1.54240E+01 8.81838E-01-1.65504E+03 2.54329E+01 2.41545E+02-1.90464E+01
 -1      2077 5.87613E-01 2.32507E+01-1.14674E+03 2.06234E+00 3.23769E+02-3.72386E+00
 -1      2078-2.24394E+00 5.33042E+00-1.20569E+03 2.35255E+01 3.17424E+02-2.17550E+01
 -1      2079 6.69752E+00 3.06271E+01-1.17824E+03 2.32504E+00 3.02423E+02-3.63466E+00
 -1      2080 9.97111E-01 2.07923E+01-1.45059E+03 1.81450E+00 2.58067E+02-4.80473E+00
 -1      2081-1.93358E+00 1.03224E+01-1.17835E+03 1.31396E+01 3.17446E+02-1.33563E+01
 -1      2082-5.85996E+00 2.63884E+00-1.25864E+03 2.91599E+01 3.10025E+02-1.91997E+01
 -1      2083-4.46769E+00 4.26208E+00-1.52220E+03 1.72211E+01 2.51414E+02-2.51730E+01
 -1      2084 9.57332E-01 1.29849E+01-1.07204E+03 1.03569E+00 3.50825E+02-2.17786E+00
 -1      2085-9.27153E-01 2.97168E+00-1.10465E+03 1.49827E+01 3.27463E+02-1.88897E+01
 -1      2086 7.29741E-01 1.81021E+01-1.11014E+03 1.34581E+00 3.35585E+02-1.66282E+00
 -1      2087 1.75181E+00 1.18549E+01-1.35545E+03 9.63435E-01 2.83044E+02-2.62262E+00
 -1      2088-7.49410E-01 5.90412E+00-1.08880E+03 8.17578E+00 3.36003E+02-1.10153E+01
 -1      2089-1.48374E+00 4.06929E+00-1.15600E+03 1.90037E+01 3.20213E+02-1.92473E+01
 -1      2090-1.57630E+00 2.64699E+00-1.39500E+03 1.11399E+01 2.60666E+02-2.33472E+01
 -1      2091-1.53688E-01 6.23665E+00-9.86235E+02 5.95970E-01 3.67136E+02-1.46498E+00
 -1      2092-4.70071E-02 1.14139E+00-1.00356E+03 9.08885E+00 3.34569E+02-1.51776E+01
 -1      2093 5.82317E-01 9.66397E+00-1.02925E+03 6.41740E-01 3.56904E+02-1.21199E+00
 -1      2094 1.80125E-01 5.64351E+00-1.24823E+03 5.38843E-01 2.97859E+02-1.51542E+00
 -1      2095-2.16489E-01 2.78074E+00-9.94585E+02 4.92949E+00 3.47860E+02-8.49814E+00
 -1      2096-2.54978E-01 2.05841E+00-1.05417E+03 1.18008E+01 3.28673E+02-1.64504E+01
 -1      2097-3.63255E-01 9.36571E-01-1.26921E+03 6.79345E+00 2.67071E+02-1.98322E+01
 -1      2098-2.03110E-01 2.83131E+00-8.92645E+02 3.17637E-01 3.76433E+02-1.00445E+00
 -1      2099 1.07644E-01 8.58006E-02-9.01601E+02 5.28249E+00 3.38980E+02-1.21159E+01
 -1      2100 3.86960E-02 4.64126E+00-9.39469E+02 3.34390E-01 3.69539E+02-8.48056E-01
 -1      2101 1.95722E-03 2.65696E+00-1.13065E+03 2.78863E-01 3.06011E+02-8.58543E-01
 -1      2102-4.62856E-02 1.03385E+00-8.96752E+02 2.84099E+00 3.54899E+02-6.61861E+00
 -1      2103 1.77561E-01 6.11912E-01-9.52699E+02 7.00490E+00 3.34374E+02-1.32657E+01
 -1      2104 2.37063E-02 1.24007E-01-1.14145E+03 3.95338E+00 2.70808E+02-1.66676E+01
 -1      2105-2.28696E-01 1.19671E+00-7.93620E+02 1.66660E-01 3.81449E+02-7.60741E-01
 -1      2106 1.39610E-01-2.45606E-01-7.98042E+02 2.94888E+00 3.41515E+02-9.94137E+00
 -1      2107-3.67177E-02 2.14425E+00-8.43108E+02 1.60466E-01 3.76562E+02-6.81997E-01
 -1      2108-1.20226E-01 1.17504E+00-1.00638E+03 1.39593E-01 3.10286E+02-4.99532E-01
 -1      2109 1.16499E-02 2.96105E-01-7.95520E+02 1.57581E+00 3.58827E+02-5.33081E+00
 -1      2110 2.49619E-01-1.92974E-02-8.49852E+02 3.99066E+00 3.37786E+02-1.08091E+01
 -1      2111 1.32918E-01-1.51706E-01-1.01169E+03 2.20133E+00 2.72860E+02-1.43326E+01
 -1      2112-1.66937E-01 4.89193E-01-6.91106E+02 8.33057E-02 3.84051E+02-6.24281E-01
 -1      2113 1.12850E-01-2.70602E-01-6.93180E+02 1.58392E+00 3.42905E+02-8.52501E+00
 -1      2114-6.72058E-02 9.57139E-01-7.42336E+02 7.42592E-02 3.80302E+02-5.85808E-01
 -1      2115-1.10984E-01 5.09124E-01-8.77863E+02 6.59449E-02 3.12442E+02-3.02170E-01
 -1      2116 2.64635E-02 3.73855E-02-6.91935E+02 8.40409E-01 3.60932E+02-4.51386E+00
 -1      2117 2.14768E-01-1.89738E-01-7.45627E+02 2.18604E+00 3.39720E+02-9.10831E+00
 -1      2118 1.30714E-01-1.82662E-01-8.80339E+02 1.17639E+00 2.73936E+02-1.27791E+01
 -1      2119-1.11910E-01 1.94542E-01-5.86491E+02 3.97880E-02 3.85348E+02-5.53629E-01
 -1      2120 7.96244E-02-1.98644E-01-5.87397E+02 8.18183E-01 3.43640E+02-7.65667E+00
 -1      2121-5.46714E-02 4.24545E-01-6.38786E+02 3.15225E-02 3.82214E+02-5.36874E-01
 -1      2122-8.53304E-02 2.14507E-01-7.46853E+02 2.93533E-02 3.13491E+02-1.98533E-01
 -1      2123 2.51045E-02-2.62723E-02-5.86821E+02 4.30870E-01 3.62019E+02-4.02179E+00
 -1      2124 1.53783E-01-1.77712E-01-6.40303E+02 1.15224E+00 3.40766E+02-8.02371E+00
 -1      2125 9.88386E-02-1.38138E-01-7.47927E+02 6.03188E-01 2.74483E+02-1.18154E+01
 -1      2126-6.80143E-02 7.80623E-02-4.80678E+02 1.79028E-02 3.85970E+02-5.17949E-01
 -1      2127 5.13712E-02-1.22142E-01-4.81035E+02 4.05471E-01 3.44016E+02-7.14981E+00
 -1      2128-3.86526E-02 1.89627E-01-5.33586E+02 1.18620E-02 3.83155E+02-5.11615E-01
 -1      2129-5.64886E-02 8.94078E-02-6.14443E+02 1.20193E-02 3.13984E+02-1.45799E-01
 -1      2130 1.92708E-02-2.74566E-02-4.80792E+02 2.11664E-01 3.62560E+02-3.73885E+00
 -1      2131 1.00025E-01-1.20688E-01-5.34234E+02 5.83547E-01 3.41313E+02-7.36869E+00
 -1      2132 6.58029E-02-8.64071E-02-6.14861E+02 2.96004E-01 2.74756E+02-1.12491E+01
 -1      2133-3.90442E-02 3.27144E-02-3.74216E+02 7.45717E-03 3.86255E+02-5.01007E-01
 -1      2134 3.11674E-02-6.67130E-02-3.74333E+02 1.91770E-01 3.44202E+02-6.86646E+00
 -1      2135-2.44044E-02 8.68167E-02-4.27457E+02 3.45301E-03 3.83599E+02-4.99377E-01
 -1      2136-3.46871E-02 3.70256E-02-4.81283E+02 4.33044E-03 3.14206E+02-1.20196E-01
 -1      2137 1.31716E-02-1.59369E-02-3.74246E+02 9.90458E-02 3.62820E+02-3.58275E+00
 -1      2138 6.07325E-02-6.95287E-02-4.27704E+02 2.82917E-01 3.41591E+02-6.99141E+00
 -1      2139 4.04159E-02-4.79757E-02-4.81417E+02 1.38198E-01 2.74888E+02-1.09314E+01
 -1      2140-2.11336E-02 1.49878E-02-2.67419E+02 2.76959E-03 3.86378E+02-4.93408E-01
 -1      2141 1.78835E-02-3.28722E-02-2.67442E+02 8.57292E-02 3.44292E+02-6.71456E+00
 -1      2142-1.44219E-02 4.10893E-02-3.20830E+02 3.03322E-04 3.83799E+02-4.93685E-01
 -1      2143-1.98565E-02 1.54763E-02-3.47740E+02 1.20880E-03 3.14302E+02-1.08367E-01
 -1      2144 8.28208E-03-6.47803E-03-2.67420E+02 4.36739E-02 3.62940E+02-3.50011E+00
 -1      2145 3.48924E-02-3.53925E-02-3.20905E+02 1.30388E-01 3.41727E+02-6.78306E+00
 -1      2146 2.32460E-02-2.40934E-02-3.47764E+02 6.07175E-02 2.74950E+02-1.07609E+01
 -1      2147-1.06390E-02 7.62109E-03-1.60457E+02 8.42191E-04 3.86428E+02-4.90251E-01
 -1      2148 9.54703E-03-1.42748E-02-1.60452E+02 3.53799E-02 3.44333E+02-6.63708E+00
 -1      2149-7.95252E-03 2.01036E-02-2.13949E+02-5.76698E-04 3.83884E+02-4.91208E-01
 -1      2150-1.04833E-02 6.65214E-03-2.14010E+02 1.28214E-04 3.14340E+02-1.03232E-01
 -1      2151 4.73544E-03-1.27471E-03-1.60452E+02 1.77026E-02 3.62992E+02-3.45845E+00
 -1      2152 1.89121E-02-1.58489E-02-2.13961E+02 5.63272E-02 3.41792E+02-6.67299E+00
 -1      2153 1.23615E-02-1.07321E-02-2.14002E+02 2.44729E-02 2.74979E+02-1.06741E+01
 -1      2154-4.38834E-03 4.07767E-03-5.34199E+01 1.43202E-04 3.86446E+02-4.89044E-01
 -1      2155 4.21871E-03-4.62797E-03-5.34144E+01 1.19439E-02 3.44350E+02-6.60126E+00
 -1      2156-3.90218E-03 9.87448E-03-1.06944E+02-5.69649E-04 3.83918E+02-4.90200E-01
 -1      2157-4.50211E-03 2.95493E-03-8.01950E+01-1.14157E-04 3.14354E+02-1.01185E-01
 -1      2158 2.18298E-03 8.10196E-04-5.34146E+01 5.83524E-03 3.63013E+02-3.43936E+00
 -1      2159 9.23178E-03-5.75923E-03-1.06940E+02 2.17395E-02 3.41820E+02-6.61849E+00
 -1      2160 5.41329E-03-3.61547E-03-8.01873E+01 7.98094E-03 2.74991E+02-1.06341E+01
 -1      2161 1.75402E-05 1.67687E-03 5.36469E+01-1.09369E-04 3.86451E+02-4.88657E-01
 -1      2162 2.13301E-04 7.11127E-04 5.36430E+01-8.46850E-04 3.44355E+02-6.59069E+00
 -1      2163-1.16092E-03 4.07916E-03 1.14641E-01-2.70428E-04 3.83929E+02-4.89819E-01
 -1      2164-6.47987E-05 1.01040E-03 5.36530E+01-7.92738E-05 3.14357E+02-1.00572E-01
 -1      2165 9.45853E-05 1.14271E-03 5.36498E+01-4.92190E-04 3.63019E+02-3.43371E+00
 -1      2166 2.90185E-03-8.12072E-04 1.15129E-01 5.01344E-03 3.41831E+02-6.59614E+00
 -1      2167 2.44921E-04 5.08931E-04 5.36492E+01-7.83961E-04 2.74994E+02-1.06224E+01
 -1      2168 4.60179E-03-1.23028E-03 1.60714E+02-3.85187E-04 3.86446E+02-4.88760E-01
 -1      2169-4.03942E-03 5.01640E-03 1.60700E+02-1.38518E-02 3.44349E+02-6.60079E+00
 -1      2170 1.25136E-03-7.79500E-04 1.07189E+02 7.81667E-05 3.83928E+02-4.89723E-01
 -1      2171 4.54112E-03-1.16054E-03 1.87501E+02-7.33742E-05 3.14354E+02-1.00912E-01
 -1      2172-2.13778E-03 5.57913E-04 1.60714E+02-6.94636E-03 3.63012E+02-3.43893E+00
 -1      2173-2.52758E-03 1.96675E-03 1.07180E+02-6.77526E-03 3.41831E+02-6.59592E+00
 -1      2174-5.15906E-03 4.00882E-03 1.87485E+02-9.77848E-03 2.74990E+02-1.06338E+01
 -1      2175 1.14719E-02-6.81637E-03 2.67754E+02-1.14712E-03 3.86424E+02-4.89674E-01
 -1      2176-1.02656E-02 1.09401E-02 2.67736E+02-3.78942E-02 3.44329E+02-6.63754E+00
 -1      2177 4.30617E-03-7.80503E-03 2.14249E+02 3.34065E-04 3.83916E+02-4.89901E-01
 -1      2178 1.11212E-02-5.81395E-03 3.21317E+02-4.03678E-04 3.14337E+02-1.02674E-01
 -1      2179-5.20801E-03-7.45132E-04 2.67750E+02-1.91739E-02 3.62988E+02-3.45829E+00
 -1      2180-9.42208E-03 4.63754E-03 2.14234E+02-2.39195E-02 3.41818E+02-6.61851E+00
 -1      2181-1.29696E-02 8.86326E-03 3.21297E+02-2.69409E-02 2.74976E+02-1.06750E+01
 -1      2182 2.32904E-02-1.95053E-02 3.74716E+02-3.14959E-03 3.86366E+02-4.92566E-01
 -1      2183-2.06532E-02 2.11280E-02 3.74720E+02-8.90793E-02 3.44280E+02-6.71953E+00
 -1      2184 9.12144E-03-2.16392E-02 3.21255E+02 2.65202E-04 3.83877E+02-4.90682E-01
 -1      2185 2.18195E-02-1.72534E-02 4.55044E+02-1.62973E-03 3.14292E+02-1.07536E-01
 -1      2186-9.92189E-03-3.46718E-03 3.74714E+02-4.56479E-02 3.62928E+02-3.50204E+00
 -1      2187-2.05687E-02 8.87366E-03 3.21251E+02-5.92544E-02 3.41784E+02-6.67566E+00
 -1      2188-2.58461E-02 1.70722E-02 4.55051E+02-6.41944E-02 2.74940E+02-1.07666E+01
 -1      2189 4.37027E-02-4.93091E-02 4.81507E+02-7.85209E-03 3.86222E+02-5.00073E-01
 -1      2190-3.80888E-02 3.81394E-02 4.81599E+02-1.95717E-01 3.44172E+02-6.88336E+00
 -1      2191 1.70994E-02-5.12496E-02 4.28133E+02-6.89365E-04 3.83778E+02-4.92933E-01
 -1      2192 3.92492E-02-4.49533E-02 5.88574E+02-4.93520E-03 3.14179E+02-1.19229E-01
 -1      2193-1.71426E-02-1.04185E-02 4.81527E+02-1.01399E-01 3.62789E+02-3.59063E+00
 -1      2194-3.96630E-02 1.61260E-02 4.28187E+02-1.34100E-01 3.41707E+02-6.79369E+00
 -1      2195-4.70921E-02 3.05582E-02 5.88686E+02-1.42674E-01 2.74862E+02-1.09491E+01
 -1      2196 7.70301E-02-1.19525E-01 5.87946E+02-1.80876E-02 3.85898E+02-5.17462E-01
 -1      2197-6.60595E-02 6.24152E-02 5.88275E+02-4.08634E-01 3.43949E+02-7.19269E+00
 -1      2198 2.97928E-02-1.15465E-01 5.34745E+02-3.82568E-03 3.83549E+02-4.98513E-01
 -1      2199 6.57572E-02-1.10339E-01 7.21696E+02-1.27756E-02 3.13921E+02-1.45159E-01
 -1      2200-2.75499E-02-3.02428E-02 5.88042E+02-2.13616E-01 3.62491E+02-3.76012E+00
 -1      2201-7.15406E-02 2.66831E-02 5.34966E+02-2.86693E-01 3.41544E+02-7.02035E+00
 -1      2202-8.01816E-02 4.95929E-02 7.22090E+02-3.00539E-01 2.74697E+02-1.12927E+01
 -1      2203 1.28014E-01-2.83202E-01 6.93700E+02-3.91980E-02 3.85202E+02-5.54918E-01
 -1      2204-1.07844E-01 8.52420E-02 6.94587E+02-8.16722E-01 3.43507E+02-7.75031E+00
 -1      2205 4.85740E-02-2.54613E-01 6.40832E+02-1.19393E-02 3.83050E+02-5.11044E-01
 -1      2206 1.02576E-01-2.60643E-01 8.54016E+02-3.00412E-02 3.13361E+02-1.99401E-01
 -1      2207-4.07916E-02-8.71141E-02 6.94004E+02-4.30224E-01 3.61881E+02-4.06984E+00
 -1      2208-1.21714E-01 3.57910E-02 6.41459E+02-5.84940E-01 3.41217E+02-7.43467E+00
 -1      2209-1.26765E-01 6.76426E-02 8.55079E+02-6.04713E-01 2.74365E+02-1.19091E+01
 -1      2210 1.93331E-01-6.61171E-01 7.98181E+02-8.07285E-02 3.83779E+02-6.30163E-01
 -1      2211-1.62904E-01 7.16240E-02 8.00281E+02-1.56919E+00 3.42661E+02-8.70996E+00
 -1      2212 7.15023E-02-5.55758E-01 7.45935E+02-3.06262E-02 3.82012E+02-5.37642E-01
 -1      2213 1.40500E-01-6.00688E-01 9.84837E+02-6.59218E-02 3.12197E+02-3.07113E-01
 -1      2214-5.39580E-02-2.42640E-01 7.98990E+02-8.32169E-01 3.60679E+02-4.61106E+00
 -1      2215-1.93688E-01 2.31393E-02 7.47458E+02-1.14529E+00 3.40583E+02-8.15820E+00
 -1      2216-1.80743E-01 5.79671E-02 9.87350E+02-1.16750E+00 2.73714E+02-1.29616E+01
 -1      2217 2.69037E-01-1.50478E+00 9.00430E+02-1.59763E-01 3.80982E+02-7.76861E-01
 -1      2218-2.22003E-01-7.73924E-02 9.04998E+02-2.90362E+00 3.41098E+02-1.02784E+01
 -1      2219 9.37092E-02-1.20045E+00 8.49285E+02-7.09734E-02 3.79944E+02-5.90157E-01
 -1      2220 1.67552E-01-1.34239E+00 1.11300E+03-1.37363E-01 3.09860E+02-5.13721E-01
 -1      2221-5.62263E-02-6.40533E-01 9.02345E+02-1.54995E+00 3.58395E+02-5.51157E+00
 -1      2222-2.82830E-01-7.08826E-02 8.52666E+02-2.15821E+00 3.39399E+02-9.36003E+00
 -1      2223-2.16062E-01-5.24777E-02 1.11847E+03-2.16650E+00 2.72478E+02-1.46615E+01
 -1      2224 2.54450E-01-3.34513E+00 9.98967E+02-3.02198E-01 3.75690E+02-1.04053E+00
 -1      2225-2.31557E-01-5.63921E-01 1.00834E+03-5.17547E+00 3.38324E+02-1.26858E+01
 -1      2226 7.33523E-02-2.56330E+00 9.49679E+02-1.52059E-01 3.75973E+02-6.94611E-01
 -1      2227 6.38688E-02-2.94285E+00 1.23664E+03-2.71327E-01 3.05323E+02-8.91274E-01
 -1      2228-1.98833E-02-1.56564E+00 1.00320E+03-2.77919E+00 3.54219E+02-6.93077E+00
 -1      2229-3.56533E-01-3.85006E-01 9.56709E+02-3.91826E+00 3.37265E+02-1.12462E+01
 -1      2230-1.50429E-01-4.30047E-01 1.24787E+03-3.86330E+00 2.70196E+02-1.72174E+01
 -1      2231 2.17457E-01-7.02085E+00 1.09173E+03-5.65459E-01 3.66068E+02-1.53980E+00
 -1      2232-1.21694E-01-1.76344E+00 1.11001E+03-8.86876E+00 3.33637E+02-1.60662E+01
 -1      2233 7.81147E-03-5.30813E+00 1.04538E+03-3.16185E-01 3.68656E+02-8.76657E-01
 -1      2234-8.96002E-02-6.09106E+00 1.35319E+03-5.20165E-01 2.96848E+02-1.58419E+00
 -1      2235 1.30141E-01-3.51861E+00 1.10045E+03-4.80156E+00 3.46895E+02-8.99635E+00
 -1      2236-3.30384E-01-1.17508E+00 1.05930E+03-6.84710E+00 3.33602E+02-1.39670E+01
 -1      2237 1.89033E-01-1.34166E+00 1.37513E+03-6.59764E+00 2.66180E+02-2.06789E+01
 -1      2238-9.63837E-01-1.40785E+01 1.17621E+03-9.79186E-01 3.49512E+02-2.31419E+00
 -1      2239 7.55886E-01-3.58417E+00 1.21082E+03-1.45758E+01 3.26338E+02-2.01384E+01
 -1      2240-5.58440E-01-1.06369E+01 1.13410E+03-6.05581E-01 3.55736E+02-1.27455E+00
 -1      2241-1.71192E+00-1.25198E+01 1.45886E+03-9.23246E-01 2.81747E+02-2.75261E+00
 -1      2242 6.63390E-01-6.74951E+00 1.19391E+03-7.93682E+00 3.34840E+02-1.17444E+01
 -1      2243 7.11877E-02-2.71321E+00 1.16049E+03-1.14948E+01 3.27667E+02-1.74787E+01
 -1      2244 1.38669E+00-3.07058E+00 1.50036E+03-1.07603E+01 2.59540E+02-2.45187E+01
 -1      2245-5.50494E-01-2.44467E+01 1.24900E+03-1.97460E+00 3.22621E+02-3.98458E+00
 -1      2246 2.12110E+00-5.49857E+00 1.31176E+03-2.28498E+01 3.16491E+02-2.32295E+01
 -1      2247-7.06485E-01-1.93119E+01 1.21340E+03-1.28300E+00 3.34369E+02-1.77180E+00
 -1      2248-8.70373E-01-2.15470E+01 1.55201E+03-1.73642E+00 2.56811E+02-5.05597E+00
 -1      2249 1.90797E+00-1.09134E+01 1.28257E+03-1.27419E+01 3.16482E+02-1.42641E+01
 -1      2250 1.31980E+00-4.53368E+00 1.26214E+03-1.84688E+01 3.19201E+02-2.05392E+01
 -1      2251 4.34568E+00-4.40799E+00 1.62727E+03-1.65566E+01 2.50361E+02-2.65250E+01
 -1      2252-1.46442E+01-3.60393E+01 1.31071E+03-2.94398E+00 2.86014E+02-5.73968E+00
 -1      2253 1.59903E+01 9.43714E+00 1.42800E+03-3.40198E+01 3.08834E+02-1.95515E+01
 -1      2254-7.10790E+00-3.17832E+01 1.27933E+03-2.21865E+00 3.01894E+02-3.90144E+00
 -1      2255-2.26331E+01-4.25230E+01 1.62151E+03-2.64065E+00 2.20728E+02-7.59260E+00
 -1      2256 8.54692E+00-2.28760E+00 1.38113E+03-1.89409E+01 2.95162E+02-1.52714E+01
 -1      2257 5.98573E+00-2.08262E+00 1.36495E+03-2.83285E+01 3.09688E+02-2.04296E+01
 -1      2258 1.59059E+01 1.20374E-01 1.76071E+03-2.44045E+01 2.41480E+02-1.99676E+01
 -1      2259 6.53452E+00-2.23144E+01 1.31675E+03-9.57325E+00 2.31179E+02-2.11580E+01
 -1      2260 2.69619E+01 5.82628E+01 1.54566E+03-4.55062E+01 3.07672E+02 2.07804E+01
 -1      2261 3.37729E+00-2.87834E+01 1.33165E+03-5.86899E+00 2.57377E+02-3.21266E+00
 -1      2262 1.09275E+01-3.10084E+01 1.66465E+03-8.66377E+00 1.85306E+02-2.62220E+01
 -1      2263 2.95847E+01 4.86788E+01 1.49051E+03-2.96837E+01 2.68272E+02 1.61508E+00
 -1      2264 1.51166E+01 2.33083E+01 1.48524E+03-4.03604E+01 3.04932E+02 1.30763E+00
 -1      2265 3.81549E+01 4.80383E+01 1.93496E+03-3.16554E+01 2.57998E+02 2.87419E+01
 -1      2266-9.38845E+01 1.46608E+02 1.46348E+03-7.41735E+00 1.73249E+02-5.65880E+01
 -1      2267 2.83511E+02 3.50167E+02 1.70600E+03-5.19834E+01 3.12292E+02 1.98347E+02
 -1      2268-1.11947E+02-6.33196E-01 1.31245E+03-1.25116E+01 1.95406E+02-3.56262E+01
 -1      2269-1.43114E+02 6.58608E+01 1.87771E+03-1.00628E+01 1.67258E+02-6.86872E+01
 -1      2270 1.36294E+02 2.72982E+02 1.60471E+03-2.80946E+01 2.64988E+02 8.94815E+01
 -1      2271 9.96558E+01 1.48222E+02 1.56445E+03-5.09700E+01 3.10678E+02 8.50662E+01
 -1      2272 3.42038E+02 3.11678E+02 2.19796E+03-4.21408E+01 3.04037E+02 2.41761E+02
 -1      2273 1.11943E+03 1.11942E+03 2.44332E+03 5.95884E-04-7.97346E+01 7.44449E+02
 -1      2274 6.54499E+02 6.54497E+02 1.42853E+03 7.97158E-04 1.25057E+02 2.91436E+02
 -1      2275 2.66006E+02 5.24752E+02 1.86283E+03-2.11149E+01 5.00229E+01 2.88487E+02
 -1      2276 1.37396E+03 1.37396E+03 2.99897E+03-7.14366E-04-4.58852E+00 9.13110E+02
 -1      2277 8.33834E+02 8.33840E+02 1.82004E+03-6.84296E-04 4.04171E+01 5.04067E+02
 -1      2278 3.57166E+02 4.59574E+02 1.54361E+03-2.08084E+01 2.36909E+02 2.50100E+02
 -1      2279 7.90046E+02 7.90048E+02 1.72447E+03-6.68705E-04 1.96994E+02 3.62443E+02
 -1      2280-6.31667E+02-6.31668E+02-1.37871E+03-6.78927E-04 1.74032E+02 1.58097E+02
 -1      2281-3.41975E+02-3.07144E+02-1.49683E+03 3.04157E+01 3.81584E+02 1.22534E+02
 -1      2282-6.09226E+02-6.09226E+02-1.32977E+03 8.50414E-04 1.50031E+02 2.06953E+02
 -1      2283-2.65697E+02-2.96785E+02-1.52241E+03 3.23930E+01 3.50209E+02 1.38471E+02
 -1      2284-7.70839E+02-7.70837E+02-1.68253E+03 6.56478E-04 2.38218E+02 1.98247E+02
 -1      2285-4.76749E+02-4.64880E+02-1.41695E+03 1.79825E+01 2.94447E+02 1.45213E+02
 -1      2286-4.18294E+02-2.58951E+02-1.96417E+03 2.64103E+01 3.72154E+02 1.53599E+02
 -1      2287-1.38119E+02-8.18989E+01-1.49315E+03 3.97258E+01 3.57120E+02 3.83563E+01
 -1      2288-1.03458E+02-7.86800E+01-1.48301E+03 4.19210E+01 3.33719E+02 3.62272E+01
 -1      2289-2.19933E+02-1.69573E+02-1.50047E+03 3.76964E+01 3.67880E+02 7.84107E+01
 -1      2290-1.75561E+02-7.43215E+01-1.89840E+03 3.10950E+01 3.01348E+02 5.02685E+01
 -1      2291-5.81245E+01-1.95915E+01-1.38563E+03 3.46725E+01 3.37504E+02-1.25410E+00
 -1      2292-3.77063E+01-1.55370E+01-1.35850E+03 3.40765E+01 3.24126E+02-7.73909E+00
 -1      2293-8.33957E+01-3.48235E+01-1.43087E+03 3.80340E+01 3.45152E+02 1.76285E+01
 -1      2294-6.74850E+01-9.60244E+00-1.72902E+03 2.66194E+01 2.64830E+02 1.36058E+00
 -1      2295-1.88750E+01 1.13530E+00-1.24920E+03 2.53863E+01 3.25363E+02-1.64403E+01
 -1      2296-1.28989E+01 6.88027E-01-1.23264E+03 2.44316E+01 3.20726E+02-1.84350E+01
 -1      2297-3.11372E+01-2.75406E+00-1.30839E+03 3.01186E+01 3.28193E+02-9.19273E+00
 -1      2298-2.61434E+01 2.54170E-01-1.57351E+03 1.94915E+01 2.56906E+02-1.87701E+01
 -1      2299-6.54540E+00 1.46831E+00-1.13270E+03 1.71141E+01 3.21747E+02-1.85342E+01
 -1      2300-4.40175E+00 1.25481E+00-1.12058E+03 1.60852E+01 3.23311E+02-1.86900E+01
 -1      2301-1.16551E+01 1.42540E+00-1.19120E+03 2.10703E+01 3.21201E+02-1.70731E+01
 -1      2302-9.36985E+00 1.23194E+00-1.42784E+03 1.32473E+01 2.55056E+02-2.27983E+01
 -1      2303-1.45065E+00 6.18375E-01-1.02028E+03 1.07887E+01 3.20256E+02-1.67803E+01
 -1      2304-1.10311E+00 3.61310E-01-1.01285E+03 1.00139E+01 3.25806E+02-1.61272E+01
 -1      2305-3.49055E+00 9.42635E-01-1.07640E+03 1.37170E+01 3.18516E+02-1.72969E+01
 -1      2306-2.72853E+00 4.46122E-01-1.28890E+03 8.38487E+00 2.54534E+02-2.16354E+01
 -1      2307 2.00828E-01-8.70510E-02-9.11234E+02 6.46653E+00 3.19544E+02-1.43231E+01
 -1      2308 1.79220E-02-2.37181E-01-9.06805E+02 5.93620E+00 3.27550E+02-1.34207E+01
 -1      2309-5.23119E-01 4.88197E-02-9.65991E+02 8.42528E+00 3.17405E+02-1.52679E+01
 -1      2310-2.42255E-01-2.45796E-02-1.15277E+03 5.03615E+00 2.54158E+02-1.92352E+01
 -1      2311 6.23915E-01-2.94295E-01-8.03351E+02 3.70884E+00 3.19132E+02-1.22609E+01
 -1      2312 3.29650E-01-3.80980E-01-8.00866E+02 3.37370E+00 3.28579E+02-1.13047E+01
 -1      2313 4.50458E-01-2.93871E-01-8.57427E+02 4.93939E+00 3.16814E+02-1.31084E+01
 -1      2314 5.08126E-01-1.80748E-01-1.01793E+03 2.88660E+00 2.53850E+02-1.70623E+01
 -1      2315 5.91108E-01-2.79335E-01-6.95999E+02 2.04392E+00 3.18891E+02-1.07934E+01
 -1      2316 3.37629E-01-3.23806E-01-6.94664E+02 1.84293E+00 3.29152E+02-9.85288E+00
 -1      2317 6.11237E-01-3.33496E-01-7.49779E+02 2.77753E+00 3.16482E+02-1.14135E+01
 -1      2318 5.97171E-01-1.76573E-01-8.83645E+02 1.58691E+00 2.53622E+02-1.54655E+01
 -1      2319 4.40831E-01-1.97130E-01-5.88834E+02 1.08372E+00 3.18755E+02-9.84232E+00
 -1      2320 2.59860E-01-2.18167E-01-5.88154E+02 9.68560E-01 3.29459E+02-8.93173E+00
 -1      2321 5.11358E-01-2.53637E-01-6.42489E+02 1.50216E+00 3.16294E+02-1.02520E+01
 -1      2322 4.77346E-01-1.26012E-01-7.49607E+02 8.37906E-01 2.53477E+02-1.44126E+01
 -1      2323 2.92201E-01-1.19605E-01-4.81736E+02 5.52404E-01 3.18684E+02-9.26369E+00
 -1      2324 1.75540E-01-1.28375E-01-4.81410E+02 4.89021E-01 3.29620E+02-8.37996E+00
 -1      2325 3.59562E-01-1.61981E-01-5.35340E+02 7.81550E-01 3.16192E+02-9.51651E+00
 -1      2326 3.27263E-01-7.67819E-02-6.15677E+02 4.24630E-01 2.53395E+02-1.37656E+01
 -1      2327 1.79397E-01-6.52216E-02-3.74657E+02 2.69824E-01 3.18650E+02-8.92907E+00
 -1      2328 1.09279E-01-6.81704E-02-3.74514E+02 2.36295E-01 3.29703E+02-8.06476E+00
 -1      2329 2.29592E-01-9.21594E-02-4.28238E+02 3.90438E-01 3.16141E+02-9.07721E+00
 -1      2330 2.04699E-01-4.19709E-02-4.81792E+02 2.05816E-01 2.53353E+02-1.33893E+01
 -1      2331 1.03338E-01-3.23606E-02-2.67583E+02 1.25384E-01 3.18636E+02-8.74424E+00
 -1      2332 6.36499E-02-3.28771E-02-2.67526E+02 1.08404E-01 3.29745E+02-7.89249E+00
 -1      2333 1.36706E-01-4.78163E-02-3.21151E+02 1.86391E-01 3.16118E+02-8.82720E+00
 -1      2334 1.19189E-01-2.08568E-02-3.47926E+02 9.46767E-02 2.53333E+02-1.31808E+01
 -1      2335 5.49458E-02-1.43172E-02-1.60510E+02 5.42264E-02 3.18631E+02-8.64745E+00
 -1      2336 3.41514E-02-1.40488E-02-1.60489E+02 4.61772E-02 3.29765E+02-7.80310E+00
 -1      2337 7.60842E-02-2.25414E-02-2.14067E+02 8.40356E-02 3.16109E+02-8.69159E+00
 -1      2338 6.37519E-02-9.23440E-03-2.14067E+02 4.04125E-02 2.53326E+02-1.30715E+01
 -1      2339 2.37296E-02-4.94668E-03-5.34352E+01 1.93337E-02 3.18629E+02-8.60183E+00
 -1      2340 1.48544E-02-4.60807E-03-5.34269E+01 1.61857E-02 3.29775E+02-7.76125E+00
 -1      2341 3.76781E-02-9.14934E-03-1.06983E+02 3.41148E-02 3.16106E+02-8.62298E+00
 -1      2342 2.76343E-02-3.18248E-03-8.02102E+01 1.41486E-02 2.53323E+02-1.30201E+01
 -1      2343 1.40192E-04 1.40193E-04 5.36394E+01-9.10031E-04 3.18629E+02-8.58852E+00
 -1      2344 1.14999E-04 3.15389E-04 5.36458E+01-8.75921E-04 3.29777E+02-7.74899E+00
 -1      2345 1.15034E-02-2.15695E-03 1.02005E-01 8.45881E-03 3.16106E+02-8.59457E+00
 -1      2346 3.15389E-04 1.14999E-04 5.36458E+01-8.75921E-04 2.53323E+02-1.30052E+01
 -1      2347-2.47298E-02 3.94642E-03 1.60713E+02-2.13460E-02 3.18629E+02-8.60233E+00
 -1      2348-1.54516E-02 4.00891E-03 1.60718E+02-1.81398E-02 3.29774E+02-7.76137E+00
 -1      2349-1.14995E-02 2.16086E-03 1.07186E+02-1.03337E-02 3.16106E+02-8.59480E+00
 -1      2350-2.82334E-02 2.58523E-03 1.87501E+02-1.61026E-02 2.53323E+02-1.30208E+01
 -1      2351-6.04360E-02 8.82714E-03 2.67786E+02-5.67575E-02 3.18627E+02-8.65052E+00
 -1      2352-3.76530E-02 9.10784E-03 2.67778E+02-4.86906E-02 3.29762E+02-7.80517E+00
 -1      2353-4.03379E-02 6.48952E-03 2.14270E+02-3.63570E-02 3.16105E+02-8.62466E+00
 -1      2354-6.86928E-02 5.73283E-03 3.21355E+02-4.29259E-02 2.53324E+02-1.30750E+01
 -1      2355-1.18575E-01 1.71231E-02 3.74856E+02-1.28527E-01 3.18625E+02-8.75499E+00
 -1      2356-7.34701E-02 1.84115E-02 3.74809E+02-1.11636E-01 3.29733E+02-7.90102E+00
 -1      2357-8.53717E-02 1.32540E-02 3.21351E+02-8.68795E-02 3.16102E+02-8.69819E+00
 -1      2358-1.33654E-01 1.10366E-02 4.55209E+02-9.79087E-02 2.53325E+02-1.31921E+01
 -1      2359-2.13346E-01 3.12720E-02 4.81925E+02-2.73066E-01 3.18622E+02-8.95758E+00
 -1      2360-1.31257E-01 3.52136E-02 4.81786E+02-2.39867E-01 3.29674E+02-8.08880E+00
 -1      2361-1.59379E-01 2.51429E-02 4.28432E+02-1.89679E-01 3.16099E+02-8.84608E+00
 -1      2362-2.37656E-01 1.99927E-02 5.89065E+02-2.09388E-01 2.53328E+02-1.34185E+01
 -1      2363-3.59394E-01 5.24121E-02 5.88998E+02-5.53853E-01 3.18620E+02-9.32821E+00
 -1      2364-2.19169E-01 6.21879E-02 5.88665E+02-4.91296E-01 3.29555E+02-8.43615E+00
 -1      2365-2.76969E-01 4.47825E-02 5.35515E+02-3.93076E-01 3.16096E+02-9.12211E+00
 -1      2366-3.93450E-01 3.31522E-02 7.22931E+02-4.26905E-01 2.53339E+02-1.38307E+01
 -1      2367-5.62867E-01 7.50948E-02 6.96095E+02-1.07868E+00 3.18624E+02-9.97343E+00
 -1      2368-3.39305E-01 9.64735E-02 6.95380E+02-9.65271E-01 3.29328E+02-9.04842E+00
 -1      2369-4.49297E-01 7.22457E-02 6.42615E+02-7.80434E-01 3.16097E+02-9.61111E+00
 -1      2370-5.99040E-01 4.65682E-02 8.56833E+02-8.34617E-01 2.53361E+02-1.45435E+01
 -1      2371-7.96132E-01 7.43117E-02 8.03271E+02-2.02242E+00 3.18646E+02-1.10383E+01
 -1      2372-4.71464E-01 1.16792E-01 8.01848E+02-1.82480E+00 3.28910E+02-1.00747E+01
 -1      2373-6.68267E-01 9.67270E-02 7.49771E+02-1.49028E+00 3.16111E+02-1.04341E+01
 -1      2374-8.04185E-01 4.27380E-02 9.90828E+02-1.56878E+00 2.53401E+02-1.57080E+01
 -1      2375-9.40461E-01-2.22505E-02 9.10665E+02-3.65199E+00 3.18708E+02-1.26847E+01
 -1      2376-5.36975E-01 5.66524E-02 9.07997E+02-3.32270E+00 3.28162E+02-1.16952E+01
 -1      2377-8.64592E-01 8.01408E-02 8.57088E+02-2.74091E+00 3.16158E+02-1.17379E+01
 -1      2378-8.32453E-01-2.65771E-02 1.12506E+03-2.83560E+00 2.53459E+02-1.74787E+01
 -1      2379-6.37768E-01-3.49889E-01 1.01866E+03-6.34175E+00 3.18867E+02-1.50001E+01
 -1      2380-3.05845E-01-2.20476E-01 1.01389E+03-5.82056E+00 3.26890E+02-1.40569E+01
 -1      2381-8.22849E-01-7.85192E-02 9.64810E+02-4.85282E+00 3.16279E+02-1.36434E+01
 -1      2382-2.15402E-01-2.63343E-01 1.25986E+03-4.92051E+00 2.53521E+02-1.98949E+01
 -1      2383 9.49495E-01-1.11953E+00 1.12794E+03-1.05460E+01 3.19276E+02-1.77598E+01
 -1      2384 7.69973E-01-9.06820E-01 1.11994E+03-9.78330E+00 3.24861E+02-1.70726E+01
 -1      2385 4.75324E-02-5.24406E-01 1.07354E+03-8.24773E+00 3.16599E+02-1.60742E+01
 -1      2386 2.18302E+00-7.79256E-01 1.39599E+03-8.15430E+00 2.53589E+02-2.25809E+01
 -1      2387 6.22197E+00-1.79174E+00 1.24086E+03-1.66887E+01 3.20534E+02-1.97472E+01
 -1      2388 4.17110E+00-1.67680E+00 1.22785E+03-1.56713E+01 3.22156E+02-1.99207E+01
 -1      2389 3.03131E+00-1.40188E+00 1.18429E+03-1.33902E+01 3.17443E+02-1.83693E+01
 -1      2390 8.94785E+00-1.46259E+00 1.53511E+03-1.28334E+01 2.53825E+02-2.39539E+01
 -1      2391 1.93266E+01-6.83665E-01 1.35821E+03-2.47223E+01 3.24295E+02-1.75077E+01
 -1      2392 1.31981E+01-3.82124E-01 1.34052E+03-2.37672E+01 3.19738E+02-1.96560E+01
 -1      2393 1.16037E+01-1.47683E+00 1.29976E+03-2.05299E+01 3.20080E+02-1.81945E+01
 -1      2394 2.64493E+01 4.49592E-02 1.68140E+03-1.88271E+01 2.55685E+02-1.97581E+01
 -1      2395 6.12942E+01 2.27612E+01 1.49668E+03-3.37870E+01 3.37740E+02-1.01770E+00
 -1      2396 3.96602E+01 1.81914E+01 1.46789E+03-3.31587E+01 3.24429E+02-7.99201E+00
 -1      2397 3.24399E+01 4.05682E+00 1.41786E+03-2.93360E+01 3.27725E+02-9.66096E+00
 -1      2398 7.01394E+01 1.15563E+01 1.83841E+03-2.57016E+01 2.64578E+02 1.66378E+00
 -1      2399 1.47298E+02 9.10779E+01 1.60491E+03-3.88249E+01 3.60618E+02 4.18541E+01
 -1      2400 1.10349E+02 8.75579E+01 1.59475E+03-4.09544E+01 3.37193E+02 3.96012E+01
 -1      2401 8.85615E+01 3.99892E+01 1.54169E+03-3.71074E+01 3.46923E+02 1.93996E+01
 -1      2402 1.84439E+02 8.12131E+01 2.01014E+03-3.01283E+01 3.04722E+02 5.37424E+01
 -1      2403 3.65817E+02 3.30986E+02 1.60408E+03-2.98383E+01 3.91357E+02 1.32307E+02
 -1      2404 2.84178E+02 3.20124E+02 1.63249E+03-3.17853E+01 3.59844E+02 1.49504E+02
 -1      2405 2.35118E+02 1.84758E+02 1.61017E+03-3.69133E+01 3.74367E+02 8.48967E+01
 -1      2406 4.41633E+02 2.77432E+02 2.07425E+03-2.58025E+01 3.83186E+02 1.63234E+02
 -1      2407 6.76338E+02 6.76339E+02 1.47621E+03 6.68221E-04 1.85685E+02 1.69750E+02
 -1      2408 6.52675E+02 6.52675E+02 1.42461E+03-8.37292E-04 1.61512E+02 2.22217E+02
 -1      2409 5.10547E+02 4.98678E+02 1.51819E+03-1.76657E+01 3.05520E+02 1.56286E+02
 -1      2410 8.14288E+02 8.14285E+02 1.77736E+03-6.43356E-04 2.53482E+02 2.09729E+02
 -1      2411-6.25050E+02-6.25052E+02-1.36427E+03-3.58512E-04 2.04246E+02 7.24293E+01
 -1      2412-3.90314E+02-3.14290E+02-1.49359E+03 1.61616E+01 4.13335E+02 5.72794E+01
 -1      2413-6.26870E+02-6.26868E+02-1.36828E+03 5.44742E-04 1.92386E+02 1.12842E+02
 -1      2414-3.65555E+02-3.08812E+02-1.49227E+03 2.19791E+01 4.00769E+02 8.75661E+01
 -1      2415-7.61748E+02-7.61744E+02-1.66268E+03 3.49154E-04 2.68331E+02 9.15247E+01
 -1      2416-4.97761E+02-4.69031E+02-1.41460E+03 9.14960E+00 3.25368E+02 6.58607E+01
 -1      2417-4.78082E+02-2.66527E+02-1.96451E+03 1.45746E+01 4.03511E+02 7.17183E+01
 -1      2418-2.01383E+02-8.95124E+01-1.50504E+03 2.16268E+01 3.84585E+02 2.71712E+01
 -1      2419-1.72848E+02-8.51759E+01-1.49943E+03 2.92625E+01 3.73520E+02 3.47189E+01
 -1      2420-2.75279E+02-1.73970E+02-1.49870E+03 1.97974E+01 3.98302E+02 4.17085E+01
 -1      2421-2.52583E+02-8.20365E+01-1.91279E+03 1.76927E+01 3.25805E+02 3.49600E+01
 -1      2422-9.34314E+01-2.10331E+01-1.40629E+03 1.98386E+01 3.56246E+02 4.04418E+00
 -1      2423-7.63115E+01-1.97665E+01-1.39788E+03 2.65088E+01 3.48464E+02 2.39423E+00
 -1      2424-1.31309E+02-3.74738E+01-1.44544E+03 2.12480E+01 3.68517E+02 1.45087E+01
 -1      2425-1.10255E+02-1.07543E+01-1.75198E+03 1.57410E+01 2.79863E+02 6.45648E+00
 -1      2426-3.61806E+01 5.24233E-01-1.27216E+03 1.54379E+01 3.33880E+02-7.35407E+00
 -1      2427-2.90205E+01 2.92678E-01-1.26357E+03 2.02281E+01 3.30103E+02-1.10374E+01
 -1      2428-5.59657E+01-3.26805E+00-1.33063E+03 1.77956E+01 3.41814E+02-2.02299E+00
 -1      2429-4.78086E+01-8.64032E-01-1.59977E+03 1.21636E+01 2.63386E+02-8.23765E+00
 -1      2430-1.33889E+01 1.76985E+00-1.14950E+03 1.07459E+01 3.22377E+02-1.03253E+01
 -1      2431-1.06275E+01 1.35505E+00-1.14289E+03 1.38897E+01 3.21849E+02-1.41599E+01
 -1      2432-2.23387E+01 1.95179E+00-1.20999E+03 1.30298E+01 3.25782E+02-8.78443E+00
 -1      2433-1.82604E+01 1.21115E+00-1.44721E+03 8.49022E+00 2.55262E+02-1.26203E+01
 -1      2434-3.61726E+00 1.03079E+00-1.03146E+03 6.93910E+00 3.15341E+02-1.01447E+01
 -1      2435-2.99042E+00 5.88394E-01-1.02709E+03 8.89807E+00 3.17140E+02-1.33965E+01
 -1      2436-7.51341E+00 1.39354E+00-1.09011E+03 8.71844E+00 3.16330E+02-1.01091E+01
 -1      2437-5.81013E+00 6.46813E-01-1.30187E+03 5.49513E+00 2.50381E+02-1.29483E+01
 -1      2438-1.48228E-01 2.46027E-01-9.18102E+02 4.23617E+00 3.11028E+02-9.01168E+00
 -1      2439-2.20436E-01-6.11597E-02-9.15396E+02 5.39265E+00 3.14372E+02-1.16994E+01
 -1      2440-1.64099E+00 3.75303E-01-9.74932E+02 5.46850E+00 3.10648E+02-9.44725E+00
 -1      2441-9.53702E-01 1.96235E-01-1.16078E+03 3.35930E+00 2.47174E+02-1.19138E+01
 -1      2442 8.69785E-01-6.81534E-02-8.07363E+02 2.46705E+00 3.08405E+02-7.88394E+00
 -1      2443 6.07106E-01-2.69248E-01-8.05797E+02 3.12286E+00 3.12708E+02-1.01311E+01
 -1      2444 3.95373E-01-9.92881E-02-8.62885E+02 3.25979E+00 3.07157E+02-8.35320E+00
 -1      2445 6.33779E-01-1.24780E-02-1.02261E+03 1.95573E+00 2.45125E+02-1.07440E+01
 -1      2446 9.40608E-01-1.39708E-01-6.98241E+02 1.37876E+00 3.06869E+02-7.02301E+00
 -1      2447 6.91874E-01-2.60379E-01-6.97381E+02 1.73577E+00 3.11740E+02-8.97140E+00
 -1      2448 8.68714E-01-2.23018E-01-7.52943E+02 1.85986E+00 3.05084E+02-7.39087E+00
 -1      2449 9.23848E-01-6.46304E-02-8.86264E+02 1.09106E+00 2.43877E+02-9.81208E+00
 -1      2450 7.34791E-01-1.15681E-01-5.90037E+02 7.41092E-01 3.06006E+02-6.44263E+00
 -1      2451 5.49482E-01-1.85173E-01-5.89592E+02 9.28043E-01 3.11199E+02-8.20197E+00
 -1      2452 7.92039E-01-1.94713E-01-6.44246E+02 1.01978E+00 3.03892E+02-6.69480E+00
 -1      2453 7.80844E-01-5.72528E-02-7.51013E+02 5.84625E-01 2.43157E+02-9.17071E+00
 -1      2454 4.98796E-01-7.44334E-02-4.82356E+02 3.83165E-01 3.05541E+02-6.08009E+00
 -1      2455 3.76539E-01-1.12629E-01-4.82141E+02 4.77125E-01 3.10910E+02-7.72654E+00
 -1      2456 5.78496E-01-1.31977E-01-5.36277E+02 5.37968E-01 3.03236E+02-6.23946E+00
 -1      2457 5.49811E-01-3.69775E-02-6.16401E+02 3.00925E-01 2.42764E+02-8.76537E+00
 -1      2458 3.10882E-01-4.12696E-02-3.74964E+02 1.90107E-01 3.05303E+02-5.86614E+00
 -1      2459 2.36145E-01-6.14437E-02-3.74869E+02 2.35249E-01 3.10763E+02-7.44821E+00
 -1      2460 3.77560E-01-7.77540E-02-4.28719E+02 2.72764E-01 3.02890E+02-5.96118E+00
 -1      2461 3.49716E-01-2.00563E-02-4.82149E+02 1.48420E-01 2.42561E+02-8.52451E+00
 -1      2462 1.80931E-01-2.02833E-02-2.67728E+02 8.99355E-02 3.05186E+02-5.74595E+00
 -1      2463 1.38091E-01-3.04597E-02-2.67691E+02 1.10492E-01 3.10693E+02-7.29289E+00
 -1      2464 2.28208E-01-4.13652E-02-3.21387E+02 1.32402E-01 3.02716E+02-5.79992E+00
 -1      2465 2.06045E-01-9.39898E-03-3.48094E+02 6.96751E-02 2.42461E+02-8.38869E+00
 -1      2466 9.68159E-02-8.67280E-03-1.60574E+02 3.96970E-02 3.05132E+02-5.68210E+00
 -1      2467 7.41725E-02-1.34756E-02-1.60561E+02 4.83719E-02 3.10662E+02-7.21084E+00
 -1      2468 1.28360E-01-1.99291E-02-2.14177E+02 6.08498E-02 3.02633E+02-5.71112E+00
 -1      2469 1.11077E-01-3.68289E-03-2.14141E+02 3.04541E-02 2.42416E+02-8.31641E+00
 -1      2470 4.17538E-02-2.86094E-03-5.34602E+01 1.44676E-02 3.05111E+02-5.65171E+00
 -1      2471 3.20957E-02-4.72394E-03-5.34543E+01 1.74762E-02 3.10650E+02-7.17193E+00
 -1      2472 6.39112E-02-8.28338E-03-1.07030E+02 2.52310E-02 3.02596E+02-5.66565E+00
 -1      2473 4.81744E-02-1.04242E-03-8.02384E+01 1.09524E-02 2.42397E+02-8.28201E+00
 -1      2474-3.26074E-04-1.56733E-04 5.36372E+01-5.55018E-04 3.05105E+02-5.64290E+00
 -1      2475-1.93770E-04-9.14988E-05 5.36429E+01-7.28655E-04 3.10647E+02-7.16063E+00
 -1      2476 1.92593E-02-2.10497E-03 8.76429E-02 6.42800E-03 3.02583E+02-5.64673E+00
 -1      2477-1.80673E-05-1.11239E-04 5.36437E+01-5.38221E-04 2.42392E+02-8.27206E+00
 -1      2478-4.47130E-02 1.14799E-03 1.60734E+02-1.56778E-02 3.05110E+02-5.65243E+00
 -1      2479-3.42837E-02 3.20791E-03 1.60740E+02-1.90773E-02 3.10649E+02-7.17267E+00
 -1      2480-2.03352E-02 1.62189E-03 1.07197E+02-7.56607E-03 3.02583E+02-5.64706E+00
 -1      2481-5.04366E-02-1.15353E-04 1.87525E+02-1.21320E-02 2.42397E+02-8.28282E+00
 -1      2482-1.07768E-01 2.10433E-03 2.67847E+02-4.11642E-02 3.05130E+02-5.68501E+00
 -1      2483-8.26082E-02 7.32523E-03 2.67845E+02-5.03535E-02 3.10659E+02-7.21415E+00
 -1      2484-6.97063E-02 5.01353E-03 2.14314E+02-2.65568E-02 3.02595E+02-5.66735E+00
 -1      2485-1.21100E-01-7.18788E-04 3.21427E+02-3.19039E-02 2.42414E+02-8.31951E+00
 -1      2486-2.08918E-01 3.34285E-03 3.75003E+02-9.16481E-02 3.05176E+02-5.75461E+00
 -1      2487-1.59877E-01 1.43778E-02 3.74974E+02-1.12888E-01 3.10683E+02-7.30326E+00
 -1      2488-1.45717E-01 9.80564E-03 3.21462E+02-6.24532E-02 3.02627E+02-5.71664E+00
 -1      2489-2.32772E-01-1.92837E-03 4.55379E+02-7.14081E-02 2.42453E+02-8.39763E+00
 -1      2490-3.70905E-01 4.77284E-03 4.82245E+02-1.91636E-01 3.05275E+02-5.88745E+00
 -1      2491-2.83107E-01 2.65688E-02 4.82153E+02-2.37581E-01 3.10735E+02-7.47437E+00
 -1      2492-2.68478E-01 1.75969E-02 4.28676E+02-1.34099E-01 3.02698E+02-5.81433E+00
 -1      2493-4.08207E-01-4.32125E-03 5.89435E+02-1.50061E-01 2.42537E+02-8.54618E+00
 -1      2494-6.14507E-01 3.84732E-03 5.89656E+02-3.83177E-01 3.05476E+02-6.12623E+00
 -1      2495-4.67405E-01 4.48663E-02 5.89434E+02-4.77771E-01 3.10845E+02-7.78404E+00
 -1      2496-4.59264E-01 2.91838E-02 5.36022E+02-2.73741E-01 3.02845E+02-5.99375E+00
 -1      2497-6.64171E-01-1.01344E-02 7.23693E+02-3.01243E-01 2.42708E+02-8.81181E+00
 -1      2498-9.40135E-01-9.94978E-03 6.97384E+02-7.36461E-01 3.05872E+02-6.53345E+00
 -1      2499-7.11264E-01 6.40718E-02 6.96912E+02-9.23086E-01 3.11066E+02-8.31643E+00
 -1      2500-7.29717E-01 4.15667E-02 6.43616E+02-5.36117E-01 3.03140E+02-6.30578E+00
 -1      2501-9.86341E-01-2.65423E-02 8.58324E+02-5.80676E-01 2.43038E+02-9.26146E+00
 -1      2502-1.27720E+00-6.68892E-02 8.05687E+02-1.36312E+00 3.06615E+02-7.18809E+00
 -1      2503-9.58064E-01 6.03128E-02 8.04764E+02-1.71707E+00 3.11491E+02-9.18148E+00
 -1      2504-1.05062E+00 3.92384E-02 7.51661E+02-1.01055E+00 3.03704E+02-6.81902E+00
 -1      2505-1.26521E+00-7.30904E-02 9.93621E+02-1.07677E+00 2.43646E+02-9.97599E+00
 -1      2506-1.37352E+00-2.42386E-01 9.15002E+02-2.42873E+00 3.07960E+02-8.16190E+00
 -1      2507-1.00735E+00-3.31733E-02 9.13311E+02-3.07520E+00 3.12273E+02-1.04884E+01
 -1      2508-1.27571E+00-2.33102E-02 8.60505E+02-1.83449E+00 3.04744E+02-7.60642E+00
 -1      2509-1.15323E+00-1.94376E-01 1.13006E+03-1.91978E+00 2.44713E+02-1.10182E+01
 -1      2510-5.13432E-01-6.57057E-01 1.02609E+03-4.15579E+00 3.10308E+02-9.44114E+00
 -1      2511-3.10140E-01-3.43283E-01 1.02316E+03-5.29029E+00 3.13672E+02-1.22586E+01
 -1      2512-9.72246E-01-2.53377E-01 9.70712E+02-3.20300E+00 3.06590E+02-8.69840E+00
 -1      2513 2.52728E-01-4.70106E-01 1.26841E+03-3.28268E+00 2.46494E+02-1.23348E+01
 -1      2514 2.93632E+00-1.46151E+00 1.14002E+03-6.78843E+00 3.14285E+02-1.07365E+01
 -1      2515 2.43494E+00-1.02068E+00 1.13530E+03-8.70241E+00 3.16120E+02-1.41814E+01
 -1      2516 9.49536E-01-8.05670E-01 1.08320E+03-5.35648E+00 3.09782E+02-9.94742E+00
 -1      2517 5.04613E+00-9.32763E-01 1.40983E+03-5.34951E+00 2.49356E+02-1.35238E+01
 -1      2518 1.31571E+01-1.93588E+00 1.25894E+03-1.04919E+01 3.21048E+02-1.09933E+01
 -1      2519 1.04016E+01-1.55435E+00 1.25183E+03-1.35531E+01 3.20574E+02-1.50830E+01
 -1      2520 6.96321E+00-1.75737E+00 1.19906E+03-8.51967E+00 3.15163E+02-1.07315E+01
 -1      2521 1.78543E+01-1.32782E+00 1.55571E+03-8.24123E+00 2.53907E+02-1.32620E+01
 -1      2522 3.74723E+01 2.50756E-01 1.38275E+03-1.50593E+01 3.32672E+02-7.80100E+00
 -1      2523 3.00053E+01 3.97670E-01 1.37359E+03-1.97141E+01 3.28958E+02-1.17292E+01
 -1      2524 2.26307E+01-1.82670E+00 1.31988E+03-1.27144E+01 3.24533E+02-9.34550E+00
 -1      2525 4.88202E+01 1.41200E+00 1.70915E+03-1.17866E+01 2.62007E+02-8.65216E+00
 -1      2526 9.87915E+01 2.46151E+01 1.51835E+03-1.93622E+01 3.56391E+02 4.55075E+00
 -1      2527 8.06128E+01 2.31481E+01 1.50955E+03-2.58430E+01 3.48648E+02 2.84569E+00
 -1      2528 5.86657E+01 4.90939E+00 1.44145E+03-1.73614E+01 3.41226E+02-2.03531E+00
 -1      2529 1.14880E+02 1.30075E+01 1.86230E+03-1.52597E+01 2.79496E+02 6.98446E+00
 -1      2530 2.14842E+02 9.93912E+01 1.61670E+03-2.11614E+01 3.88158E+02 2.95569E+01
 -1      2531 1.84388E+02 9.47099E+01 1.61111E+03-2.85984E+01 3.77057E+02 3.78111E+01
 -1      2532 1.39624E+02 4.31028E+01 1.55661E+03-2.07605E+01 3.70275E+02 1.58599E+01
 -1      2533 2.65476E+02 8.94869E+01 2.02437E+03-1.72217E+01 3.29267E+02 3.73268E+01
 -1      2534 4.17225E+02 3.38269E+02 1.59941E+03-1.58650E+01 4.23355E+02 6.18691E+01
 -1      2535 3.90850E+02 3.32560E+02 1.59849E+03-2.15561E+01 4.10681E+02 9.45669E+01
 -1      2536 2.94112E+02 1.89374E+02 1.60714E+03-1.93995E+01 4.04953E+02 4.51648E+01
 -1      2537 5.04315E+02 2.85135E+02 2.07312E+03-1.42897E+01 4.14855E+02 7.62529E+01
 -1      2538 6.68629E+02 6.68631E+02 1.45939E+03 3.52681E-04 2.16152E+02 7.77773E+01
 -1      2539 6.70834E+02 6.70832E+02 1.46424E+03-5.35784E-04 2.04179E+02 1.21164E+02
 -1      2540 5.32493E+02 5.02472E+02 1.51438E+03-8.99152E+00 3.36698E+02 7.08980E+01
 -1      2541 8.04033E+02 8.04028E+02 1.75497E+03-3.42407E-04 2.83923E+02 9.68234E+01
 -1      2542-6.28034E+02-6.28037E+02-1.37079E+03 1.65770E-14 2.12475E+02 3.89065E-11
 -1      2543-4.00817E+02-3.14631E+02-1.49079E+03 5.15078E-12 4.22817E+02 5.01803E-11
 -1      2544-6.26223E+02-6.26220E+02-1.36686E+03 1.94783E-04 2.10662E+02 3.55415E+01
 -1      2545-3.92470E+02-3.12062E+02-1.48946E+03 7.58811E+00 4.20340E+02 2.78464E+01
 -1      2546-7.65559E+02-7.65554E+02-1.67100E+03 1.75636E-12 2.75935E+02 4.29411E-11
 -1      2547-5.05472E+02-4.71543E+02-1.41550E+03 2.85091E-12 3.34108E+02 4.48399E-11
 -1      2548-4.91640E+02-2.66139E+02-1.96205E+03 3.38495E-12 4.12960E+02 5.59557E-11
 -1      2549-2.16353E+02-8.88415E+01-1.50388E+03 4.96453E-12 3.93354E+02 5.82669E-11
 -1      2550-2.05937E+02-8.59359E+01-1.50171E+03 1.03386E+01 3.91079E+02 1.34822E+01
 -1      2551-2.93747E+02-1.76360E+02-1.49970E+03 4.68910E-12 4.07277E+02 5.34130E-11
 -1      2552-2.71332E+02-8.11142E+01-1.91188E+03 5.66686E-12 3.33635E+02 6.51116E-11
 -1      2553-1.06123E+02-2.10236E+01-1.41099E+03-1.65301E-12 3.62388E+02 5.29100E-11
 -1      2554-9.96796E+01-1.95385E+01-1.40855E+03 9.67506E+00 3.60838E+02 2.31457E+00
 -1      2555-1.46337E+02-3.77832E+01-1.44887E+03 1.12671E-12 3.75894E+02 5.61199E-11
 -1      2556-1.25871E+02-1.07960E+01-1.75703E+03 3.59435E-12 2.84856E+02 6.54772E-11
 -1      2557-4.32816E+01 4.94248E-01-1.27866E+03 5.94801E-12 3.37178E+02 6.09507E-11
 -1      2558-4.02417E+01 1.09059E+00-1.27649E+03 7.60841E+00 3.36374E+02-3.35529E+00
 -1      2559-6.52475E+01-2.98129E+00-1.33616E+03 3.13934E-12 3.46598E+02 5.14151E-11
 -1      2560-5.67190E+01-1.15851E+00-1.60718E+03-4.04962E-12 2.65966E+02 7.05688E-11
 -1      2561-1.62544E+01 2.00577E+00-1.15488E+03 7.12436E-12 3.23200E+02 5.83182E-11
 -1      2562-1.53283E+01 2.01933E+00-1.15353E+03 5.34612E+00 3.23022E+02-5.03604E+00
 -1      2563-2.68465E+01 2.28355E+00-1.21562E+03 4.45464E-12 3.27857E+02 5.75204E-11
 -1      2564-2.20035E+01 1.28082E+00-1.45337E+03 9.74251E-12 2.55870E+02 6.59825E-11
 -1      2565-4.63135E+00 1.23542E+00-1.03527E+03-1.07835E-11 3.14281E+02 4.33148E-11
 -1      2566-4.56495E+00 1.07028E+00-1.03451E+03 3.47587E+00 3.14581E+02-5.02623E+00
 -1      2567-9.24158E+00 1.66864E+00-1.09460E+03-3.30797E-12 3.16205E+02 4.30000E-11
 -1      2568-7.23516E+00 7.41443E-01-1.30628E+03-4.16657E-12 2.49513E+02 6.01166E-11
 -1      2569-3.57398E-01 4.02104E-01-9.20538E+02-2.00322E-11 3.08694E+02 5.74995E-11
 -1      2570-5.39178E-01 2.35332E-01-9.20138E+02 2.13115E+00 3.09318E+02-4.50160E+00
 -1      2571-2.17732E+00 5.52530E-01-9.78009E+02-1.41382E-11 3.08940E+02 4.85111E-11
 -1      2572-1.33567E+00 2.91327E-01-1.16361E+03-1.89960E-11 2.45308E+02 5.91903E-11
 -1      2573 9.31558E-01 3.45440E-02-8.08826E+02 8.93341E-12 3.05262E+02 4.87497E-11
 -1      2574 7.17195E-01-9.69654E-02-8.08643E+02 1.24594E+00 3.06091E+02-3.95153E+00
 -1      2575 3.33879E-01 6.64045E-03-8.64832E+02-6.25835E-12 3.04407E+02 5.31440E-11
 -1      2576 6.31875E-01 5.82704E-02-1.02432E+03-1.72630E-11 2.42623E+02 6.24858E-11
 -1      2577 1.06360E+00-7.65567E-02-6.99078E+02-4.80762E-11 3.03240E+02 6.44321E-11
 -1      2578 8.94510E-01-1.64824E-01-6.99008E+02 6.98499E-01 3.04192E+02-3.52444E+00
 -1      2579 9.52017E-01-1.63802E-01-7.54103E+02-2.03598E-11 3.01690E+02 4.55579E-11
 -1      2580 1.02903E+00-1.76517E-02-8.87244E+02-2.45986E-11 2.40991E+02 6.10193E-11
 -1      2581 8.44633E-01-7.88503E-02-5.90497E+02 4.82323E-11 3.02098E+02 5.75548E-11
 -1      2582 7.28608E-01-1.34145E-01-5.90484E+02 3.76566E-01 3.03120E+02-3.23365E+00
 -1      2583 8.95755E-01-1.62615E-01-6.44906E+02 2.00684E-11 3.00118E+02 5.58004E-11
 -1      2584 8.89960E-01-2.82590E-02-7.51550E+02 3.81168E-11 2.40051E+02 5.86160E-11
 -1      2585 5.78174E-01-5.38328E-02-4.82599E+02 8.51862E-12 3.01479E+02 4.02786E-11
 -1      2586 5.05390E-01-8.63921E-02-4.82611E+02 1.95260E-01 3.02541E+02-3.05088E+00
 -1      2587 6.62395E-01-1.15272E-01-5.36637E+02 2.69132E-11 2.99248E+02 4.13445E-11
 -1      2588 6.33285E-01-2.00287E-02-6.16684E+02 4.64130E-13 2.39536E+02 3.52769E-11
 -1      2589 3.62225E-01-3.02043E-02-3.75087E+02 1.95181E-11 3.01159E+02 2.20060E-11
 -1      2590 3.19281E-01-4.85136E-02-3.75107E+02 9.71725E-02 3.02241E+02-2.94250E+00
 -1      2591 4.35373E-01-6.93710E-02-4.28907E+02 5.36106E-11 2.98785E+02 2.12594E-11
 -1      2592 4.05393E-01-1.05967E-02-4.82292E+02 3.07201E-11 2.39268E+02 2.93330E-11
 -1      2593 2.11574E-01-1.45980E-02-2.67788E+02-4.34673E-11 3.01001E+02 4.52947E-12
 -1      2594 1.87624E-01-2.44091E-02-2.67806E+02 4.61225E-02 3.02093E+02-2.88139E+00
 -1      2595 2.64386E-01-3.73537E-02-3.21482E+02-1.42569E-11 2.98550E+02 2.20271E-12
 -1      2596 2.39917E-01-4.36791E-03-3.48163E+02-4.43254E-11 2.39136E+02 2.22442E-11
 -1      2597 1.13473E-01-5.95056E-03-1.60601E+02-6.56298E-11 3.00927E+02 2.78946E-11
 -1      2598 1.01077E-01-1.08631E-02-1.60613E+02 2.04319E-02 3.02025E+02-2.84882E+00
 -1      2599 1.49197E-01-1.81228E-02-2.14222E+02-6.22774E-11 2.98437E+02 2.74036E-11
 -1      2600 1.29728E-01-1.19620E-03-2.14172E+02-3.50396E-11 2.39075E+02 3.80748E-11
 -1      2601 4.89325E-02-1.81261E-03-5.34708E+01-1.40593E-10 3.00896E+02 3.78736E-11
 -1      2602 4.37099E-02-3.83358E-03-5.34749E+01 7.47463E-03 3.01996E+02-2.83329E+00
 -1      2603 7.44098E-02-7.56289E-03-1.07050E+02-8.52871E-11 2.98386E+02 2.95436E-11
 -1      2604 5.62982E-02-5.67101E-05-8.02505E+01-9.90344E-11 2.39049E+02 5.74840E-11
 -1      2605-5.80137E-04-2.44041E-04 5.36364E+01-6.26694E-12 3.00888E+02 1.35320E-11
 -1      2606-5.42975E-04-2.34289E-04 5.36414E+01-2.75428E-04 3.01989E+02-2.82879E+00
 -1      2607 2.23329E-02-1.95140E-03 8.16655E-02-4.05905E-11 2.98367E+02-1.00600E-13
 -1      2608-2.17046E-04-1.81777E-04 5.36430E+01-4.74673E-11 2.39043E+02 3.45289E-12
 -1      2609-5.28196E-02-1.10985E-04 1.60744E+02-1.84590E-10 3.00896E+02 1.25336E-11
 -1      2610-4.72762E-02 2.00633E-03 1.60758E+02-8.07445E-03 3.01996E+02-2.83370E+00
 -1      2611-2.39689E-02 1.34932E-03 1.07201E+02-6.00467E-11 2.98367E+02 2.85807E-11
 -1      2612-5.93681E-02-1.27739E-03 1.87536E+02-4.80412E-11 2.39049E+02-1.81607E-11
 -1      2613-1.26775E-01-9.39896E-04 2.67874E+02 3.38669E-11 3.00925E+02 1.93006E-11
 -1      2614-1.13205E-01 4.33542E-03 2.67896E+02-2.11566E-02 3.02023E+02-2.85041E+00
 -1      2615-8.16038E-02 4.14779E-03 2.14333E+02-3.23577E-11 2.98384E+02 1.20845E-11
 -1      2616-1.41955E-01-3.49316E-03 3.21458E+02 4.83571E-11 2.39073E+02 1.51580E-11
 -1      2617-2.44834E-01-2.85639E-03 3.75064E+02-5.89306E-11 3.00991E+02-1.41478E-11
 -1      2618-2.17891E-01 7.88596E-03 3.75092E+02-4.69634E-02 3.02084E+02-2.88599E+00
 -1      2619-1.69948E-01 7.80821E-03 3.21508E+02-4.31875E-11 2.98431E+02 1.34952E-11
 -1      2620-2.71746E-01-7.44820E-03 4.55450E+02-5.92640E-11 2.39129E+02-3.90090E-11
 -1      2621-4.32786E-01-7.07012E-03 4.82374E+02 1.04365E-10 3.01131E+02 1.15419E-12
 -1      2622-3.83431E-01 1.32412E-02 4.82404E+02-9.79119E-02 3.02213E+02-2.95366E+00
 -1      2623-3.11846E-01 1.33500E-02 4.28775E+02 4.80243E-11 2.98532E+02-2.66449E-11
 -1      2624-4.74265E-01-1.45702E-02 5.89585E+02 1.19587E-11 2.39245E+02-2.49425E-11
 -1      2625-7.13142E-01-1.78062E-02 5.89915E+02-4.38379E-11 3.01414E+02-3.53607E-11
 -1      2626-6.28015E-01 1.86165E-02 5.89936E+02-1.95227E-01 3.02476E+02-3.07479E+00
 -1      2627-5.30839E-01 2.05761E-02 5.36223E+02 7.83533E-11 2.98740E+02-1.77167E-11
 -1      2628-7.66889E-01-2.82484E-02 7.23993E+02-1.55300E-11 2.39480E+02-1.10279E-11
 -1      2629-1.08244E+00-4.79295E-02 6.97879E+02 3.52415E-11 3.01962E+02-3.95851E-11
 -1      2630-9.44539E-01 1.42301E-02 6.97874E+02-3.74200E-01 3.02985E+02-3.28038E+00
 -1      2631-8.37844E-01 2.48255E-02 6.44003E+02-5.97237E-12 2.99150E+02-3.47465E-11
 -1      2632-1.12837E+00-5.70304E-02 8.58898E+02 6.19740E-11 2.39930E+02-2.61307E-11
 -1      2633-1.45038E+00-1.30633E-01 8.06595E+02 1.10481E-10 3.02982E+02-6.11389E-11
 -1      2634-1.24554E+00-3.11426E-02 8.06528E+02-6.90631E-01 3.03935E+02-3.60882E+00
 -1      2635-1.19366E+00 7.72082E-03 7.52375E+02 5.60695E-11 2.99927E+02-6.53864E-11
 -1      2636-1.42213E+00-1.21490E-01 9.94671E+02 9.55316E-11 2.40756E+02-8.36616E-11
 -1      2637-1.50438E+00-3.43416E-01 9.16592E+02 1.81943E-10 3.04807E+02-9.08993E-11
 -1      2638-1.23667E+00-1.95111E-01 9.16403E+02-1.22678E+00 3.05638E+02-4.09264E+00
 -1      2639-1.41698E+00-8.03942E-02 8.61765E+02 1.62762E-10 3.01343E+02-6.40336E-11
 -1      2640-1.22431E+00-2.65229E-01 1.13190E+03 1.12446E-10 2.42201E+02-8.55168E-11
 -1      2641-3.82373E-01-8.05469E-01 1.02873E+03-3.10429E-11 3.07955E+02-1.22327E-10
 -1      2642-1.31589E-01-6.17137E-01 1.02831E+03-2.09111E+00 3.08584E+02-4.71786E+00
 -1      2643-9.84962E-01-3.53809E-01 9.72828E+02 1.50676E-10 3.03826E+02-1.21296E-10
 -1      2644 5.48122E-01-5.61022E-01 1.27145E+03 7.94545E-12 2.44609E+02-1.03091E-10
 -1      2645 3.90195E+00-1.64471E+00 1.14414E+03 2.53533E-10 3.13193E+02-1.62766E-10
 -1      2646 3.90513E+00-1.45767E+00 1.14334E+03-3.40112E+00 3.13502E+02-5.32051E+00
 -1      2647 1.41541E+00-9.70483E-01 1.08654E+03 7.60079E-11 3.08049E+02-1.11989E-10
 -1      2648 6.40575E+00-1.01250E+00 1.41454E+03 2.03110E-10 2.48455E+02-1.60911E-10
 -1      2649 1.60900E+01-2.12659E+00 1.26475E+03 1.21890E-10 3.21824E+02-1.73602E-10
 -1      2650 1.51832E+01-2.13467E+00 1.26331E+03-5.22065E+00 3.21659E+02-5.36148E+00
 -1      2651 8.68067E+00-2.00721E+00 1.20391E+03 2.22822E-10 3.14998E+02-2.04897E-10
 -1      2652 2.16339E+01-1.36389E+00 1.56227E+03-8.20008E-12 2.54467E+02-1.53708E-10
 -1      2653 4.49538E+01 3.74325E-01 1.38969E+03 2.26519E-10 3.35920E+02-1.63362E-10
 -1      2654 4.17752E+01-2.66719E-01 1.38739E+03-7.42258E+00 3.35131E+02-3.55375E+00
 -1      2655 2.73200E+01-2.11017E+00 1.32592E+03 6.09945E-11 3.26559E+02-1.73764E-10
 -1      2656 5.80576E+01 1.78158E+00 1.71698E+03 3.98834E-11 2.64533E+02-1.64811E-10
 -1      2657 1.12290E+02 2.46994E+01 1.52322E+03 3.34630E-12 3.62507E+02-1.84979E-10
 -1      2658 1.05440E+02 2.31012E+01 1.52066E+03-9.44305E+00 3.60965E+02 2.59206E+00
 -1      2659 6.84934E+01 4.69779E+00 1.44729E+03 1.10605E-10 3.45970E+02-1.56509E-10
 -1      2660 1.31228E+02 1.31177E+01 1.86750E+03 1.35175E-11 2.84459E+02-1.62957E-10
 -1      2661 2.30791E+02 9.86928E+01 1.61512E+03 2.96806E-11 3.96960E+02-1.00928E-10
 -1      2662 2.19655E+02 9.55894E+01 1.61290E+03-1.01139E+01 3.94677E+02 1.46694E+01
 -1      2663 1.55639E+02 4.35070E+01 1.56004E+03-3.19217E-13 3.77655E+02-1.36492E-10
 -1      2664 2.85137E+02 8.85204E+01 2.02304E+03-4.03197E-11 3.37136E+02-1.35231E-10
 -1      2665 4.28339E+02 3.38492E+02 1.59601E+03 6.03548E-11 4.32918E+02-1.67946E-10
 -1      2666 4.19417E+02 3.35775E+02 1.59469E+03-7.44671E+00 4.30422E+02 3.00825E+01
 -1      2667 3.13804E+02 1.91887E+02 1.60784E+03 2.53482E-11 4.13993E+02-1.46364E-10
 -1      2668 5.18448E+02 2.84620E+02 2.07004E+03 3.50894E-11 4.24411E+02-1.42199E-10
 -1      2669 6.71643E+02 6.71645E+02 1.46597E+03 5.28511E-11 2.24489E+02-9.89707E-11
 -1      2670 6.69748E+02 6.69745E+02 1.46187E+03-1.91856E-04 2.22645E+02 3.81655E+01
 -1      2671 5.40561E+02 5.04937E+02 1.51492E+03 2.75968E-11 3.45529E+02-1.34603E-10
 -1      2672 8.07859E+02 8.07854E+02 1.76332E+03-3.78072E-11 2.91630E+02-1.24984E-10
 -1      2673-6.25050E+02-6.25052E+02-1.36427E+03 3.58512E-04 2.04246E+02-7.24293E+01
 -1      2674-3.90314E+02-3.14290E+02-1.49359E+03-1.61616E+01 4.13335E+02-5.72794E+01
 -1      2675-6.26223E+02-6.26220E+02-1.36686E+03-1.94783E-04 2.10662E+02-3.55415E+01
 -1      2676-3.92470E+02-3.12062E+02-1.48946E+03-7.58811E+00 4.20340E+02-2.78464E+01
 -1      2677-7.61748E+02-7.61744E+02-1.66268E+03-3.49154E-04 2.68331E+02-9.15247E+01
 -1      2678-4.97761E+02-4.69031E+02-1.41460E+03-9.14960E+00 3.25368E+02-6.58607E+01
 -1      2679-4.78082E+02-2.66527E+02-1.96451E+03-1.45746E+01 4.03511E+02-7.17183E+01
 -1      2680-2.01383E+02-8.95124E+01-1.50504E+03-2.16268E+01 3.84585E+02-2.71712E+01
 -1      2681-2.05937E+02-8.59359E+01-1.50171E+03-1.03386E+01 3.91079E+02-1.34822E+01
 -1      2682-2.75279E+02-1.73970E+02-1.49870E+03-1.97974E+01 3.98302E+02-4.17085E+01
 -1      2683-2.52583E+02-8.20365E+01-1.91279E+03-1.76927E+01 3.25805E+02-3.49600E+01
 -1      2684-9.34314E+01-2.10331E+01-1.40629E+03-1.98386E+01 3.56246E+02-4.04418E+00
 -1      2685-9.96796E+01-1.95385E+01-1.40855E+03-9.67506E+00 3.60838E+02-2.31457E+00
 -1      2686-1.31309E+02-3.74738E+01-1.44544E+03-2.12480E+01 3.68517E+02-1.45087E+01
 -1      2687-1.10255E+02-1.07543E+01-1.75198E+03-1.57410E+01 2.79863E+02-6.45648E+00
 -1      2688-3.61806E+01 5.24233E-01-1.27216E+03-1.54379E+01 3.33880E+02 7.35407E+00
 -1      2689-4.02417E+01 1.09059E+00-1.27649E+03-7.60841E+00 3.36374E+02 3.35529E+00
 -1      2690-5.59657E+01-3.26805E+00-1.33063E+03-1.77956E+01 3.41814E+02 2.02299E+00
 -1      2691-4.78086E+01-8.64032E-01-1.59977E+03-1.21636E+01 2.63386E+02 8.23765E+00
 -1      2692-1.33889E+01 1.76985E+00-1.14950E+03-1.07459E+01 3.22377E+02 1.03253E+01
 -1      2693-1.53283E+01 2.01933E+00-1.15353E+03-5.34612E+00 3.23022E+02 5.03604E+00
 -1      2694-2.23387E+01 1.95179E+00-1.20999E+03-1.30298E+01 3.25782E+02 8.78443E+00
 -1      2695-1.82604E+01 1.21115E+00-1.44721E+03-8.49022E+00 2.55262E+02 1.26203E+01
 -1      2696-3.61726E+00 1.03079E+00-1.03146E+03-6.93910E+00 3.15341E+02 1.01447E+01
 -1      2697-4.56495E+00 1.07028E+00-1.03451E+03-3.47587E+00 3.14581E+02 5.02623E+00
 -1      2698-7.51341E+00 1.39354E+00-1.09011E+03-8.71844E+00 3.16330E+02 1.01091E+01
 -1      2699-5.81013E+00 6.46813E-01-1.30187E+03-5.49513E+00 2.50381E+02 1.29483E+01
 -1      2700-1.48228E-01 2.46027E-01-9.18102E+02-4.23617E+00 3.11028E+02 9.01168E+00
 -1      2701-5.39178E-01 2.35332E-01-9.20138E+02-2.13115E+00 3.09318E+02 4.50160E+00
 -1      2702-1.64099E+00 3.75303E-01-9.74932E+02-5.46850E+00 3.10648E+02 9.44725E+00
 -1      2703-9.53702E-01 1.96235E-01-1.16078E+03-3.35930E+00 2.47174E+02 1.19138E+01
 -1      2704 8.69785E-01-6.81534E-02-8.07363E+02-2.46705E+00 3.08405E+02 7.88394E+00
 -1      2705 7.17195E-01-9.69654E-02-8.08643E+02-1.24594E+00 3.06091E+02 3.95153E+00
 -1      2706 3.95373E-01-9.92881E-02-8.62885E+02-3.25979E+00 3.07157E+02 8.35320E+00
 -1      2707 6.33779E-01-1.24780E-02-1.02261E+03-1.95573E+00 2.45125E+02 1.07440E+01
 -1      2708 9.40608E-01-1.39708E-01-6.98241E+02-1.37876E+00 3.06869E+02 7.02301E+00
 -1      2709 8.94510E-01-1.64824E-01-6.99008E+02-6.98499E-01 3.04192E+02 3.52444E+00
 -1      2710 8.68714E-01-2.23018E-01-7.52943E+02-1.85986E+00 3.05084E+02 7.39087E+00
 -1      2711 9.23848E-01-6.46304E-02-8.86264E+02-1.09106E+00 2.43877E+02 9.81208E+00
 -1      2712 7.34791E-01-1.15681E-01-5.90037E+02-7.41092E-01 3.06006E+02 6.44263E+00
 -1      2713 7.28608E-01-1.34145E-01-5.90484E+02-3.76566E-01 3.03120E+02 3.23365E+00
 -1      2714 7.92039E-01-1.94713E-01-6.44246E+02-1.01978E+00 3.03892E+02 6.69480E+00
 -1      2715 7.80844E-01-5.72528E-02-7.51013E+02-5.84625E-01 2.43157E+02 9.17071E+00
 -1      2716 4.98796E-01-7.44334E-02-4.82356E+02-3.83165E-01 3.05541E+02 6.08009E+00
 -1      2717 5.05390E-01-8.63921E-02-4.82611E+02-1.95260E-01 3.02541E+02 3.05088E+00
 -1      2718 5.78496E-01-1.31977E-01-5.36277E+02-5.37968E-01 3.03236E+02 6.23946E+00
 -1      2719 5.49811E-01-3.69775E-02-6.16401E+02-3.00925E-01 2.42764E+02 8.76537E+00
 -1      2720 3.10882E-01-4.12696E-02-3.74964E+02-1.90107E-01 3.05303E+02 5.86614E+00
 -1      2721 3.19281E-01-4.85136E-02-3.75107E+02-9.71725E-02 3.02241E+02 2.94250E+00
 -1      2722 3.77560E-01-7.77540E-02-4.28719E+02-2.72764E-01 3.02890E+02 5.96118E+00
 -1      2723 3.49716E-01-2.00563E-02-4.82149E+02-1.48420E-01 2.42561E+02 8.52451E+00
 -1      2724 1.80931E-01-2.02833E-02-2.67728E+02-8.99355E-02 3.05186E+02 5.74595E+00
 -1      2725 1.87624E-01-2.44091E-02-2.67806E+02-4.61225E-02 3.02093E+02 2.88139E+00
 -1      2726 2.28208E-01-4.13652E-02-3.21387E+02-1.32402E-01 3.02716E+02 5.79992E+00
 -1      2727 2.06045E-01-9.39898E-03-3.48094E+02-6.96751E-02 2.42461E+02 8.38869E+00
 -1      2728 9.68159E-02-8.67280E-03-1.60574E+02-3.96970E-02 3.05132E+02 5.68210E+00
 -1      2729 1.01077E-01-1.08631E-02-1.60613E+02-2.04319E-02 3.02025E+02 2.84882E+00
 -1      2730 1.28360E-01-1.99291E-02-2.14177E+02-6.08498E-02 3.02633E+02 5.71112E+00
 -1      2731 1.11077E-01-3.68289E-03-2.14141E+02-3.04541E-02 2.42416E+02 8.31641E+00
 -1      2732 4.17538E-02-2.86094E-03-5.34602E+01-1.44676E-02 3.05111E+02 5.65171E+00
 -1      2733 4.37099E-02-3.83358E-03-5.34749E+01-7.47463E-03 3.01996E+02 2.83329E+00
 -1      2734 6.39112E-02-8.28338E-03-1.07030E+02-2.52310E-02 3.02596E+02 5.66565E+00
 -1      2735 4.81744E-02-1.04242E-03-8.02384E+01-1.09524E-02 2.42397E+02 8.28201E+00
 -1      2736-3.26074E-04-1.56732E-04 5.36372E+01 5.55018E-04 3.05105E+02 5.64290E+00
 -1      2737-5.42975E-04-2.34288E-04 5.36414E+01 2.75427E-04 3.01989E+02 2.82879E+00
 -1      2738 1.92593E-02-2.10497E-03 8.76429E-02-6.42800E-03 3.02583E+02 5.64673E+00
 -1      2739-1.80676E-05-1.11240E-04 5.36437E+01 5.38221E-04 2.42392E+02 8.27206E+00
 -1      2740-4.47130E-02 1.14799E-03 1.60734E+02 1.56778E-02 3.05110E+02 5.65243E+00
 -1      2741-4.72762E-02 2.00633E-03 1.60758E+02 8.07445E-03 3.01996E+02 2.83370E+00
 -1      2742-2.03352E-02 1.62189E-03 1.07197E+02 7.56607E-03 3.02583E+02 5.64706E+00
 -1      2743-5.04366E-02-1.15352E-04 1.87525E+02 1.21320E-02 2.42397E+02 8.28282E+00
 -1      2744-1.07768E-01 2.10433E-03 2.67847E+02 4.11642E-02 3.05130E+02 5.68501E+00
 -1      2745-1.13205E-01 4.33542E-03 2.67896E+02 2.11566E-02 3.02023E+02 2.85041E+00
 -1      2746-6.97063E-02 5.01353E-03 2.14314E+02 2.65568E-02 3.02595E+02 5.66735E+00
 -1      2747-1.21100E-01-7.18788E-04 3.21427E+02 3.19039E-02 2.42414E+02 8.31951E+00
 -1      2748-2.08918E-01 3.34285E-03 3.75003E+02 9.16481E-02 3.05176E+02 5.75461E+00
 -1      2749-2.17891E-01 7.88596E-03 3.75092E+02 4.69634E-02 3.02084E+02 2.88599E+00
 -1      2750-1.45717E-01 9.80564E-03 3.21462E+02 6.24532E-02 3.02627E+02 5.71664E+00
 -1      2751-2.32772E-01-1.92837E-03 4.55379E+02 7.14081E-02 2.42453E+02 8.39763E+00
 -1      2752-3.70905E-01 4.77284E-03 4.82245E+02 1.91636E-01 3.05275E+02 5.88745E+00
 -1      2753-3.83431E-01 1.32412E-02 4.82404E+02 9.79119E-02 3.02213E+02 2.95366E+00
 -1      2754-2.68478E-01 1.75969E-02 4.28676E+02 1.34099E-01 3.02698E+02 5.81433E+00
 -1      2755-4.08207E-01-4.32125E-03 5.89435E+02 1.50061E-01 2.42537E+02 8.54618E+00
 -1      2756-6.14507E-01 3.84732E-03 5.89656E+02 3.83177E-01 3.05476E+02 6.12623E+00
 -1      2757-6.28015E-01 1.86165E-02 5.89936E+02 1.95227E-01 3.02476E+02 3.07479E+00
 -1      2758-4.59264E-01 2.91838E-02 5.36022E+02 2.73741E-01 3.02845E+02 5.99375E+00
 -1      2759-6.64171E-01-1.01344E-02 7.23693E+02 3.01243E-01 2.42708E+02 8.81181E+00
 -1      2760-9.40135E-01-9.94978E-03 6.97384E+02 7.36461E-01 3.05872E+02 6.53345E+00
 -1      2761-9.44539E-01 1.42301E-02 6.97874E+02 3.74200E-01 3.02985E+02 3.28038E+00
 -1      2762-7.29717E-01 4.15667E-02 6.43616E+02 5.36117E-01 3.03140E+02 6.30578E+00
 -1      2763-9.86341E-01-2.65423E-02 8.58324E+02 5.80676E-01 2.43038E+02 9.26146E+00
 -1      2764-1.27720E+00-6.68892E-02 8.05687E+02 1.36312E+00 3.06615E+02 7.18809E+00
 -1      2765-1.24554E+00-3.11426E-02 8.06528E+02 6.90631E-01 3.03935E+02 3.60882E+00
 -1      2766-1.05062E+00 3.92384E-02 7.51661E+02 1.01055E+00 3.03704E+02 6.81902E+00
 -1      2767-1.26521E+00-7.30904E-02 9.93621E+02 1.07677E+00 2.43646E+02 9.97599E+00
 -1      2768-1.37352E+00-2.42386E-01 9.15002E+02 2.42873E+00 3.07960E+02 8.16190E+00
 -1      2769-1.23667E+00-1.95111E-01 9.16403E+02 1.22678E+00 3.05638E+02 4.09264E+00
 -1      2770-1.27571E+00-2.33102E-02 8.60505E+02 1.83449E+00 3.04744E+02 7.60642E+00
 -1      2771-1.15323E+00-1.94376E-01 1.13006E+03 1.91978E+00 2.44713E+02 1.10182E+01
 -1      2772-5.13432E-01-6.57057E-01 1.02609E+03 4.15579E+00 3.10308E+02 9.44114E+00
 -1      2773-1.31589E-01-6.17137E-01 1.02831E+03 2.09111E+00 3.08584E+02 4.71786E+00
 -1      2774-9.72246E-01-2.53377E-01 9.70712E+02 3.20300E+00 3.06590E+02 8.69840E+00
 -1      2775 2.52728E-01-4.70106E-01 1.26841E+03 3.28268E+00 2.46494E+02 1.23348E+01
 -1      2776 2.93632E+00-1.46151E+00 1.14002E+03 6.78843E+00 3.14285E+02 1.07365E+01
 -1      2777 3.90513E+00-1.45767E+00 1.14334E+03 3.40112E+00 3.13502E+02 5.32051E+00
 -1      2778 9.49536E-01-8.05670E-01 1.08320E+03 5.35648E+00 3.09782E+02 9.94742E+00
 -1      2779 5.04613E+00-9.32763E-01 1.40983E+03 5.34951E+00 2.49356E+02 1.35238E+01
 -1      2780 1.31571E+01-1.93588E+00 1.25894E+03 1.04919E+01 3.21048E+02 1.09933E+01
 -1      2781 1.51832E+01-2.13467E+00 1.26331E+03 5.22065E+00 3.21659E+02 5.36148E+00
 -1      2782 6.96321E+00-1.75737E+00 1.19906E+03 8.51967E+00 3.15163E+02 1.07315E+01
 -1      2783 1.78543E+01-1.32782E+00 1.55571E+03 8.24123E+00 2.53907E+02 1.32620E+01
 -1      2784 3.74723E+01 2.50756E-01 1.38275E+03 1.50593E+01 3.32672E+02 7.80100E+00
 -1      2785 4.17752E+01-2.66719E-01 1.38739E+03 7.42258E+00 3.35131E+02 3.55375E+00
 -1      2786 2.26307E+01-1.82670E+00 1.31988E+03 1.27144E+01 3.24533E+02 9.34550E+00
 -1      2787 4.88202E+01 1.41200E+00 1.70915E+03 1.17866E+01 2.62007E+02 8.65216E+00
 -1      2788 9.87915E+01 2.46151E+01 1.51835E+03 1.93622E+01 3.56391E+02-4.55075E+00
 -1      2789 1.05440E+02 2.31012E+01 1.52066E+03 9.44305E+00 3.60965E+02-2.59206E+00
 -1      2790 5.86657E+01 4.90939E+00 1.44145E+03 1.73614E+01 3.41226E+02 2.03531E+00
 -1      2791 1.14880E+02 1.30075E+01 1.86230E+03 1.52597E+01 2.79496E+02-6.98446E+00
 -1      2792 2.14842E+02 9.93912E+01 1.61670E+03 2.11614E+01 3.88158E+02-2.95569E+01
 -1      2793 2.19655E+02 9.55894E+01 1.61290E+03 1.01139E+01 3.94677E+02-1.46694E+01
 -1      2794 1.39624E+02 4.31028E+01 1.55661E+03 2.07605E+01 3.70275E+02-1.58599E+01
 -1      2795 2.65476E+02 8.94869E+01 2.02437E+03 1.72217E+01 3.29267E+02-3.73268E+01
 -1      2796 4.17225E+02 3.38269E+02 1.59941E+03 1.58650E+01 4.23355E+02-6.18691E+01
 -1      2797 4.19417E+02 3.35775E+02 1.59469E+03 7.44671E+00 4.30422E+02-3.00825E+01
 -1      2798 2.94112E+02 1.89374E+02 1.60714E+03 1.93995E+01 4.04953E+02-4.51648E+01
 -1      2799 5.04315E+02 2.85135E+02 2.07312E+03 1.42897E+01 4.14855E+02-7.62529E+01
 -1      2800 6.68629E+02 6.68631E+02 1.45939E+03-3.52681E-04 2.16152E+02-7.77773E+01
 -1      2801 6.69748E+02 6.69745E+02 1.46187E+03 1.91856E-04 2.22645E+02-3.81655E+01
 -1      2802 5.32493E+02 5.02472E+02 1.51438E+03 8.99152E+00 3.36698E+02-7.08980E+01
 -1      2803 8.04033E+02 8.04028E+02 1.75497E+03 3.42407E-04 2.83923E+02-9.68234E+01
 -1      2804-6.31667E+02-6.31668E+02-1.37871E+03 6.78927E-04 1.74032E+02-1.58097E+02
 -1      2805-3.41975E+02-3.07144E+02-1.49683E+03-3.04157E+01 3.81584E+02-1.22534E+02
 -1      2806-6.26870E+02-6.26868E+02-1.36828E+03-5.44742E-04 1.92386E+02-1.12842E+02
 -1      2807-3.65555E+02-3.08812E+02-1.49227E+03-2.19791E+01 4.00769E+02-8.75661E+01
 -1      2808-7.70839E+02-7.70837E+02-1.68253E+03-6.56478E-04 2.38218E+02-1.98247E+02
 -1      2809-4.76749E+02-4.64880E+02-1.41695E+03-1.79825E+01 2.94447E+02-1.45213E+02
 -1      2810-4.18294E+02-2.58951E+02-1.96417E+03-2.64103E+01 3.72154E+02-1.53599E+02
 -1      2811-1.38119E+02-8.18989E+01-1.49315E+03-3.97258E+01 3.57120E+02-3.83563E+01
 -1      2812-1.72848E+02-8.51759E+01-1.49943E+03-2.92625E+01 3.73520E+02-3.47189E+01
 -1      2813-2.19933E+02-1.69573E+02-1.50047E+03-3.76964E+01 3.67880E+02-7.84107E+01
 -1      2814-1.75561E+02-7.43215E+01-1.89840E+03-3.10950E+01 3.01348E+02-5.02685E+01
 -1      2815-5.81245E+01-1.95915E+01-1.38563E+03-3.46725E+01 3.37504E+02 1.25410E+00
 -1      2816-7.63115E+01-1.97665E+01-1.39788E+03-2.65088E+01 3.48464E+02-2.39423E+00
 -1      2817-8.33957E+01-3.48235E+01-1.43087E+03-3.80340E+01 3.45152E+02-1.76285E+01
 -1      2818-6.74850E+01-9.60244E+00-1.72902E+03-2.66194E+01 2.64830E+02-1.36058E+00
 -1      2819-1.88750E+01 1.13530E+00-1.24920E+03-2.53863E+01 3.25363E+02 1.64403E+01
 -1      2820-2.90205E+01 2.92678E-01-1.26357E+03-2.02281E+01 3.30103E+02 1.10374E+01
 -1      2821-3.11372E+01-2.75406E+00-1.30839E+03-3.01186E+01 3.28193E+02 9.19273E+00
 -1      2822-2.61434E+01 2.54170E-01-1.57351E+03-1.94915E+01 2.56906E+02 1.87701E+01
 -1      2823-6.54540E+00 1.46831E+00-1.13270E+03-1.71141E+01 3.21747E+02 1.85342E+01
 -1      2824-1.06275E+01 1.35505E+00-1.14289E+03-1.38897E+01 3.21849E+02 1.41599E+01
 -1      2825-1.16551E+01 1.42540E+00-1.19120E+03-2.10703E+01 3.21201E+02 1.70731E+01
 -1      2826-9.36985E+00 1.23194E+00-1.42784E+03-1.32473E+01 2.55056E+02 2.27983E+01
 -1      2827-1.45065E+00 6.18375E-01-1.02028E+03-1.07887E+01 3.20256E+02 1.67803E+01
 -1      2828-2.99042E+00 5.88394E-01-1.02709E+03-8.89807E+00 3.17140E+02 1.33965E+01
 -1      2829-3.49055E+00 9.42635E-01-1.07640E+03-1.37170E+01 3.18516E+02 1.72969E+01
 -1      2830-2.72853E+00 4.46122E-01-1.28890E+03-8.38487E+00 2.54534E+02 2.16354E+01
 -1      2831 2.00828E-01-8.70510E-02-9.11234E+02-6.46653E+00 3.19544E+02 1.43231E+01
 -1      2832-2.20436E-01-6.11597E-02-9.15396E+02-5.39265E+00 3.14372E+02 1.16994E+01
 -1      2833-5.23119E-01 4.88197E-02-9.65991E+02-8.42528E+00 3.17405E+02 1.52679E+01
 -1      2834-2.42255E-01-2.45796E-02-1.15277E+03-5.03615E+00 2.54158E+02 1.92352E+01
 -1      2835 6.23915E-01-2.94295E-01-8.03351E+02-3.70884E+00 3.19132E+02 1.22609E+01
 -1      2836 6.07106E-01-2.69248E-01-8.05797E+02-3.12286E+00 3.12708E+02 1.01311E+01
 -1      2837 4.50458E-01-2.93871E-01-8.57427E+02-4.93939E+00 3.16814E+02 1.31084E+01
 -1      2838 5.08126E-01-1.80748E-01-1.01793E+03-2.88660E+00 2.53850E+02 1.70623E+01
 -1      2839 5.91108E-01-2.79335E-01-6.95999E+02-2.04392E+00 3.18891E+02 1.07934E+01
 -1      2840 6.91874E-01-2.60379E-01-6.97381E+02-1.73577E+00 3.11740E+02 8.97140E+00
 -1      2841 6.11237E-01-3.33496E-01-7.49779E+02-2.77753E+00 3.16482E+02 1.14135E+01
 -1      2842 5.97171E-01-1.76573E-01-8.83645E+02-1.58691E+00 2.53622E+02 1.54655E+01
 -1      2843 4.40831E-01-1.97130E-01-5.88834E+02-1.08372E+00 3.18755E+02 9.84232E+00
 -1      2844 5.49482E-01-1.85173E-01-5.89592E+02-9.28043E-01 3.11199E+02 8.20197E+00
 -1      2845 5.11358E-01-2.53637E-01-6.42489E+02-1.50216E+00 3.16294E+02 1.02520E+01
 -1      2846 4.77346E-01-1.26012E-01-7.49607E+02-8.37906E-01 2.53477E+02 1.44126E+01
 -1      2847 2.92201E-01-1.19605E-01-4.81736E+02-5.52404E-01 3.18684E+02 9.26369E+00
 -1      2848 3.76539E-01-1.12629E-01-4.82141E+02-4.77125E-01 3.10910E+02 7.72654E+00
 -1      2849 3.59562E-01-1.61981E-01-5.35340E+02-7.81550E-01 3.16192E+02 9.51651E+00
 -1      2850 3.27263E-01-7.67819E-02-6.15677E+02-4.24630E-01 2.53395E+02 1.37656E+01
 -1      2851 1.79397E-01-6.52216E-02-3.74657E+02-2.69824E-01 3.18650E+02 8.92907E+00
 -1      2852 2.36145E-01-6.14437E-02-3.74869E+02-2.35249E-01 3.10763E+02 7.44821E+00
 -1      2853 2.29592E-01-9.21594E-02-4.28238E+02-3.90438E-01 3.16141E+02 9.07721E+00
 -1      2854 2.04699E-01-4.19709E-02-4.81792E+02-2.05816E-01 2.53353E+02 1.33893E+01
 -1      2855 1.03338E-01-3.23606E-02-2.67583E+02-1.25384E-01 3.18636E+02 8.74424E+00
 -1      2856 1.38091E-01-3.04597E-02-2.67691E+02-1.10492E-01 3.10693E+02 7.29289E+00
 -1      2857 1.36706E-01-4.78163E-02-3.21151E+02-1.86391E-01 3.16118E+02 8.82720E+00
 -1      2858 1.19189E-01-2.08568E-02-3.47926E+02-9.46767E-02 2.53333E+02 1.31808E+01
 -1      2859 5.49458E-02-1.43172E-02-1.60510E+02-5.42264E-02 3.18631E+02 8.64745E+00
 -1      2860 7.41725E-02-1.34756E-02-1.60561E+02-4.83719E-02 3.10662E+02 7.21084E+00
 -1      2861 7.60842E-02-2.25414E-02-2.14067E+02-8.40356E-02 3.16109E+02 8.69159E+00
 -1      2862 6.37519E-02-9.23440E-03-2.14067E+02-4.04125E-02 2.53326E+02 1.30715E+01
 -1      2863 2.37296E-02-4.94668E-03-5.34352E+01-1.93337E-02 3.18629E+02 8.60183E+00
 -1      2864 3.20957E-02-4.72394E-03-5.34543E+01-1.74762E-02 3.10650E+02 7.17193E+00
 -1      2865 3.76781E-02-9.14934E-03-1.06983E+02-3.41148E-02 3.16106E+02 8.62298E+00
 -1      2866 2.76343E-02-3.18248E-03-8.02102E+01-1.41486E-02 2.53323E+02 1.30201E+01
 -1      2867 1.40192E-04 1.40192E-04 5.36394E+01 9.10031E-04 3.18629E+02 8.58852E+00
 -1      2868-1.93770E-04-9.14986E-05 5.36429E+01 7.28655E-04 3.10647E+02 7.16063E+00
 -1      2869 1.15034E-02-2.15695E-03 1.02005E-01-8.45881E-03 3.16106E+02 8.59457E+00
 -1      2870 3.15389E-04 1.14999E-04 5.36458E+01 8.75921E-04 2.53323E+02 1.30052E+01
 -1      2871-2.47298E-02 3.94642E-03 1.60713E+02 2.13460E-02 3.18629E+02 8.60233E+00
 -1      2872-3.42837E-02 3.20791E-03 1.60740E+02 1.90773E-02 3.10649E+02 7.17267E+00
 -1      2873-1.14995E-02 2.16086E-03 1.07186E+02 1.03337E-02 3.16106E+02 8.59480E+00
 -1      2874-2.82334E-02 2.58523E-03 1.87501E+02 1.61026E-02 2.53323E+02 1.30208E+01
 -1      2875-6.04360E-02 8.82714E-03 2.67786E+02 5.67575E-02 3.18627E+02 8.65052E+00
 -1      2876-8.26082E-02 7.32523E-03 2.67845E+02 5.03535E-02 3.10659E+02 7.21415E+00
 -1      2877-4.03379E-02 6.48952E-03 2.14270E+02 3.63570E-02 3.16105E+02 8.62466E+00
 -1      2878-6.86928E-02 5.73283E-03 3.21355E+02 4.29259E-02 2.53324E+02 1.30750E+01
 -1      2879-1.18575E-01 1.71231E-02 3.74856E+02 1.28527E-01 3.18625E+02 8.75499E+00
 -1      2880-1.59877E-01 1.43778E-02 3.74974E+02 1.12888E-01 3.10683E+02 7.30326E+00
 -1      2881-8.53717E-02 1.32540E-02 3.21351E+02 8.68795E-02 3.16102E+02 8.69819E+00
 -1      2882-1.33654E-01 1.10366E-02 4.55209E+02 9.79087E-02 2.53325E+02 1.31921E+01
 -1      2883-2.13346E-01 3.12720E-02 4.81925E+02 2.73066E-01 3.18622E+02 8.95758E+00
 -1      2884-2.83107E-01 2.65688E-02 4.82153E+02 2.37581E-01 3.10735E+02 7.47437E+00
 -1      2885-1.59379E-01 2.51429E-02 4.28432E+02 1.89679E-01 3.16099E+02 8.84608E+00
 -1      2886-2.37656E-01 1.99927E-02 5.89065E+02 2.09388E-01 2.53328E+02 1.34185E+01
 -1      2887-3.59394E-01 5.24121E-02 5.88998E+02 5.53853E-01 3.18620E+02 9.32821E+00
 -1      2888-4.67405E-01 4.48663E-02 5.89434E+02 4.77771E-01 3.10845E+02 7.78404E+00
 -1      2889-2.76969E-01 4.47825E-02 5.35515E+02 3.93076E-01 3.16096E+02 9.12211E+00
 -1      2890-3.93450E-01 3.31522E-02 7.22931E+02 4.26905E-01 2.53339E+02 1.38307E+01
 -1      2891-5.62867E-01 7.50948E-02 6.96095E+02 1.07868E+00 3.18624E+02 9.97343E+00
 -1      2892-7.11264E-01 6.40718E-02 6.96912E+02 9.23086E-01 3.11066E+02 8.31643E+00
 -1      2893-4.49297E-01 7.22457E-02 6.42615E+02 7.80434E-01 3.16097E+02 9.61111E+00
 -1      2894-5.99040E-01 4.65682E-02 8.56833E+02 8.34617E-01 2.53361E+02 1.45435E+01
 -1      2895-7.96132E-01 7.43117E-02 8.03271E+02 2.02242E+00 3.18646E+02 1.10383E+01
 -1      2896-9.58064E-01 6.03128E-02 8.04764E+02 1.71707E+00 3.11491E+02 9.18148E+00
 -1      2897-6.68267E-01 9.67270E-02 7.49771E+02 1.49028E+00 3.16111E+02 1.04341E+01
 -1      2898-8.04185E-01 4.27380E-02 9.90828E+02 1.56878E+00 2.53401E+02 1.57080E+01
 -1      2899-9.40461E-01-2.22505E-02 9.10665E+02 3.65199E+00 3.18708E+02 1.26847E+01
 -1      2900-1.00735E+00-3.31733E-02 9.13311E+02 3.07520E+00 3.12273E+02 1.04884E+01
 -1      2901-8.64592E-01 8.01408E-02 8.57088E+02 2.74091E+00 3.16158E+02 1.17379E+01
 -1      2902-8.32453E-01-2.65771E-02 1.12506E+03 2.83560E+00 2.53459E+02 1.74787E+01
 -1      2903-6.37768E-01-3.49889E-01 1.01866E+03 6.34175E+00 3.18867E+02 1.50001E+01
 -1      2904-3.10140E-01-3.43283E-01 1.02316E+03 5.29029E+00 3.13672E+02 1.22586E+01
 -1      2905-8.22849E-01-7.85192E-02 9.64810E+02 4.85282E+00 3.16279E+02 1.36434E+01
 -1      2906-2.15402E-01-2.63343E-01 1.25986E+03 4.92051E+00 2.53521E+02 1.98949E+01
 -1      2907 9.49495E-01-1.11953E+00 1.12794E+03 1.05460E+01 3.19276E+02 1.77598E+01
 -1      2908 2.43494E+00-1.02068E+00 1.13530E+03 8.70241E+00 3.16120E+02 1.41814E+01
 -1      2909 4.75324E-02-5.24406E-01 1.07354E+03 8.24773E+00 3.16599E+02 1.60742E+01
 -1      2910 2.18302E+00-7.79256E-01 1.39599E+03 8.15430E+00 2.53589E+02 2.25809E+01
 -1      2911 6.22197E+00-1.79174E+00 1.24086E+03 1.66887E+01 3.20534E+02 1.97472E+01
 -1      2912 1.04016E+01-1.55435E+00 1.25183E+03 1.35531E+01 3.20574E+02 1.50830E+01
 -1      2913 3.03131E+00-1.40188E+00 1.18429E+03 1.33902E+01 3.17443E+02 1.83693E+01
 -1      2914 8.94785E+00-1.46259E+00 1.53511E+03 1.28334E+01 2.53825E+02 2.39539E+01
 -1      2915 1.93266E+01-6.83665E-01 1.35821E+03 2.47223E+01 3.24295E+02 1.75077E+01
 -1      2916 3.00053E+01 3.97670E-01 1.37359E+03 1.97141E+01 3.28958E+02 1.17292E+01
 -1      2917 1.16037E+01-1.47683E+00 1.29976E+03 2.05299E+01 3.20080E+02 1.81945E+01
 -1      2918 2.64493E+01 4.49592E-02 1.68140E+03 1.88271E+01 2.55685E+02 1.97581E+01
 -1      2919 6.12942E+01 2.27612E+01 1.49668E+03 3.37870E+01 3.37740E+02 1.01770E+00
 -1      2920 8.06128E+01 2.31481E+01 1.50955E+03 2.58430E+01 3.48648E+02-2.84569E+00
 -1      2921 3.24399E+01 4.05682E+00 1.41786E+03 2.93360E+01 3.27725E+02 9.66096E+00
 -1      2922 7.01394E+01 1.15563E+01 1.83841E+03 2.57016E+01 2.64578E+02-1.66378E+00
 -1      2923 1.47298E+02 9.10779E+01 1.60491E+03 3.88249E+01 3.60618E+02-4.18541E+01
 -1      2924 1.84388E+02 9.47099E+01 1.61111E+03 2.85984E+01 3.77057E+02-3.78111E+01
 -1      2925 8.85615E+01 3.99892E+01 1.54169E+03 3.71074E+01 3.46923E+02-1.93996E+01
 -1      2926 1.84439E+02 8.12131E+01 2.01014E+03 3.01283E+01 3.04722E+02-5.37424E+01
 -1      2927 3.65817E+02 3.30986E+02 1.60408E+03 2.98383E+01 3.91357E+02-1.32307E+02
 -1      2928 3.90850E+02 3.32560E+02 1.59849E+03 2.15561E+01 4.10681E+02-9.45669E+01
 -1      2929 2.35118E+02 1.84758E+02 1.61017E+03 3.69133E+01 3.74367E+02-8.48967E+01
 -1      2930 4.41633E+02 2.77432E+02 2.07425E+03 2.58025E+01 3.83186E+02-1.63234E+02
 -1      2931 6.76338E+02 6.76339E+02 1.47621E+03-6.68221E-04 1.85685E+02-1.69750E+02
 -1      2932 6.70834E+02 6.70832E+02 1.46424E+03 5.35784E-04 2.04179E+02-1.21164E+02
 -1      2933 5.10547E+02 4.98678E+02 1.51819E+03 1.76657E+01 3.05520E+02-1.56286E+02
 -1      2934 8.14288E+02 8.14285E+02 1.77736E+03 6.43356E-04 2.53482E+02-2.09729E+02
 -1      2935-6.10346E+02-6.10344E+02-1.33216E+03 8.07706E-04 1.13708E+02-2.71391E+02
 -1      2936-2.64419E+02-3.24307E+02-1.58960E+03-5.26241E+01 3.02757E+02-1.83799E+02
 -1      2937-6.09226E+02-6.09226E+02-1.32977E+03-8.50414E-04 1.50031E+02-2.06953E+02
 -1      2938-2.65697E+02-2.96785E+02-1.52241E+03-3.23930E+01 3.50209E+02-1.38471E+02
 -1      2939-7.46967E+02-7.46969E+02-1.63044E+03-6.81563E-04 1.82027E+02-3.42551E+02
 -1      2940-3.32985E+02-4.27305E+02-1.43841E+03-2.11058E+01 2.26103E+02-2.32452E+02
 -1      2941-3.23282E+02-2.90874E+02-2.07858E+03-4.30185E+01 2.93405E+02-2.27587E+02
 -1      2942-2.54562E+01-5.14527E+01-1.43649E+03-4.65906E+01 3.04203E+02-1.86801E+01
 -1      2943-1.03458E+02-7.86800E+01-1.48301E+03-4.19210E+01 3.33719E+02-3.62272E+01
 -1      2944-9.31061E+01-1.35357E+02-1.45609E+03-5.18820E+01 3.04366E+02-7.84695E+01
 -1      2945-3.65642E+01-4.31357E+01-1.82580E+03-3.29319E+01 2.54624E+02-2.66418E+01
 -1      2946-1.52868E+01-7.53913E+00-1.32093E+03-3.49988E+01 3.08466E+02 1.84836E+01
 -1      2947-3.77063E+01-1.55370E+01-1.35850E+03-3.40765E+01 3.24126E+02 7.73909E+00
 -1      2948-1.43952E+01-1.95842E+01-1.37721E+03-4.14222E+01 3.03098E+02-7.86358E-01
 -1      2949-1.54240E+01 8.81838E-01-1.65504E+03-2.54329E+01 2.41545E+02 1.90464E+01
 -1      2950-2.24394E+00 5.33042E+00-1.20569E+03-2.35255E+01 3.17424E+02 2.17550E+01
 -1      2951-1.28989E+01 6.88027E-01-1.23264E+03-2.44316E+01 3.20726E+02 1.84350E+01
 -1      2952-5.85996E+00 2.63884E+00-1.25864E+03-2.91599E+01 3.10025E+02 1.91997E+01
 -1      2953-4.46769E+00 4.26208E+00-1.52220E+03-1.72211E+01 2.51414E+02 2.51730E+01
 -1      2954-9.27153E-01 2.97168E+00-1.10465E+03-1.49827E+01 3.27463E+02 1.88897E+01
 -1      2955-4.40175E+00 1.25481E+00-1.12058E+03-1.60852E+01 3.23311E+02 1.86900E+01
 -1      2956-1.48374E+00 4.06929E+00-1.15600E+03-1.90037E+01 3.20213E+02 1.92473E+01
 -1      2957-1.57630E+00 2.64699E+00-1.39500E+03-1.11399E+01 2.60666E+02 2.33472E+01
 -1      2958-4.70071E-02 1.14139E+00-1.00356E+03-9.08885E+00 3.34569E+02 1.51776E+01
 -1      2959-1.10311E+00 3.61310E-01-1.01285E+03-1.00139E+01 3.25806E+02 1.61272E+01
 -1      2960-2.54978E-01 2.05841E+00-1.05417E+03-1.18008E+01 3.28673E+02 1.64504E+01
 -1      2961-3.63255E-01 9.36571E-01-1.26921E+03-6.79345E+00 2.67071E+02 1.98322E+01
 -1      2962 1.07644E-01 8.58006E-02-9.01601E+02-5.28249E+00 3.38980E+02 1.21159E+01
 -1      2963 1.79220E-02-2.37181E-01-9.06805E+02-5.93620E+00 3.27550E+02 1.34207E+01
 -1      2964 1.77561E-01 6.11912E-01-9.52699E+02-7.00490E+00 3.34374E+02 1.32657E+01
 -1      2965 2.37063E-02 1.24007E-01-1.14145E+03-3.95338E+00 2.70808E+02 1.66676E+01
 -1      2966 1.39610E-01-2.45606E-01-7.98042E+02-2.94888E+00 3.41515E+02 9.94137E+00
 -1      2967 3.29650E-01-3.80980E-01-8.00866E+02-3.37370E+00 3.28579E+02 1.13047E+01
 -1      2968 2.49619E-01-1.92974E-02-8.49852E+02-3.99066E+00 3.37786E+02 1.08091E+01
 -1      2969 1.32918E-01-1.51706E-01-1.01169E+03-2.20133E+00 2.72860E+02 1.43326E+01
 -1      2970 1.12850E-01-2.70602E-01-6.93180E+02-1.58392E+00 3.42905E+02 8.52501E+00
 -1      2971 3.37629E-01-3.23806E-01-6.94664E+02-1.84293E+00 3.29152E+02 9.85288E+00
 -1      2972 2.14768E-01-1.89738E-01-7.45627E+02-2.18604E+00 3.39720E+02 9.10831E+00
 -1      2973 1.30714E-01-1.82662E-01-8.80339E+02-1.17639E+00 2.73936E+02 1.27791E+01
 -1      2974 7.96244E-02-1.98644E-01-5.87397E+02-8.18183E-01 3.43640E+02 7.65667E+00
 -1      2975 2.59860E-01-2.18167E-01-5.88154E+02-9.68560E-01 3.29459E+02 8.93173E+00
 -1      2976 1.53783E-01-1.77712E-01-6.40303E+02-1.15224E+00 3.40766E+02 8.02371E+00
 -1      2977 9.88386E-02-1.38138E-01-7.47927E+02-6.03188E-01 2.74483E+02 1.18154E+01
 -1      2978 5.13712E-02-1.22142E-01-4.81035E+02-4.05471E-01 3.44016E+02 7.14981E+00
 -1      2979 1.75540E-01-1.28375E-01-4.81410E+02-4.89021E-01 3.29620E+02 8.37996E+00
 -1      2980 1.00025E-01-1.20688E-01-5.34234E+02-5.83547E-01 3.41313E+02 7.36869E+00
 -1      2981 6.58029E-02-8.64071E-02-6.14861E+02-2.96004E-01 2.74756E+02 1.12491E+01
 -1      2982 3.11674E-02-6.67130E-02-3.74333E+02-1.91770E-01 3.44202E+02 6.86646E+00
 -1      2983 1.09279E-01-6.81704E-02-3.74514E+02-2.36295E-01 3.29703E+02 8.06476E+00
 -1      2984 6.07325E-02-6.95287E-02-4.27704E+02-2.82917E-01 3.41591E+02 6.99141E+00
 -1      2985 4.04159E-02-4.79757E-02-4.81417E+02-1.38198E-01 2.74888E+02 1.09314E+01
 -1      2986 1.78835E-02-3.28722E-02-2.67442E+02-8.57292E-02 3.44292E+02 6.71456E+00
 -1      2987 6.36499E-02-3.28771E-02-2.67526E+02-1.08404E-01 3.29745E+02 7.89249E+00
 -1      2988 3.48924E-02-3.53925E-02-3.20905E+02-1.30388E-01 3.41727E+02 6.78306E+00
 -1      2989 2.32460E-02-2.40934E-02-3.47764E+02-6.07175E-02 2.74950E+02 1.07609E+01
 -1      2990 9.54703E-03-1.42748E-02-1.60452E+02-3.53799E-02 3.44333E+02 6.63708E+00
 -1      2991 3.41514E-02-1.40488E-02-1.60489E+02-4.61772E-02 3.29765E+02 7.80310E+00
 -1      2992 1.89121E-02-1.58489E-02-2.13961E+02-5.63272E-02 3.41792E+02 6.67299E+00
 -1      2993 1.23615E-02-1.07321E-02-2.14002E+02-2.44729E-02 2.74979E+02 1.06741E+01
 -1      2994 4.21871E-03-4.62797E-03-5.34144E+01-1.19439E-02 3.44350E+02 6.60126E+00
 -1      2995 1.48544E-02-4.60807E-03-5.34269E+01-1.61857E-02 3.29775E+02 7.76125E+00
 -1      2996 9.23178E-03-5.75923E-03-1.06940E+02-2.17395E-02 3.41820E+02 6.61849E+00
 -1      2997 5.41329E-03-3.61547E-03-8.01873E+01-7.98094E-03 2.74991E+02 1.06341E+01
 -1      2998 2.13301E-04 7.11127E-04 5.36430E+01 8.46850E-04 3.44355E+02 6.59069E+00
 -1      2999 1.14999E-04 3.15389E-04 5.36458E+01 8.75921E-04 3.29777E+02 7.74899E+00
 -1      3000 2.90185E-03-8.12072E-04 1.15129E-01-5.01344E-03 3.41831E+02 6.59614E+00
 -1      3001 2.44921E-04 5.08931E-04 5.36492E+01 7.83961E-04 2.74994E+02 1.06224E+01
 -1      3002-4.03942E-03 5.01640E-03 1.60700E+02 1.38518E-02 3.44349E+02 6.60079E+00
 -1      3003-1.54516E-02 4.00891E-03 1.60718E+02 1.81398E-02 3.29774E+02 7.76137E+00
 -1      3004-2.52758E-03 1.96675E-03 1.07180E+02 6.77526E-03 3.41831E+02 6.59592E+00
 -1      3005-5.15906E-03 4.00882E-03 1.87485E+02 9.77848E-03 2.74990E+02 1.06338E+01
 -1      3006-1.02656E-02 1.09401E-02 2.67736E+02 3.78942E-02 3.44329E+02 6.63754E+00
 -1      3007-3.76530E-02 9.10784E-03 2.67778E+02 4.86906E-02 3.29762E+02 7.80517E+00
 -1      3008-9.42208E-03 4.63754E-03 2.14234E+02 2.39195E-02 3.41818E+02 6.61851E+00
 -1      3009-1.29696E-02 8.86326E-03 3.21297E+02 2.69409E-02 2.74976E+02 1.06750E+01
 -1      3010-2.06532E-02 2.11280E-02 3.74720E+02 8.90793E-02 3.44280E+02 6.71953E+00
 -1      3011-7.34701E-02 1.84115E-02 3.74809E+02 1.11636E-01 3.29733E+02 7.90102E+00
 -1      3012-2.05687E-02 8.87366E-03 3.21251E+02 5.92544E-02 3.41784E+02 6.67566E+00
 -1      3013-2.58461E-02 1.70722E-02 4.55051E+02 6.41944E-02 2.74940E+02 1.07666E+01
 -1      3014-3.80888E-02 3.81394E-02 4.81599E+02 1.95717E-01 3.44172E+02 6.88336E+00
 -1      3015-1.31257E-01 3.52136E-02 4.81786E+02 2.39867E-01 3.29674E+02 8.08880E+00
 -1      3016-3.96630E-02 1.61260E-02 4.28187E+02 1.34100E-01 3.41707E+02 6.79369E+00
 -1      3017-4.70921E-02 3.05582E-02 5.88686E+02 1.42674E-01 2.74862E+02 1.09491E+01
 -1      3018-6.60595E-02 6.24152E-02 5.88275E+02 4.08634E-01 3.43949E+02 7.19269E+00
 -1      3019-2.19169E-01 6.21879E-02 5.88665E+02 4.91296E-01 3.29555E+02 8.43615E+00
 -1      3020-7.15406E-02 2.66831E-02 5.34966E+02 2.86693E-01 3.41544E+02 7.02035E+00
 -1      3021-8.01816E-02 4.95929E-02 7.22090E+02 3.00539E-01 2.74697E+02 1.12927E+01
 -1      3022-1.07844E-01 8.52420E-02 6.94587E+02 8.16722E-01 3.43507E+02 7.75031E+00
 -1      3023-3.39305E-01 9.64735E-02 6.95380E+02 9.65271E-01 3.29328E+02 9.04842E+00
 -1      3024-1.21714E-01 3.57910E-02 6.41459E+02 5.84940E-01 3.41217E+02 7.43467E+00
 -1      3025-1.26765E-01 6.76426E-02 8.55079E+02 6.04713E-01 2.74365E+02 1.19091E+01
 -1      3026-1.62904E-01 7.16240E-02 8.00281E+02 1.56919E+00 3.42661E+02 8.70996E+00
 -1      3027-4.71464E-01 1.16792E-01 8.01848E+02 1.82480E+00 3.28910E+02 1.00747E+01
 -1      3028-1.93688E-01 2.31393E-02 7.47458E+02 1.14529E+00 3.40583E+02 8.15820E+00
 -1      3029-1.80743E-01 5.79671E-02 9.87350E+02 1.16750E+00 2.73714E+02 1.29616E+01
 -1      3030-2.22003E-01-7.73924E-02 9.04998E+02 2.90362E+00 3.41098E+02 1.02784E+01
 -1      3031-5.36975E-01 5.66524E-02 9.07997E+02 3.32270E+00 3.28162E+02 1.16952E+01
 -1      3032-2.82830E-01-7.08826E-02 8.52666E+02 2.15821E+00 3.39399E+02 9.36003E+00
 -1      3033-2.16062E-01-5.24777E-02 1.11847E+03 2.16650E+00 2.72478E+02 1.46615E+01
 -1      3034-2.31557E-01-5.63921E-01 1.00834E+03 5.17547E+00 3.38324E+02 1.26858E+01
 -1      3035-3.05845E-01-2.20476E-01 1.01389E+03 5.82056E+00 3.26890E+02 1.40569E+01
 -1      3036-3.56533E-01-3.85006E-01 9.56709E+02 3.91826E+00 3.37265E+02 1.12462E+01
 -1      3037-1.50429E-01-4.30047E-01 1.24787E+03 3.86330E+00 2.70196E+02 1.72174E+01
 -1      3038-1.21694E-01-1.76344E+00 1.11001E+03 8.86876E+00 3.33637E+02 1.60662E+01
 -1      3039 7.69973E-01-9.06820E-01 1.11994E+03 9.78330E+00 3.24861E+02 1.70726E+01
 -1      3040-3.30384E-01-1.17508E+00 1.05930E+03 6.84710E+00 3.33602E+02 1.39670E+01
 -1      3041 1.89033E-01-1.34166E+00 1.37513E+03 6.59764E+00 2.66180E+02 2.06789E+01
 -1      3042 7.55886E-01-3.58417E+00 1.21082E+03 1.45758E+01 3.26338E+02 2.01384E+01
 -1      3043 4.17110E+00-1.67680E+00 1.22785E+03 1.56713E+01 3.22156E+02 1.99207E+01
 -1      3044 7.11877E-02-2.71321E+00 1.16049E+03 1.14948E+01 3.27667E+02 1.74787E+01
 -1      3045 1.38669E+00-3.07058E+00 1.50036E+03 1.07603E+01 2.59540E+02 2.45187E+01
 -1      3046 2.12110E+00-5.49857E+00 1.31176E+03 2.28498E+01 3.16491E+02 2.32295E+01
 -1      3047 1.31981E+01-3.82124E-01 1.34052E+03 2.37672E+01 3.19738E+02 1.96560E+01
 -1      3048 1.31980E+00-4.53368E+00 1.26214E+03 1.84688E+01 3.19201E+02 2.05392E+01
 -1      3049 4.34568E+00-4.40799E+00 1.62727E+03 1.65566E+01 2.50361E+02 2.65250E+01
 -1      3050 1.59903E+01 9.43714E+00 1.42800E+03 3.40198E+01 3.08834E+02 1.95515E+01
 -1      3051 3.96602E+01 1.81914E+01 1.46789E+03 3.31587E+01 3.24429E+02 7.99201E+00
 -1      3052 5.98573E+00-2.08262E+00 1.36495E+03 2.83285E+01 3.09688E+02 2.04296E+01
 -1      3053 1.59059E+01 1.20374E-01 1.76071E+03 2.44045E+01 2.41480E+02 1.99676E+01
 -1      3054 2.69619E+01 5.82628E+01 1.54566E+03 4.55062E+01 3.07672E+02-2.07804E+01
 -1      3055 1.10349E+02 8.75579E+01 1.59475E+03 4.09544E+01 3.37193E+02-3.96012E+01
 -1      3056 1.51166E+01 2.33083E+01 1.48524E+03 4.03604E+01 3.04932E+02-1.30763E+00
 -1      3057 3.81549E+01 4.80383E+01 1.93496E+03 3.16554E+01 2.57998E+02-2.87419E+01
 -1      3058 2.83511E+02 3.50167E+02 1.70600E+03 5.19834E+01 3.12292E+02-1.98347E+02
 -1      3059 2.84178E+02 3.20124E+02 1.63249E+03 3.17853E+01 3.59844E+02-1.49504E+02
 -1      3060 9.96558E+01 1.48222E+02 1.56445E+03 5.09700E+01 3.10678E+02-8.50662E+01
 -1      3061 3.42038E+02 3.11678E+02 2.19796E+03 4.21408E+01 3.04037E+02-2.41761E+02
 -1      3062 6.54499E+02 6.54497E+02 1.42853E+03-7.97158E-04 1.25057E+02-2.91436E+02
 -1      3063 6.52675E+02 6.52675E+02 1.42461E+03 8.37292E-04 1.61512E+02-2.22217E+02
 -1      3064 3.57166E+02 4.59574E+02 1.54361E+03 2.08084E+01 2.36909E+02-2.50100E+02
 -1      3065 7.90046E+02 7.90048E+02 1.72447E+03 6.68705E-04 1.96994E+02-3.62443E+02
 -1      3066-1.04080E+03-1.04079E+03-2.27170E+03 6.02416E-04-9.13716E+01-6.92632E+02
 -1      3067 8.68974E+01-1.33558E+02-1.36092E+03-7.39499E+00 1.63312E+02 5.28544E+01
 -1      3068-7.76353E+02-7.76359E+02-1.69458E+03-6.91924E-04 2.90108E+01-4.69167E+02
 -1      3069-1.27444E+02-2.52091E+02-1.49413E+03-2.84224E+01 2.55426E+02-8.27517E+01
 -1      3070-1.29664E+03-1.29664E+03-2.83020E+03-7.27343E-04-1.97261E+01-8.61958E+02
 -1      3071-2.46977E+02-4.85956E+02-1.73151E+03-2.11165E+01 3.88719E+01-2.68314E+02
 -1      3072 1.35356E+02-5.75706E+01-1.77242E+03-9.90476E+00 1.56317E+02 6.50124E+01
 -1      3073-5.95064E+00 2.43088E+01-1.22169E+03-9.68473E+00 2.27588E+02 1.97496E+01
 -1      3074-2.77576E+01-4.25123E+01-1.38439E+03-3.03306E+01 2.64779E+02-1.10025E+00
 -1      3075 1.04076E+02 4.13941E+00-1.21916E+03-1.26400E+01 1.88771E+02 3.31973E+01
 -1      3076-1.00881E+01 3.21330E+01-1.56873E+03-8.82500E+00 1.81823E+02 2.48394E+01
 -1      3077 1.36050E+01 3.51866E+01-1.21087E+03-3.08386E+00 2.85797E+02 5.35417E+00
 -1      3078-8.22422E+00 3.33394E+00-1.27692E+03-1.95320E+01 2.94800E+02 1.43790E+01
 -1      3079-3.07945E+00 2.94190E+01-1.23303E+03-6.01866E+00 2.55562E+02 2.99615E+00
 -1      3080 2.15684E+01 4.15119E+01-1.52270E+03-2.77518E+00 2.20958E+02 7.21870E+00
 -1      3081 5.87613E-01 2.32507E+01-1.14674E+03-2.06234E+00 3.23769E+02 3.72386E+00
 -1      3082-1.93358E+00 1.03224E+01-1.17835E+03-1.31396E+01 3.17446E+02 1.33563E+01
 -1      3083 6.69752E+00 3.06271E+01-1.17824E+03-2.32504E+00 3.02423E+02 3.63466E+00
 -1      3084 9.97111E-01 2.07923E+01-1.45059E+03-1.81450E+00 2.58067E+02 4.80473E+00
 -1      3085 9.57332E-01 1.29849E+01-1.07204E+03-1.03569E+00 3.50825E+02 2.17786E+00
 -1      3086-7.49410E-01 5.90412E+00-1.08880E+03-8.17578E+00 3.36003E+02 1.10153E+01
 -1      3087 7.29741E-01 1.81021E+01-1.11014E+03-1.34581E+00 3.35585E+02 1.66282E+00
 -1      3088 1.75181E+00 1.18549E+01-1.35545E+03-9.63435E-01 2.83044E+02 2.62262E+00
 -1      3089-1.53688E-01 6.23665E+00-9.86235E+02-5.95970E-01 3.67136E+02 1.46498E+00
 -1      3090-2.16489E-01 2.78074E+00-9.94585E+02-4.92949E+00 3.47860E+02 8.49814E+00
 -1      3091 5.82317E-01 9.66397E+00-1.02925E+03-6.41740E-01 3.56904E+02 1.21199E+00
 -1      3092 1.80125E-01 5.64351E+00-1.24823E+03-5.38843E-01 2.97859E+02 1.51542E+00
 -1      3093-2.03110E-01 2.83131E+00-8.92645E+02-3.17637E-01 3.76433E+02 1.00445E+00
 -1      3094-4.62856E-02 1.03385E+00-8.96752E+02-2.84099E+00 3.54899E+02 6.61861E+00
 -1      3095 3.86960E-02 4.64126E+00-9.39469E+02-3.34390E-01 3.69539E+02 8.48056E-01
 -1      3096 1.95722E-03 2.65696E+00-1.13065E+03-2.78863E-01 3.06011E+02 8.58543E-01
 -1      3097-2.28696E-01 1.19671E+00-7.93620E+02-1.66660E-01 3.81449E+02 7.60741E-01
 -1      3098 1.16499E-02 2.96105E-01-7.95520E+02-1.57581E+00 3.58827E+02 5.33081E+00
 -1      3099-3.67177E-02 2.14425E+00-8.43108E+02-1.60466E-01 3.76562E+02 6.81997E-01
 -1      3100-1.20226E-01 1.17504E+00-1.00638E+03-1.39593E-01 3.10286E+02 4.99532E-01
 -1      3101-1.66937E-01 4.89193E-01-6.91106E+02-8.33057E-02 3.84051E+02 6.24281E-01
 -1      3102 2.64635E-02 3.73855E-02-6.91935E+02-8.40409E-01 3.60932E+02 4.51386E+00
 -1      3103-6.72058E-02 9.57139E-01-7.42336E+02-7.42592E-02 3.80302E+02 5.85808E-01
 -1      3104-1.10984E-01 5.09124E-01-8.77863E+02-6.59449E-02 3.12442E+02 3.02170E-01
 -1      3105-1.11910E-01 1.94542E-01-5.86491E+02-3.97880E-02 3.85348E+02 5.53629E-01
 -1      3106 2.51045E-02-2.62723E-02-5.86821E+02-4.30870E-01 3.62019E+02 4.02179E+00
 -1      3107-5.46714E-02 4.24545E-01-6.38786E+02-3.15225E-02 3.82214E+02 5.36874E-01
 -1      3108-8.53304E-02 2.14507E-01-7.46853E+02-2.93533E-02 3.13491E+02 1.98533E-01
 -1      3109-6.80143E-02 7.80623E-02-4.80678E+02-1.79028E-02 3.85970E+02 5.17949E-01
 -1      3110 1.92708E-02-2.74566E-02-4.80792E+02-2.11664E-01 3.62560E+02 3.73885E+00
 -1      3111-3.86526E-02 1.89627E-01-5.33586E+02-1.18620E-02 3.83155E+02 5.11615E-01
 -1      3112-5.64886E-02 8.94078E-02-6.14443E+02-1.20193E-02 3.13984E+02 1.45799E-01
 -1      3113-3.90442E-02 3.27144E-02-3.74216E+02-7.45717E-03 3.86255E+02 5.01007E-01
 -1      3114 1.31716E-02-1.59369E-02-3.74246E+02-9.90458E-02 3.62820E+02 3.58275E+00
 -1      3115-2.44044E-02 8.68167E-02-4.27457E+02-3.45301E-03 3.83599E+02 4.99377E-01
 -1      3116-3.46871E-02 3.70256E-02-4.81283E+02-4.33044E-03 3.14206E+02 1.20196E-01
 -1      3117-2.11336E-02 1.49878E-02-2.67419E+02-2.76959E-03 3.86378E+02 4.93408E-01
 -1      3118 8.28208E-03-6.47803E-03-2.67420E+02-4.36739E-02 3.62940E+02 3.50011E+00
 -1      3119-1.44219E-02 4.10893E-02-3.20830E+02-3.03322E-04 3.83799E+02 4.93685E-01
 -1      3120-1.98565E-02 1.54763E-02-3.47740E+02-1.20880E-03 3.14302E+02 1.08367E-01
 -1      3121-1.06390E-02 7.62109E-03-1.60457E+02-8.42191E-04 3.86428E+02 4.90251E-01
 -1      3122 4.73544E-03-1.27471E-03-1.60452E+02-1.77026E-02 3.62992E+02 3.45845E+00
 -1      3123-7.95252E-03 2.01036E-02-2.13949E+02 5.76698E-04 3.83884E+02 4.91208E-01
 -1      3124-1.04833E-02 6.65215E-03-2.14010E+02-1.28214E-04 3.14340E+02 1.03232E-01
 -1      3125-4.38834E-03 4.07767E-03-5.34199E+01-1.43202E-04 3.86446E+02 4.89044E-01
 -1      3126 2.18298E-03 8.10196E-04-5.34146E+01-5.83524E-03 3.63013E+02 3.43936E+00
 -1      3127-3.90218E-03 9.87448E-03-1.06944E+02 5.69649E-04 3.83918E+02 4.90200E-01
 -1      3128-4.50211E-03 2.95493E-03-8.01950E+01 1.14157E-04 3.14354E+02 1.01185E-01
 -1      3129 1.75404E-05 1.67687E-03 5.36469E+01 1.09369E-04 3.86451E+02 4.88657E-01
 -1      3130 9.45854E-05 1.14271E-03 5.36498E+01 4.92190E-04 3.63019E+02 3.43371E+00
 -1      3131-1.16092E-03 4.07916E-03 1.14641E-01 2.70428E-04 3.83929E+02 4.89819E-01
 -1      3132-6.47987E-05 1.01040E-03 5.36530E+01 7.92739E-05 3.14357E+02 1.00572E-01
 -1      3133 4.60179E-03-1.23028E-03 1.60714E+02 3.85187E-04 3.86446E+02 4.88760E-01
 -1      3134-2.13778E-03 5.57913E-04 1.60714E+02 6.94636E-03 3.63012E+02 3.43893E+00
 -1      3135 1.25136E-03-7.79500E-04 1.07189E+02-7.81668E-05 3.83928E+02 4.89723E-01
 -1      3136 4.54112E-03-1.16054E-03 1.87501E+02 7.33743E-05 3.14354E+02 1.00912E-01
 -1      3137 1.14719E-02-6.81637E-03 2.67754E+02 1.14712E-03 3.86424E+02 4.89674E-01
 -1      3138-5.20801E-03-7.45132E-04 2.67750E+02 1.91739E-02 3.62988E+02 3.45829E+00
 -1      3139 4.30617E-03-7.80503E-03 2.14249E+02-3.34065E-04 3.83916E+02 4.89901E-01
 -1      3140 1.11212E-02-5.81395E-03 3.21317E+02 4.03678E-04 3.14337E+02 1.02674E-01
 -1      3141 2.32904E-02-1.95053E-02 3.74716E+02 3.14959E-03 3.86366E+02 4.92566E-01
 -1      3142-9.92189E-03-3.46718E-03 3.74714E+02 4.56479E-02 3.62928E+02 3.50204E+00
 -1      3143 9.12144E-03-2.16392E-02 3.21255E+02-2.65202E-04 3.83877E+02 4.90682E-01
 -1      3144 2.18195E-02-1.72534E-02 4.55044E+02 1.62973E-03 3.14292E+02 1.07536E-01
 -1      3145 4.37027E-02-4.93091E-02 4.81507E+02 7.85209E-03 3.86222E+02 5.00073E-01
 -1      3146-1.71426E-02-1.04185E-02 4.81527E+02 1.01399E-01 3.62789E+02 3.59063E+00
 -1      3147 1.70994E-02-5.12496E-02 4.28133E+02 6.89365E-04 3.83778E+02 4.92933E-01
 -1      3148 3.92492E-02-4.49533E-02 5.88574E+02 4.93520E-03 3.14179E+02 1.19229E-01
 -1      3149 7.70301E-02-1.19525E-01 5.87946E+02 1.80876E-02 3.85898E+02 5.17462E-01
 -1      3150-2.75499E-02-3.02428E-02 5.88042E+02 2.13616E-01 3.62491E+02 3.76012E+00
 -1      3151 2.97928E-02-1.15465E-01 5.34745E+02 3.82568E-03 3.83549E+02 4.98513E-01
 -1      3152 6.57572E-02-1.10339E-01 7.21696E+02 1.27756E-02 3.13921E+02 1.45159E-01
 -1      3153 1.28014E-01-2.83202E-01 6.93700E+02 3.91980E-02 3.85202E+02 5.54918E-01
 -1      3154-4.07916E-02-8.71141E-02 6.94004E+02 4.30224E-01 3.61881E+02 4.06984E+00
 -1      3155 4.85740E-02-2.54613E-01 6.40832E+02 1.19393E-02 3.83050E+02 5.11044E-01
 -1      3156 1.02576E-01-2.60643E-01 8.54016E+02 3.00412E-02 3.13361E+02 1.99401E-01
 -1      3157 1.93331E-01-6.61171E-01 7.98181E+02 8.07285E-02 3.83779E+02 6.30163E-01
 -1      3158-5.39580E-02-2.42640E-01 7.98990E+02 8.32169E-01 3.60679E+02 4.61106E+00
 -1      3159 7.15023E-02-5.55758E-01 7.45935E+02 3.06262E-02 3.82012E+02 5.37642E-01
 -1      3160 1.40500E-01-6.00688E-01 9.84837E+02 6.59218E-02 3.12197E+02 3.07113E-01
 -1      3161 2.69037E-01-1.50478E+00 9.00430E+02 1.59763E-01 3.80982E+02 7.76861E-01
 -1      3162-5.62263E-02-6.40533E-01 9.02345E+02 1.54995E+00 3.58395E+02 5.51157E+00
 -1      3163 9.37092E-02-1.20045E+00 8.49285E+02 7.09734E-02 3.79944E+02 5.90157E-01
 -1      3164 1.67552E-01-1.34239E+00 1.11300E+03 1.37363E-01 3.09860E+02 5.13721E-01
 -1      3165 2.54450E-01-3.34513E+00 9.98967E+02 3.02198E-01 3.75690E+02 1.04053E+00
 -1      3166-1.98833E-02-1.56564E+00 1.00320E+03 2.77919E+00 3.54219E+02 6.93077E+00
 -1      3167 7.33523E-02-2.56330E+00 9.49679E+02 1.52059E-01 3.75973E+02 6.94611E-01
 -1      3168 6.38688E-02-2.94285E+00 1.23664E+03 2.71327E-01 3.05323E+02 8.91274E-01
 -1      3169 2.17457E-01-7.02085E+00 1.09173E+03 5.65459E-01 3.66068E+02 1.53980E+00
 -1      3170 1.30141E-01-3.51861E+00 1.10045E+03 4.80156E+00 3.46895E+02 8.99635E+00
 -1      3171 7.81147E-03-5.30813E+00 1.04538E+03 3.16185E-01 3.68656E+02 8.76657E-01
 -1      3172-8.96002E-02-6.09106E+00 1.35319E+03 5.20165E-01 2.96848E+02 1.58419E+00
 -1      3173-9.63837E-01-1.40785E+01 1.17621E+03 9.79186E-01 3.49512E+02 2.31419E+00
 -1      3174 6.63390E-01-6.74951E+00 1.19391E+03 7.93682E+00 3.34840E+02 1.17444E+01
 -1      3175-5.58440E-01-1.06369E+01 1.13410E+03 6.05581E-01 3.55736E+02 1.27455E+00
 -1      3176-1.71192E+00-1.25198E+01 1.45886E+03 9.23246E-01 2.81747E+02 2.75261E+00
 -1      3177-5.50494E-01-2.44467E+01 1.24900E+03 1.97460E+00 3.22621E+02 3.98458E+00
 -1      3178 1.90797E+00-1.09134E+01 1.28257E+03 1.27419E+01 3.16482E+02 1.42641E+01
 -1      3179-7.06485E-01-1.93119E+01 1.21340E+03 1.28300E+00 3.34369E+02 1.77180E+00
 -1      3180-8.70373E-01-2.15470E+01 1.55201E+03 1.73642E+00 2.56811E+02 5.05597E+00
 -1      3181-1.46442E+01-3.60393E+01 1.31071E+03 2.94398E+00 2.86014E+02 5.73968E+00
 -1      3182 8.54692E+00-2.28760E+00 1.38113E+03 1.89409E+01 2.95162E+02 1.52714E+01
 -1      3183-7.10790E+00-3.17832E+01 1.27933E+03 2.21865E+00 3.01894E+02 3.90144E+00
 -1      3184-2.26331E+01-4.25230E+01 1.62151E+03 2.64065E+00 2.20728E+02 7.59260E+00
 -1      3185 6.53452E+00-2.23144E+01 1.31675E+03 9.57325E+00 2.31179E+02 2.11580E+01
 -1      3186 2.95847E+01 4.86788E+01 1.49051E+03 2.96837E+01 2.68272E+02-1.61508E+00
 -1      3187 3.37729E+00-2.87834E+01 1.33165E+03 5.86899E+00 2.57377E+02 3.21266E+00
 -1      3188 1.09275E+01-3.10084E+01 1.66465E+03 8.66377E+00 1.85306E+02 2.62220E+01
 -1      3189-9.38845E+01 1.46608E+02 1.46348E+03 7.41735E+00 1.73249E+02 5.65880E+01
 -1      3190 1.36294E+02 2.72982E+02 1.60471E+03 2.80946E+01 2.64988E+02-8.94815E+01
 -1      3191-1.11947E+02-6.33196E-01 1.31245E+03 1.25116E+01 1.95406E+02 3.56262E+01
 -1      3192-1.43114E+02 6.58608E+01 1.87771E+03 1.00628E+01 1.67258E+02 6.86872E+01
 -1      3193 1.11943E+03 1.11942E+03 2.44332E+03-5.95884E-04-7.97346E+01-7.44449E+02
 -1      3194 8.33834E+02 8.33840E+02 1.82004E+03 6.84296E-04 4.04171E+01-5.04067E+02
 -1      3195 2.66006E+02 5.24752E+02 1.86283E+03 2.11149E+01 5.00229E+01-2.88487E+02
 -1      3196 1.37396E+03 1.37396E+03 2.99897E+03 7.14366E-04-4.58852E+00-9.13110E+02
 -1      3197-4.86892E+02-4.86889E+02-1.06272E+03-6.54022E-04-1.61443E+02 3.27306E+02
 -1      3198 4.29252E+01-8.48471E+01-6.30950E+02 4.75080E+00 1.19474E+02-2.30415E+01
 -1      3199-2.75981E+02-2.75979E+02-6.02366E+02-9.02878E-04 4.57647E+01 1.31289E+02
 -1      3200-1.25974E+02-1.74117E+02-7.42542E+02 5.83588E+01 2.60379E+02 9.02031E+01
 -1      3201-7.57159E+02-7.57164E+02-1.65267E+03 9.18847E-04-1.34740E+02 5.09897E+02
 -1      3202-1.21032E+02-2.44502E+02-8.15325E+02 2.08925E+01-2.55605E+01 1.28644E+02
 -1      3203 6.80647E+01-1.05775E+02-9.84164E+02 4.85365E+00 1.34046E+02-3.76979E+01
 -1      3204-3.57161E+02-3.57164E+02-7.79589E+02 7.73636E-04-3.94910E+01 2.23146E+02
 -1      3205-5.84424E+01-1.37862E+02-6.94414E+02 3.01745E+01 2.13531E+02 4.21362E+01
 -1      3206-4.35997E+02-4.36000E+02-9.51668E+02 8.13663E-04 7.15345E+01 2.01893E+02
 -1      3207-1.56900E+02-2.10893E+02-6.69550E+02 2.28658E+01 1.62383E+02 1.12601E+02
 -1      3208-1.88791E+02-2.42004E+02-1.15161E+03 5.59139E+01 2.73741E+02 1.37361E+02
 -1      3209-6.37843E+00-7.58645E+00-5.77958E+02 1.05138E+01 2.76970E+02-9.34903E+00
 -1      3210-1.61947E+01-4.78475E+01-6.83666E+02 6.07296E+01 3.55404E+02 8.90824E+00
 -1      3211 5.18087E+01-1.20581E+01-5.64585E+02 1.34008E+01 1.95669E+02-1.60705E+01
 -1      3212-6.65787E+00 2.38514E+00-8.95215E+02 1.01228E+01 2.54203E+02-1.43931E+01
 -1      3213-1.71879E+01-4.08533E+01-6.57971E+02 3.87349E+01 3.15015E+02 6.67297E-01
 -1      3214-4.26253E+01-8.03611E+01-6.79461E+02 6.29208E+01 3.13621E+02 3.88327E+01
 -1      3215-1.96646E+01-5.33393E+01-1.05449E+03 5.44114E+01 3.31060E+02 1.35864E+01
 -1      3216 6.84545E+00 1.75472E+01-5.75271E+02 4.74463E+00 3.62270E+02-2.97564E+00
 -1      3217-6.85655E+00-7.18875E+00-6.30869E+02 4.82284E+01 3.84589E+02-1.05756E+01
 -1      3218-9.23914E-01 7.97493E+00-5.81053E+02 7.47341E+00 3.18185E+02-1.87437E+00
 -1      3219 1.17748E+01 2.83972E+01-8.90022E+02 4.43590E+00 3.24658E+02-4.48445E+00
 -1      3220-3.85370E+00-3.81841E-01-6.08858E+02 2.75985E+01 3.69863E+02-7.99099E+00
 -1      3221-6.95884E+00-2.04439E+01-6.53955E+02 5.56046E+01 3.66522E+02-6.40222E-01
 -1      3222-9.35546E+00-5.54843E+00-9.73398E+02 4.22547E+01 3.46989E+02-1.50297E+01
 -1      3223 2.09741E-01 1.44787E+01-5.46965E+02 2.85948E+00 4.06287E+02-1.86799E+00
 -1      3224-1.04144E+00 2.97790E+00-5.76684E+02 3.24025E+01 3.99426E+02-1.16715E+01
 -1      3225 3.15897E+00 1.72077E+01-5.61479E+02 3.35218E+00 3.82361E+02-1.87583E+00
 -1      3226 8.69149E-02 1.85056E+01-8.47111E+02 2.57165E+00 3.66050E+02-3.05940E+00
 -1      3227-9.80625E-01 6.67475E+00-5.62713E+02 1.83025E+01 3.98854E+02-7.12148E+00
 -1      3228-2.60496E+00 3.06782E-01-6.02101E+02 4.02292E+01 3.89533E+02-1.06334E+01
 -1      3229-1.92422E+00 3.50681E+00-8.91798E+02 2.83199E+01 3.59568E+02-1.70708E+01
 -1      3230 4.91323E-01 8.62642E+00-5.08786E+02 1.50800E+00 4.33472E+02-1.02259E+00
 -1      3231-2.08185E-01 2.30945E+00-5.25242E+02 2.04840E+01 4.09380E+02-9.56757E+00
 -1      3232 5.23992E-01 1.18638E+01-5.27771E+02 1.86500E+00 4.17939E+02-8.33817E-01
 -1      3233 7.92787E-01 1.12594E+01-7.90070E+02 1.40345E+00 3.92777E+02-1.68762E+00
 -1      3234-2.35321E-01 4.38184E+00-5.17075E+02 1.13459E+01 4.17950E+02-5.56798E+00
 -1      3235-3.22739E-01 3.02983E+00-5.50843E+02 2.60875E+01 4.01926E+02-1.00694E+01
 -1      3236-4.28424E-01 2.94942E+00-8.14787E+02 1.79309E+01 3.69211E+02-1.43529E+01
 -1      3237-1.00012E-02 4.28058E+00-4.65585E+02 8.38545E-01 4.49736E+02-6.32075E-01
 -1      3238 1.74617E-01 1.02620E+00-4.74367E+02 1.23241E+01 4.16210E+02-7.27186E+00
 -1      3239 3.27481E-01 6.43096E+00-4.87195E+02 9.28813E-01 4.39494E+02-5.26114E-01
 -1      3240-5.57670E-02 5.49361E+00-7.25684E+02 7.65810E-01 4.09034E+02-9.95386E-01
 -1      3241 3.42073E-02 2.18755E+00-4.69713E+02 6.76661E+00 4.29974E+02-4.06798E+00
 -1      3242 1.06716E-01 1.67886E+00-4.99779E+02 1.60707E+01 4.10397E+02-8.12173E+00
 -1      3243 1.21591E-01 1.22572E+00-7.38862E+02 1.08106E+01 3.76155E+02-1.11702E+01
 -1      3244-7.70644E-02 1.85970E+00-4.18833E+02 4.43424E-01 4.59397E+02-3.90915E-01
 -1      3245 1.60172E-01 1.24738E-01-4.23412E+02 7.13600E+00 4.20796E+02-5.48266E+00
 -1      3246 3.87678E-02 3.04982E+00-4.42249E+02 4.77395E-01 4.52335E+02-3.22520E-01
 -1      3247-8.69979E-02 2.53492E+00-6.55499E+02 4.06720E-01 4.18501E+02-5.69506E-01
 -1      3248 4.88389E-02 7.76381E-01-4.20876E+02 3.88441E+00 4.37484E+02-2.98991E+00
 -1      3249 2.19660E-01 5.34298E-01-4.48965E+02 9.47986E+00 4.16098E+02-6.18434E+00
 -1      3250 2.20356E-01 2.55913E-01-6.62331E+02 6.26327E+00 3.80635E+02-8.62968E+00
 -1      3251-1.04928E-01 7.30722E-01-3.69496E+02 2.32505E-01 4.64904E+02-2.63864E-01
 -1      3252 1.22225E-01-1.87408E-01-3.71784E+02 3.98615E+00 4.23698E+02-4.25530E+00
 -1      3253-1.25798E-02 1.32054E+00-3.94168E+02 2.31769E-01 4.59812E+02-2.27953E-01
 -1      3254-1.22397E-01 1.07850E+00-5.81398E+02 2.09545E-01 4.23775E+02-3.37966E-01
 -1      3255 4.01017E-02 1.79859E-01-3.70452E+02 2.15592E+00 4.41955E+02-2.27154E+00
 -1      3256 1.93725E-01-2.42163E-02-3.97625E+02 5.39169E+00 4.19815E+02-4.75791E+00
 -1      3257 1.95218E-01-1.22356E-01-5.84788E+02 3.49463E+00 3.83362E+02-6.85914E+00
 -1      3258-8.30722E-02 2.60368E-01-3.18419E+02 1.17659E-01 4.67922E+02-1.92760E-01
 -1      3259 7.96435E-02-2.28662E-01-3.19508E+02 2.15095E+00 4.25437E+02-3.47039E+00
 -1      3260-3.23322E-02 5.36516E-01-3.43951E+02 1.09730E-01 4.64004E+02-1.74834E-01
 -1      3261-9.43246E-02 4.41813E-01-5.04672E+02 1.03931E-01 4.26595E+02-2.10443E-01
 -1      3262 2.67431E-02-2.19547E-02-3.18841E+02 1.15607E+00 4.44508E+02-1.82226E+00
 -1      3263 1.42252E-01-1.81199E-01-3.45659E+02 2.96110E+00 4.22109E+02-3.79929E+00
 -1      3264 1.40260E-01-1.91783E-01-5.06270E+02 1.88045E+00 3.84934E+02-5.71789E+00
 -1      3265-5.79004E-02 8.48219E-02-2.66244E+02 5.77099E-02 4.69504E+02-1.55646E-01
 -1      3266 4.94879E-02-1.74037E-01-2.66731E+02 1.12019E+00 4.26426E+02-2.99385E+00
 -1      3267-2.74435E-02 2.10351E-01-2.92325E+02 4.89684E-02 4.66259E+02-1.47846E-01
 -1      3268-6.62458E-02 1.75990E-01-4.26329E+02 4.93174E-02 4.28041E+02-1.43317E-01
 -1      3269 1.72618E-02-5.84047E-02-2.66415E+02 5.98408E-01 4.45900E+02-1.55353E+00
 -1      3270 9.44293E-02-1.71950E-01-2.93125E+02 1.57070E+00 4.23452E+02-3.19766E+00
 -1      3271 9.11361E-02-1.54379E-01-4.27032E+02 9.75076E-01 3.85801E+02-5.02224E+00
 -1      3272-3.60828E-02 2.67573E-02-2.13423E+02 2.71011E-02 4.70294E+02-1.36666E-01
 -1      3273 2.95800E-02-1.09061E-01-2.13621E+02 5.61670E-01 4.26962E+02-2.71653E+00
 -1      3274-1.96900E-02 8.32632E-02-2.39831E+02 2.03620E-02 4.67419E+02-1.33788E-01
 -1      3275-4.18843E-02 7.09632E-02-3.47041E+02 2.21359E-02 4.28750E+02-1.08985E-01
 -1      3276 1.10020E-02-4.51717E-02-2.13483E+02 2.98066E-01 4.46626E+02-1.39916E+00
 -1      3277 5.87865E-02-1.18446E-01-2.40181E+02 8.03377E-01 4.24202E+02-2.83725E+00
 -1      3278 5.53571E-02-9.88778E-02-3.47321E+02 4.86027E-01 3.86260E+02-4.61717E+00
 -1      3279-2.10303E-02 1.00836E-02-1.60240E+02 1.20784E-02 4.70668E+02-1.27483E-01
 -1      3280 1.71750E-02-6.00076E-02-1.60310E+02 2.69895E-01 4.27240E+02-2.56123E+00
 -1      3281-1.25128E-02 3.58488E-02-1.86833E+02 7.49575E-03 4.67988E+02-1.26837E-01
 -1      3282-2.49531E-02 3.03351E-02-2.67233E+02 9.22471E-03 4.29082E+02-9.21575E-02
 -1      3283 6.90073E-03-2.53366E-02-1.60256E+02 1.42147E-01 4.46988E+02-1.31369E+00
 -1      3284 3.48214E-02-6.90372E-02-1.86971E+02 3.94870E-01 4.24602E+02-2.63006E+00
 -1      3285 3.19493E-02-5.51371E-02-2.67326E+02 2.31731E-01 3.86495E+02-4.39074E+00
 -1      3286-1.15047E-02 5.97975E-03-1.06868E+02 5.01616E-03 4.70835E+02-1.23250E-01
 -1      3287 9.66605E-03-2.93639E-02-1.06885E+02 1.23265E-01 4.27377E+02-2.47744E+00
 -1      3288-7.42547E-03 1.80569E-02-1.33557E+02 2.16824E-03 4.68251E+02-1.23491E-01
 -1      3289-1.40075E-02 1.45073E-02-1.87152E+02 3.44872E-03 4.29228E+02-8.42711E-02
 -1      3290 4.21260E-03-1.10227E-02-1.06867E+02 6.43276E-02 4.47159E+02-1.26808E+00
 -1      3291 1.97588E-02-3.53393E-02-1.33602E+02 1.85382E-01 4.24805E+02-2.51530E+00
 -1      3292 1.75822E-02-2.73153E-02-1.87171E+02 1.04751E-01 3.86609E+02-4.26912E+00
 -1      3293-5.83919E-03 4.81046E-03-5.33992E+01 1.88057E-03 4.70904E+02-1.21410E-01
 -1      3294 5.16230E-03-1.23402E-02-5.33999E+01 5.23791E-02 4.27442E+02-2.43421E+00
 -1      3295-4.11245E-03 1.06902E-02-8.01357E+01 2.46921E-04 4.68366E+02-1.21953E-01
 -1      3296-7.30288E-03 7.87117E-03-1.06935E+02 1.08019E-03 4.29288E+02-8.07681E-02
 -1      3297 2.41750E-03-3.06090E-03-5.33947E+01 2.70323E-02 4.47235E+02-1.24478E+00
 -1      3298 1.06901E-02-1.56886E-02-8.01458E+01 8.21169E-02 4.24903E+02-2.45421E+00
 -1      3299 9.06477E-03-1.16961E-02-1.06932E+02 4.39105E-02 3.86662E+02-4.20683E+00
 -1      3300-2.42991E-03 3.86967E-03 1.13970E-01 5.61960E-04 4.70929E+02-1.20647E-01
 -1      3301 2.31700E-03-3.65484E-03 1.14636E-01 1.85024E-02 4.27469E+02-2.41385E+00
 -1      3302-2.02322E-03 6.85035E-03-2.66426E+01-2.27699E-04 4.68411E+02-1.21271E-01
 -1      3303-3.11502E-03 4.52086E-03-2.66545E+01 2.32095E-04 4.29310E+02-7.93154E-02
 -1      3304 1.13226E-03 4.69640E-04 1.18453E-01 9.43106E-03 4.47266E+02-1.23387E+00
 -1      3305 5.26749E-03-5.44574E-03-2.66432E+01 3.28213E-02 4.24948E+02-2.42356E+00
 -1      3306 3.88121E-03-3.60184E-03-2.66511E+01 1.52132E-02 3.86685E+02-4.17785E+00
 -1      3307-2.84607E-06 2.37921E-03 5.36451E+01-5.87914E-05 4.70935E+02-1.20348E-01
 -1      3308 1.01307E-04 5.95175E-04 5.36410E+01-5.17491E-04 4.27476E+02-2.40756E+00
 -1      3309-5.80668E-04 3.98826E-03 2.68827E+01-1.53403E-04 4.68426E+02-1.20974E-01
 -1      3310-2.83862E-05 1.97922E-03 5.36506E+01-5.45119E-05 4.29315E+02-7.88320E-02
 -1      3311 1.03165E-05 1.33474E-03 5.36479E+01-2.98824E-04 4.47274E+02-1.23046E+00
 -1      3312 1.70802E-03-6.14878E-04 2.68809E+01 8.24840E-03 4.24965E+02-2.41069E+00
 -1      3313 1.01165E-04 5.74977E-04 5.36466E+01-6.65042E-04 3.86691E+02-4.16915E+00
 -1      3314 2.54546E-03-4.39509E-04 1.07178E+02-6.86473E-04 4.70928E+02-1.20327E-01
 -1      3315-2.43459E-03 2.87105E-03 1.07167E+02-1.96424E-02 4.27468E+02-2.41306E+00
 -1      3316 7.39317E-04 6.32525E-04 8.04180E+01 5.36637E-05 4.68426E+02-1.20864E-01
 -1      3317 3.22483E-03-1.47014E-03 1.33957E+02-3.55568E-04 4.29309E+02-7.89986E-02
 -1      3318-1.32526E-03 3.88348E-04 1.07178E+02-1.00885E-02 4.47265E+02-1.23325E+00
 -1      3319-1.43755E-03 1.42293E-03 8.04111E+01-9.31584E-03 4.24965E+02-2.41033E+00
 -1      3320-3.95044E-03 3.24865E-03 1.33944E+02-1.66971E-02 3.86684E+02-4.17720E+00
 -1      3321 6.37838E-03-6.40563E-03 1.60695E+02-2.01949E-03 4.70901E+02-1.20756E-01
 -1      3322-6.41348E-03 4.57308E-03 1.60682E+02-5.37990E-02 4.27438E+02-2.43406E+00
 -1      3323 2.47498E-03-5.13522E-03 1.33946E+02 1.15916E-04 4.68409E+02-1.20928E-01
 -1      3324 7.99861E-03-8.31301E-03 2.14240E+02-1.24500E-03 4.29284E+02-8.01234E-02
 -1      3325-3.35729E-03-2.61933E-03 1.60692E+02-2.78487E-02 4.47232E+02-1.24425E+00
 -1      3326-5.60690E-03 2.08553E-03 1.33935E+02-3.40884E-02 4.24946E+02-2.42314E+00
 -1      3327-1.00979E-02 6.00554E-03 2.14224E+02-4.58202E-02 3.86658E+02-4.20695E+00
 -1      3328 1.29579E-02-1.97075E-02 2.14170E+02-5.15361E-03 4.70825E+02-1.22275E-01
 -1      3329-1.34146E-02 6.22986E-03 2.14166E+02-1.25000E-01 4.27368E+02-2.48159E+00
 -1      3330 5.26715E-03-1.69666E-02 1.87445E+02-3.72126E-04 4.68359E+02-1.21354E-01
 -1      3331 1.59804E-02-2.35608E-02 2.94461E+02-3.67231E-03 4.29216E+02-8.33231E-02
 -1      3332-6.76638E-03-9.47268E-03 2.14165E+02-6.53204E-02 4.47149E+02-1.26950E+00
 -1      3333-1.25915E-02 1.82577E-03 1.87438E+02-8.37028E-02 4.24897E+02-2.45622E+00
 -1      3334-2.07471E-02 9.81342E-03 2.94461E+02-1.07209E-01 3.86598E+02-4.27362E+00
 -1      3335 2.42292E-02-4.96636E-02 2.67550E+02-1.21443E-02 4.70644E+02-1.26347E-01
 -1      3336-2.57943E-02 6.94226E-03 2.67590E+02-2.71624E-01 4.27218E+02-2.57739E+00
 -1      3337 9.93592E-03-4.23550E-02 2.40873E+02-2.27969E-03 4.68235E+02-1.22643E-01
 -1      3338 2.93917E-02-5.80770E-02 3.74544E+02-9.49618E-03 4.29053E+02-9.10858E-02
 -1      3339-1.25375E-02-2.49008E-02 2.67553E+02-1.43125E-01 4.46965E+02-1.32107E+00
 -1      3340-2.49256E-02-6.10322E-05 2.40894E+02-1.87173E-01 4.24790E+02-2.52525E+00
 -1      3341-3.92892E-02 1.44921E-02 3.74610E+02-2.34451E-01 3.86467E+02-4.40718E+00
 -1      3342 4.23547E-02-1.16952E-01 3.20738E+02-2.69141E-02 4.70242E+02-1.35914E-01
 -1      3343-4.69918E-02 2.03357E-03 3.20900E+02-5.62270E-01 4.26915E+02-2.75957E+00
 -1      3344 1.73993E-02-9.69997E-02 2.94156E+02-7.50356E-03 4.67951E+02-1.25886E-01
 -1      3345 5.07161E-02-1.35858E-01 4.54346E+02-2.23734E-02 4.28686E+02-1.08368E-01
 -1      3346-2.20877E-02-6.02800E-02 3.20775E+02-2.98372E-01 4.46577E+02-1.42038E+00
 -1      3347-4.62245E-02-6.72948E-03 2.94263E+02-3.96202E-01 4.24568E+02-2.65888E+00
 -1      3348-7.02651E-02 1.62579E-02 4.54593E+02-4.87769E-01 3.86201E+02-4.66001E+00
 -1      3349 6.92410E-02-2.66970E-01 3.73552E+02-5.68799E-02 4.69401E+02-1.56670E-01
 -1      3350-8.16666E-02-2.34289E-02 3.74009E+02-1.11691E+00 4.26334E+02-3.09033E+00
 -1      3351 2.84393E-02-2.14074E-01 3.47153E+02-2.00515E-02 4.67345E+02-1.33224E-01
 -1      3352 8.23993E-02-3.09313E-01 5.33604E+02-4.92831E-02 4.27912E+02-1.44599E-01
 -1      3353-3.72856E-02-1.42429E-01 3.73690E+02-5.96440E-01 4.45804E+02-1.60299E+00
 -1      3354-8.12650E-02-2.76549E-02 3.47472E+02-8.02418E-01 4.24135E+02-2.90498E+00
 -1      3355-1.18808E-01 9.65365E-04 5.34282E+02-9.72600E-01 3.85685E+02-5.11718E+00
 -1      3356 1.01863E-01-5.97737E-01 4.25684E+02-1.15428E-01 4.67737E+02-1.98583E-01
 -1      3357-1.34650E-01-1.08294E-01 4.26784E+02-2.13803E+00 4.25271E+02-3.66450E+00
 -1      3358 4.18661E-02-4.63528E-01 3.99622E+02-4.78929E-02 4.66119E+02-1.48914E-01
 -1      3359 1.21476E-01-6.92351E-01 6.11867E+02-1.03078E-01 4.26359E+02-2.16725E-01
 -1      3360-6.01920E-02-3.31299E-01 4.26075E+02-1.14848E+00 4.44335E+02-1.92440E+00
 -1      3361-1.35164E-01-8.77053E-02 4.00415E+02-1.56336E+00 4.23327E+02-3.33849E+00
 -1      3362-1.87778E-01-7.17176E-02 6.13483E+02-1.86669E+00 3.84723E+02-5.90740E+00
 -1      3363 1.34185E-01-1.30912E+00 4.76642E+02-2.27545E-01 4.64591E+02-2.80616E-01
 -1      3364-2.09097E-01-3.42257E-01 4.79059E+02-3.95272E+00 4.23422E+02-4.61442E+00
 -1      3365 5.42883E-02-9.88777E-01 4.51166E+02-1.07056E-01 4.63761E+02-1.80195E-01
 -1      3366 1.65101E-01-1.51412E+00 6.88414E+02-2.06755E-01 4.23375E+02-3.55444E-01
 -1      3367-9.14194E-02-7.54411E-01 4.77600E+02-2.13640E+00 4.41668E+02-2.46459E+00
 -1      3368-2.10656E-01-2.45534E-01 4.52947E+02-2.93930E+00 4.21894E+02-4.06697E+00
 -1      3369-2.70626E-01-2.94962E-01 6.91941E+02-3.45587E+00 3.83008E+02-7.20755E+00
 -1      3370 1.14724E-01-2.77492E+00 5.25703E+02-4.33533E-01 4.58914E+02-4.29456E-01
 -1      3371-2.83788E-01-8.74459E-01 5.30688E+02-7.06344E+00 4.20374E+02-6.09820E+00
 -1      3372 4.13497E-02-2.06852E+00 5.01183E+02-2.26024E-01 4.59423E+02-2.43035E-01
 -1      3373 1.44156E-01-3.23677E+00 7.62155E+02-3.99979E-01 4.17876E+02-6.09145E-01
 -1      3374-1.19011E-01-1.62769E+00 5.27858E+02-3.84211E+00 4.37044E+02-3.32807E+00
 -1      3375-2.99170E-01-6.16622E-01 5.04910E+02-5.34094E+00 4.19474E+02-5.22900E+00
 -1      3376-3.28603E-01-8.53619E-01 7.69396E+02-6.17528E+00 3.80089E+02-9.22354E+00
 -1      3377 6.04709E-02-5.58588E+00 5.71892E+02-8.20900E-01 4.49069E+02-7.13155E-01
 -1      3378-3.28218E-01-1.92680E+00 5.81652E+02-1.21840E+01 4.15637E+02-8.24434E+00
 -1      3379-5.27850E-03-4.18216E+00 5.48837E+02-4.66388E-01 4.51770E+02-3.56573E-01
 -1      3380 1.31843E-01-6.51715E+00 8.31676E+02-7.51556E-01 4.08159E+02-1.07767E+00
 -1      3381-1.13776E-01-3.29402E+00 5.76399E+02-6.68514E+00 4.29376E+02-4.61497E+00
 -1      3382-3.66469E-01-1.38317E+00 5.56247E+02-9.37676E+00 4.15611E+02-6.94989E+00
 -1      3383-2.57322E-01-1.95734E+00 8.45823E+02-1.06349E+01 3.75401E+02-1.21035E+01
 -1      3384-5.00000E-01-1.02318E+01 6.14020E+02-1.47865E+00 4.32715E+02-1.17373E+00
 -1      3385 8.44815E-02-3.02468E+00 6.32566E+02-2.02405E+01 4.08747E+02-1.09516E+01
 -1      3386-3.21203E-01-7.95288E+00 5.92957E+02-9.09184E-01 4.38789E+02-5.98540E-01
 -1      3387-7.79934E-01-1.25852E+01 8.94898E+02-1.37758E+00 3.91747E+02-1.83941E+00
 -1      3388 1.85512E-01-5.48066E+00 6.23294E+02-1.12041E+01 4.17286E+02-6.37835E+00
 -1      3389-2.73454E-01-2.56516E+00 6.07061E+02-1.58825E+01 4.09802E+02-9.25769E+00
 -1      3390 3.12263E-01-3.57353E+00 9.21664E+02-1.76151E+01 3.68345E+02-1.56751E+01
 -1      3391-1.43664E-01-1.58134E+01 6.50334E+02-2.81877E+00 4.05762E+02-2.15596E+00
 -1      3392 1.04210E+00-2.64919E+00 6.84104E+02-3.20263E+01 3.99028E+02-1.33265E+01
 -1      3393-5.29950E-01-1.34995E+01 6.32041E+02-1.83365E+00 4.17291E+02-9.62387E-01
 -1      3394-1.61055E-03-1.97069E+01 9.50108E+02-2.52674E+00 3.65264E+02-3.34621E+00
 -1      3395 1.05507E+00-7.00968E+00 6.68199E+02-1.80842E+01 3.98428E+02-8.14177E+00
 -1      3396 1.93367E-01-3.40558E+00 6.58168E+02-2.57792E+01 4.01406E+02-1.15148E+01
 -1      3397 1.91698E+00-3.33366E+00 9.98735E+02-2.78128E+01 3.58959E+02-1.86458E+01
 -1      3398-7.91891E+00-1.75841E+01 6.75337E+02-4.69900E+00 3.62760E+02-3.40617E+00
 -1      3399 7.65911E+00 1.07187E+01 7.38706E+02-4.77405E+01 3.85132E+02-1.17896E+01
 -1      3400-3.57264E+00-1.81285E+01 6.63313E+02-3.30780E+00 3.82296E+02-2.16479E+00
 -1      3401-1.28889E+01-2.88893E+01 9.90033E+02-4.38116E+00 3.25086E+02-4.90203E+00
 -1      3402 4.26085E+00 2.75947E+00 7.13678E+02-2.73171E+01 3.70401E+02-8.98524E+00
 -1      3403 2.82261E+00 1.20328E+00 7.09520E+02-3.97915E+01 3.89565E+02-1.20221E+01
 -1      3404 1.00830E+01 8.26419E+00 1.08095E+03-4.15538E+01 3.47518E+02-1.61815E+01
 -1      3405 7.17522E+00 1.25167E+01 6.72101E+02-1.04817E+01 2.79442E+02-1.07453E+01
 -1      3406 1.80456E+01 5.82748E+01 7.92512E+02-6.02493E+01 3.57761E+02 1.11187E+01
 -1      3407 1.17061E+00-5.63214E+00 6.79127E+02-7.41574E+00 3.19568E+02-2.12060E+00
 -1      3408 7.35295E+00 1.32751E+00 9.89789E+02-1.00627E+01 2.57408E+02-1.57823E+01
 -1      3409 1.93324E+01 5.02984E+01 7.63607E+02-3.84634E+01 3.17400E+02 1.25326E+00
 -1      3410 7.80997E+00 2.67046E+01 7.62101E+02-5.51017E+01 3.67882E+02-1.46756E-01
 -1      3411 2.13308E+01 6.21614E+01 1.16347E+03-5.36709E+01 3.34121E+02 1.57418E+01
 -1      3412-5.00596E+01 1.00317E+02 7.31753E+02-4.71153E+00 1.24211E+02-2.65310E+01
 -1      3413 1.45114E+02 2.02550E+02 8.57383E+02-5.81038E+01 2.64884E+02 1.05175E+02
 -1      3414-5.99145E+01 1.80154E+01 6.55946E+02-1.33387E+01 1.99265E+02-1.84765E+01
 -1      3415-7.51835E+01 1.20049E+02 1.08560E+03-4.79818E+00 1.41216E+02-4.12847E+01
 -1      3416 6.71387E+01 1.61086E+02 8.03231E+02-3.00284E+01 2.18067E+02 4.92349E+01
 -1      3417 4.91767E+01 9.62646E+01 7.86389E+02-6.25345E+01 3.17022E+02 4.57193E+01
 -1      3418 2.07745E+02 2.69019E+02 1.26691E+03-5.55001E+01 2.80586E+02 1.52144E+02
 -1      3419 5.64852E+02 5.64848E+02 1.23287E+03 6.51872E-04-1.56000E+02 3.79100E+02
 -1      3420 3.18915E+02 3.18913E+02 6.96075E+02 8.98334E-04 5.10424E+01 1.51723E+02
 -1      3421 1.40303E+02 2.84373E+02 9.45778E+02-2.09437E+01-2.03996E+01 1.49013E+02
 -1      3422 8.35296E+02 8.35302E+02 1.82322E+03-9.15422E-04-1.26348E+02 5.61729E+02
 -1      3423 4.13566E+02 4.13570E+02 9.02706E+02-7.71383E-04-3.41660E+01 2.58227E+02
 -1      3424 1.80907E+02 2.44017E+02 7.73228E+02-2.27429E+01 1.67334E+02 1.30623E+02
 -1      3425 4.79366E+02 4.79369E+02 1.04633E+03-8.06944E-04 7.96890E+01 2.22165E+02
 -1      3426-2.85591E+02-2.85591E+02-6.23346E+02-7.57129E-04 1.04281E+02 7.60934E+01
 -1      3427-1.63032E+02-1.69686E+02-6.97940E+02 3.51764E+01 3.34716E+02 5.98365E+01
 -1      3428-2.75134E+02-2.75135E+02-6.00542E+02 9.56601E-04 8.12310E+01 1.00062E+02
 -1      3429-1.27120E+02-1.63611E+02-7.10724E+02 3.79655E+01 3.05552E+02 6.78042E+01
 -1      3430-4.51300E+02-4.51301E+02-9.85061E+02 7.66394E-04 1.30434E+02 1.17337E+02
 -1      3431-2.22070E+02-2.27054E+02-6.57383E+02 1.98732E+01 2.27541E+02 7.03638E+01
 -1      3432-2.44836E+02-2.31368E+02-1.08193E+03 3.31571E+01 3.49579E+02 9.13905E+01
 -1      3433-7.14773E+01-6.76219E+01-7.12686E+02 5.04535E+01 4.10693E+02 1.80467E+01
 -1      3434-5.43265E+01-6.40629E+01-7.07172E+02 5.42484E+01 3.86184E+02 1.70875E+01
 -1      3435-1.03110E+02-1.00634E+02-7.00340E+02 4.62646E+01 3.75545E+02 3.78352E+01
 -1      3436-1.02781E+02-7.81874E+01-1.09649E+03 4.57106E+01 3.85002E+02 2.80144E+01
 -1      3437-2.79552E+01-1.63483E+01-6.63983E+02 4.61351E+01 4.18228E+02-1.94155E+00
 -1      3438-1.81011E+01-1.31468E+01-6.50168E+02 4.65153E+01 4.02594E+02-5.21233E+00
 -1      3439-4.06536E+01-3.16861E+01-6.81192E+02 4.97461E+01 4.12313E+02 7.49830E+00
 -1      3440-4.11179E+01-1.66158E+01-1.02277E+03 4.09793E+01 3.78397E+02-2.06085E+00
 -1      3441-9.00354E+00-5.30497E-01-5.99831E+02 3.39906E+01 4.10609E+02-8.97250E+00
 -1      3442-6.19448E+00-2.16915E-01-5.90828E+02 3.33456E+01 4.04273E+02-9.99894E+00
 -1      3443-1.49077E+01-4.61809E+00-6.28240E+02 4.02536E+01 4.11588E+02-5.67307E+00
 -1      3444-1.42201E+01-7.93126E-01-9.25938E+02 3.00258E+01 3.69407E+02-1.30556E+01
 -1      3445-2.69562E+00 8.56855E-01-5.40093E+02 2.27818E+01 4.04790E+02-9.36161E+00
 -1      3446-1.77654E+00 1.00354E+00-5.33602E+02 2.18018E+01 4.05719E+02-9.44872E+00
 -1      3447-4.97718E+00 7.85842E-01-5.69398E+02 2.81413E+01 4.05020E+02-8.95109E+00
 -1      3448-4.44800E+00 1.19906E+00-8.36840E+02 2.01565E+01 3.64270E+02-1.40775E+01
 -1      3449-2.95787E-01 4.51489E-01-4.83242E+02 1.42610E+01 4.01367E+02-8.00979E+00
 -1      3450-2.26027E-01 4.33426E-01-4.79246E+02 1.34576E+01 4.07135E+02-7.69955E+00
 -1      3451-1.23987E+00 6.34638E-01-5.11549E+02 1.81944E+01 4.00457E+02-8.49397E+00
 -1      3452-7.93901E-01 5.16242E-01-7.52057E+02 1.26395E+01 3.61758E+02-1.23332E+01
 -1      3453 3.43686E-01-1.29890E-01-4.28525E+02 8.51089E+00 3.99747E+02-6.49261E+00
 -1      3454 1.90307E-01-1.46645E-01-4.26149E+02 7.94076E+00 4.08538E+02-6.06562E+00
 -1      3455 4.42455E-02 1.79882E-02-4.56011E+02 1.11104E+01 3.98005E+02-7.10060E+00
 -1      3456 3.85358E-01-4.44887E-02-6.69933E+02 7.55269E+00 3.60542E+02-1.02162E+01
 -1      3457 4.40535E-01-3.01843E-01-3.74613E+02 4.87536E+00 3.99047E+02-5.29838E+00
 -1      3458 2.58092E-01-3.14263E-01-3.73276E+02 4.50837E+00 4.09627E+02-4.85125E+00
 -1      3459 3.90551E-01-2.91948E-01-4.01652E+02 6.49497E+00 3.96868E+02-5.79835E+00
 -1      3460 6.14484E-01-2.51480E-01-5.88988E+02 4.32593E+00 3.59977E+02-8.50619E+00
 -1      3461 3.58413E-01-2.84404E-01-3.21020E+02 2.69196E+00 3.98781E+02-4.47442E+00
 -1      3462 2.12656E-01-2.89080E-01-3.20297E+02 2.46903E+00 4.10375E+02-4.03909E+00
 -1      3463 3.92545E-01-3.24803E-01-3.47875E+02 3.65329E+00 3.96397E+02-4.82639E+00
 -1      3464 5.30894E-01-2.49349E-01-5.08507E+02 2.38540E+00 3.59718E+02-7.31165E+00
 -1      3465 2.50528E-01-2.02453E-01-2.67508E+02 1.43397E+00 3.98693E+02-3.94900E+00
 -1      3466 1.49883E-01-2.02986E-01-2.67136E+02 1.30486E+00 4.10841E+02-3.53083E+00
 -1      3467 3.00027E-01-2.50814E-01-2.94300E+02 1.98218E+00 3.96224E+02-4.17690E+00
 -1      3468 3.79411E-01-1.81172E-01-4.28177E+02 1.26745E+00 3.59606E+02-6.54498E+00
 -1      3469 1.60502E-01-1.24410E-01-2.14005E+02 7.36284E-01 3.98674E+02-3.63184E+00
 -1      3470 9.67832E-02-1.23057E-01-2.13822E+02 6.64475E-01 4.11113E+02-3.22823E+00
 -1      3471 2.02352E-01-1.62291E-01-2.40781E+02 1.03739E+00 3.96172E+02-3.77105E+00
 -1      3472 2.45310E-01-1.12115E-01-3.47883E+02 6.48394E-01 3.59561E+02-6.08102E+00
 -1      3473 9.68527E-02-6.85858E-02-1.60491E+02 3.63301E-01 3.98675E+02-3.44881E+00
 -1      3474 5.88853E-02-6.67902E-02-1.60407E+02 3.24887E-01 4.11262E+02-3.05550E+00
 -1      3475 1.26412E-01-9.34753E-02-1.87265E+02 5.22725E-01 3.96163E+02-3.53006E+00
 -1      3476 1.48110E-01-6.20703E-02-2.67589E+02 3.18353E-01 3.59545E+02-5.81332E+00
 -1      3477 5.54461E-02-3.42458E-02-1.06966E+02 1.71123E-01 3.98682E+02-3.34745E+00
 -1      3478 3.39990E-02-3.26629E-02-1.06930E+02 1.51428E-01 4.11340E+02-2.96073E+00
 -1      3479 7.45122E-02-4.88623E-02-1.33740E+02 2.52477E-01 3.96168E+02-3.39298E+00
 -1      3480 8.43494E-02-3.11150E-02-1.87287E+02 1.48984E-01 3.59541E+02-5.66546E+00
 -1      3481 2.95515E-02-1.51181E-02-5.34345E+01 7.53466E-02 3.98688E+02-3.29399E+00
 -1      3482 1.82701E-02-1.39725E-02-5.34188E+01 6.58855E-02 4.11379E+02-2.91113E+00
 -1      3483 4.14058E-02-2.30266E-02-8.02074E+01 1.15611E-01 3.96174E+02-3.31831E+00
 -1      3484 4.45170E-02-1.38312E-02-1.06980E+02 6.50526E-02 3.59541E+02-5.58788E+00
 -1      3485 1.28322E-02-5.23116E-03 1.00712E-01 2.76033E-02 3.98692E+02-3.26849E+00
 -1      3486 7.98541E-03-4.53615E-03 1.09070E-01 2.38512E-02 4.11396E+02-2.88757E+00
 -1      3487 2.06084E-02-9.24728E-03-2.66692E+01 4.79281E-02 3.96179E+02-3.28021E+00
 -1      3488 1.91084E-02-4.82983E-03-2.66692E+01 2.35491E-02 3.59542E+02-5.55118E+00
 -1      3489-1.56732E-04-3.26074E-04 5.36372E+01-5.55018E-04 3.98693E+02-3.26090E+00
 -1      3490-1.11239E-04-1.80670E-05 5.36437E+01-5.38221E-04 4.11401E+02-2.88047E+00
 -1      3491 6.28438E-03-2.30416E-03 2.68715E+01 1.25068E-02 3.96182E+02-3.26423E+00
 -1      3492-9.14984E-05-1.93769E-04 5.36429E+01-7.28655E-04 3.59543E+02-5.54039E+00
 -1      3493-1.45451E-02 2.27194E-03 1.07173E+02-2.88135E-02 3.98691E+02-3.26870E+00
 -1      3494-9.14318E-03 2.27397E-03 1.07178E+02-2.50308E-02 4.11395E+02-2.88740E+00
 -1      3495-6.76746E-03 1.22828E-03 8.04127E+01-1.36449E-02 3.96181E+02-3.26432E+00
 -1      3496-2.06244E-02 2.64182E-03 1.33954E+02-2.51502E-02 3.59542E+02-5.55152E+00
 -1      3497-3.61199E-02 4.16608E-03 1.60708E+02-7.68138E-02 3.98685E+02-3.29651E+00
 -1      3498-2.26718E-02 3.94951E-03 1.60705E+02-6.73353E-02 4.11376E+02-2.91261E+00
 -1      3499-2.38782E-02 3.45222E-03 1.33953E+02-4.92539E-02 3.96178E+02-3.28148E+00
 -1      3500-5.06674E-02 5.39546E-03 2.14264E+02-6.70342E-02 3.59538E+02-5.59064E+00
 -1      3501-7.23866E-02 6.25889E-03 2.14240E+02-1.72836E-01 3.98673E+02-3.35747E+00
 -1      3502-4.53263E-02 5.93575E-03 2.14215E+02-1.53161E-01 4.11331E+02-2.96847E+00
 -1      3503-5.15293E-02 5.66893E-03 1.87492E+02-1.17215E-01 3.96169E+02-3.32430E+00
 -1      3504-1.00431E-01 9.32990E-03 2.94570E+02-1.51380E-01 3.59530E+02-5.67578E+00
 -1      3505-1.33349E-01 8.56288E-03 2.67771E+02-3.64831E-01 3.98654E+02-3.47674E+00
 -1      3506-8.32629E-02 8.29981E-03 2.67693E+02-3.26528E-01 4.11240E+02-3.07887E+00
 -1      3507-9.82805E-02 8.59299E-03 2.41030E+02-2.54174E-01 3.96154E+02-3.41123E+00
 -1      3508-1.82985E-01 1.51083E-02 3.74873E+02-3.20685E-01 3.59518E+02-5.84144E+00
 -1      3509-2.31088E-01 8.69843E-03 3.21305E+02-7.36296E-01 3.98627E+02-3.69671E+00
 -1      3510-1.43895E-01 8.69726E-03 3.21115E+02-6.64792E-01 4.11066E+02-3.28465E+00
 -1      3511-1.74982E-01 1.17712E-02 2.94569E+02-5.23702E-01 3.96131E+02-3.57487E+00
 -1      3512-3.13072E-01 2.12495E-02 4.55176E+02-6.49040E-01 3.59503E+02-6.14558E+00
 -1      3513-3.76159E-01-2.89062E-03 3.74855E+02-1.42934E+00 3.98602E+02-4.08315E+00
 -1      3514-2.33678E-01-2.51071E-03 3.74447E+02-1.30091E+00 4.10750E+02-3.65042E+00
 -1      3515-2.92762E-01 1.10697E-02 3.48120E+02-1.03554E+00 3.96105E+02-3.86737E+00
 -1      3516-5.00513E-01 1.93904E-02 5.35497E+02-1.26249E+00 3.59492E+02-6.67748E+00
 -1      3517-5.65011E-01-5.21893E-02 4.28466E+02-2.67632E+00 3.98616E+02-4.72849E+00
 -1      3518-3.50377E-01-5.22822E-02 4.27654E+02-2.45474E+00 4.10211E+02-4.27000E+00
 -1      3519-4.55501E-01-7.76289E-03 4.01715E+02-1.97295E+00 3.96100E+02-4.36513E+00
 -1      3520-7.30960E-01-1.68405E-02 6.15890E+02-2.36670E+00 3.59508E+02-7.56106E+00
 -1      3521-7.51074E-01-2.01896E-01 4.82252E+02-4.83704E+00 3.98769E+02-5.74361E+00
 -1      3522-4.64945E-01-2.05186E-01 4.80727E+02-4.47243E+00 4.09352E+02-5.26331E+00
 -1      3523-6.38873E-01-8.21896E-02 4.55437E+02-3.62791E+00 3.96182E+02-5.16594E+00
 -1      3524-9.16905E-01-1.48761E-01 6.96503E+02-4.27828E+00 3.59619E+02-8.94093E+00
 -1      3525-7.54716E-01-5.31771E-01 5.36509E+02-8.43052E+00 3.99317E+02-7.21259E+00
 -1      3526-4.64177E-01-5.54329E-01 5.33782E+02-7.86413E+00 4.08117E+02-6.74580E+00
 -1      3527-7.43215E-01-2.84925E-01 5.09479E+02-6.43817E+00 3.96523E+02-6.36515E+00
 -1      3528-7.89801E-01-4.86087E-01 7.77697E+02-7.45033E+00 3.59982E+02-1.09156E+01
 -1      3529-1.34926E-01-1.13243E+00 5.91796E+02-1.41103E+01 4.00776E+02-9.06549E+00
 -1      3530-5.99223E-02-1.19742E+00 5.87203E+02-1.33120E+01 4.06559E+02-8.72434E+00
 -1      3531-4.74613E-01-7.09445E-01 5.64282E+02-1.09984E+01 3.97505E+02-7.96574E+00
 -1      3532 3.61613E-01-1.07172E+00 8.60262E+02-1.24439E+01 3.60973E+02-1.33531E+01
 -1      3533 2.52959E+00-1.08860E+00 6.49535E+02-2.25278E+01 4.04122E+02-1.06909E+01
 -1      3534 1.65987E+00-1.40963E+00 6.42099E+02-2.15529E+01 4.05078E+02-1.08039E+01
 -1      3535 8.76045E-01-1.18484E+00 6.20498E+02-1.79956E+01 3.99834E+02-9.66178E+00
 -1      3536 4.24870E+00-1.42490E+00 9.45785E+02-1.98200E+01 3.63347E+02-1.53535E+01
 -1      3537 9.77853E+00 1.82216E+00 7.10422E+02-3.36120E+01 4.10162E+02-1.01800E+01
 -1      3538 6.74245E+00 1.22852E+00 7.00206E+02-3.29686E+01 4.03859E+02-1.13776E+01
 -1      3539 5.10227E+00-4.93887E-01 6.79290E+02-2.78259E+01 4.04459E+02-1.02005E+01
 -1      3540 1.49104E+01 1.77793E+00 1.03595E+03-2.95119E+01 3.68716E+02-1.42007E+01
 -1      3541 3.15372E+01 2.17084E+01 7.76044E+02-4.56587E+01 4.18735E+02-1.79592E+00
 -1      3542 2.03544E+01 1.77714E+01 7.60494E+02-4.60340E+01 4.03122E+02-5.57969E+00
 -1      3543 1.65490E+01 7.31808E+00 7.39060E+02-3.98193E+01 4.11576E+02-6.26157E+00
 -1      3544 4.44995E+01 2.09172E+01 1.13445E+03-4.03135E+01 3.78849E+02-1.87704E+00
 -1      3545 8.13561E+01 8.10816E+01 8.24349E+02-4.99881E+01 4.13078E+02 2.16195E+01
 -1      3546 6.17768E+01 7.69556E+01 8.18746E+02-5.37774E+01 3.88551E+02 2.05493E+01
 -1      3547 4.62826E+01 4.00007E+01 7.92362E+02-4.92586E+01 4.13664E+02 9.25636E+00
 -1      3548 1.12315E+02 8.97271E+01 1.20817E+03-4.50465E+01 3.88094E+02 3.15518E+01
 -1      3549 1.87011E+02 1.96597E+02 8.03761E+02-3.48799E+01 3.39306E+02 6.98563E+01
 -1      3550 1.45728E+02 1.89843E+02 8.19342E+02-3.76805E+01 3.10087E+02 7.91477E+01
 -1      3551 1.18514E+02 1.19467E+02 8.08782E+02-4.58667E+01 3.79001E+02 4.44859E+01
 -1      3552 2.68584E+02 2.56663E+02 1.18815E+03-3.27340E+01 3.56579E+02 1.01303E+02
 -1      3553 3.29169E+02 3.29169E+02 7.18464E+02 7.51298E-04 1.09629E+02 8.79996E+01
 -1      3554 3.17419E+02 3.17420E+02 6.92838E+02-9.49854E-04 8.65297E+01 1.15655E+02
 -1      3555 2.55511E+02 2.61785E+02 7.57164E+02-1.97151E+01 2.32579E+02 8.16940E+01
 -1      3556 4.95265E+02 4.95265E+02 1.08102E+03-7.57436E-04 1.38755E+02 1.29130E+02
 -1      3557-2.81830E+02-2.81830E+02-6.15140E+02-3.95300E-04 1.34260E+02 3.49252E+01
 -1      3558-1.86815E+02-1.73388E+02-6.96169E+02 1.82495E+01 3.63574E+02 2.77771E+01
 -1      3559-2.82980E+02-2.82980E+02-6.17665E+02 6.02287E-04 1.22383E+02 5.43419E+01
 -1      3560-1.74783E+02-1.70848E+02-6.95721E+02 2.52648E+01 3.52335E+02 4.26100E+01
 -1      3561-4.45863E+02-4.45862E+02-9.73190E+02 3.95936E-04 1.60403E+02 5.37753E+01
 -1      3562-2.32340E+02-2.28671E+02-6.55643E+02 9.73099E+00 2.56567E+02 3.18006E+01
 -1      3563-2.81134E+02-2.36975E+02-1.07910E+03 1.73434E+01 3.79401E+02 4.25763E+01
 -1      3564-1.02876E+02-7.27568E+01-7.18459E+02 2.66909E+01 4.39399E+02 1.28486E+01
 -1      3565-8.87513E+01-7.02074E+01-7.15817E+02 3.69919E+01 4.27868E+02 1.63881E+01
 -1      3566-1.30520E+02-1.03597E+02-6.99197E+02 2.36367E+01 4.05365E+02 2.00831E+01
 -1      3567-1.50419E+02-8.49163E+01-1.10528E+03 2.44372E+01 4.12952E+02 1.99029E+01
 -1      3568-4.55978E+01-1.78773E+01-6.74977E+02 2.56544E+01 4.40203E+02 1.29798E+00
 -1      3569-3.71012E+01-1.69934E+01-6.70502E+02 3.50684E+01 4.31077E+02 1.93761E-01
 -1      3570-6.46618E+01-3.42448E+01-6.88876E+02 2.69848E+01 4.38129E+02 6.49456E+00
 -1      3571-6.77140E+01-1.83603E+01-1.03895E+03 2.30136E+01 3.98820E+02 2.43953E+00
 -1      3572-1.75956E+01-1.13448E+00-6.12235E+02 2.01500E+01 4.21770E+02-4.09221E+00
 -1      3573-1.40849E+01-1.17092E+00-6.07542E+02 2.69042E+01 4.16849E+02-6.10792E+00
 -1      3574-2.72985E+01-5.39830E+00-6.40207E+02 2.31629E+01 4.28262E+02-1.59488E+00
 -1      3575-2.72452E+01-1.72534E+00-9.44202E+02 1.79695E+01 3.79372E+02-5.90788E+00
 -1      3576-5.98738E+00 9.66841E-01-5.49192E+02 1.40019E+01 4.06497E+02-5.22301E+00
 -1      3577-4.70480E+00 7.33253E-01-5.45595E+02 1.83935E+01 4.05479E+02-7.16224E+00
 -1      3578-1.02111E+01 9.04371E-01-5.79589E+02 1.69996E+01 4.11404E+02-4.62705E+00
 -1      3579-9.53265E+00 1.21279E+00-8.50259E+02 1.24850E+01 3.65536E+02-7.84926E+00
 -1      3580-1.27219E+00 6.77676E-01-4.89256E+02 8.99769E+00 3.96160E+02-4.85913E+00
 -1      3581-1.03177E+00 4.21254E-01-4.86894E+02 1.17042E+01 3.98058E+02-6.41029E+00
 -1      3582-3.12770E+00 8.57705E-01-5.18946E+02 1.13312E+01 3.98609E+02-4.96896E+00
 -1      3583-2.36480E+00 7.12602E-01-7.60979E+02 8.03275E+00 3.56759E+02-7.47130E+00
 -1      3584 2.41087E-01 6.03208E-02-4.32206E+02 5.47180E+00 3.89993E+02-4.12120E+00
 -1      3585 1.56953E-01-1.19846E-01-4.30750E+02 7.06158E+00 3.93849E+02-5.33045E+00
 -1      3586-4.33122E-01 1.96059E-01-4.60819E+02 7.07471E+00 3.90439E+02-4.41850E+00
 -1      3587 1.67244E-01 1.47507E-01-6.75406E+02 4.89033E+00 3.51445E+02-6.45953E+00
 -1      3588 6.04338E-01-1.74858E-01-3.76761E+02 3.18230E+00 3.86495E+02-3.45813E+00
 -1      3589 4.45711E-01-2.90475E-01-3.75918E+02 4.08269E+00 3.91570E+02-4.41422E+00
 -1      3590 4.12734E-01-1.81880E-01-4.04579E+02 4.20587E+00 3.85653E+02-3.73839E+00
 -1      3591 8.27164E-01-1.13937E-01-5.92184E+02 2.84445E+00 3.48360E+02-5.51441E+00
 -1      3592 5.55363E-01-2.07763E-01-3.22222E+02 1.78048E+00 3.84589E+02-2.97230E+00
 -1      3593 4.15955E-01-2.76102E-01-3.21756E+02 2.27209E+00 3.90385E+02-3.76070E+00
 -1      3594 5.47897E-01-2.63550E-01-3.49572E+02 2.39920E+00 3.82984E+02-3.18164E+00
 -1      3595 8.10031E-01-1.62408E-01-5.10294E+02 1.59003E+00 3.46625E+02-4.81059E+00
 -1      3596 4.09113E-01-1.59140E-01-2.68156E+02 9.60364E-01 3.83579E+02-2.65139E+00
 -1      3597 3.08429E-01-1.97749E-01-2.67912E+02 1.21944E+00 3.89784E+02-3.33517E+00
 -1      3598 4.54313E-01-2.19193E-01-2.95245E+02 1.31846E+00 3.81545E+02-2.79151E+00
 -1      3599 6.09637E-01-1.30058E-01-4.29139E+02 8.56003E-01 3.45683E+02-4.34197E+00
 -1      3600 2.69991E-01-1.01191E-01-2.14342E+02 4.99396E-01 3.83060E+02-2.45299E+00
 -1      3601 2.04518E-01-1.22052E-01-2.14221E+02 6.30880E-01 3.89488E+02-3.07466E+00
 -1      3602 3.19015E-01-1.47119E-01-2.41288E+02 6.98699E-01 3.80792E+02-2.54047E+00
 -1      3603 4.05797E-01-8.37504E-02-3.48381E+02 4.43843E-01 3.45188E+02-4.05120E+00
 -1      3604 1.66024E-01-5.67661E-02-1.60660E+02 2.49795E-01 3.82801E+02-2.33636E+00
 -1      3605 1.26250E-01-6.75853E-02-1.60603E+02 3.13827E-01 3.89347E+02-2.92264E+00
 -1      3606 2.04264E-01-8.68227E-02-1.87527E+02 3.56687E-01 3.80410E+02-2.38825E+00
 -1      3607 2.49878E-01-4.71137E-02-2.67836E+02 2.21134E-01 3.44937E+02-3.88017E+00
 -1      3608 9.62395E-02-2.85785E-02-1.07047E+02 1.19463E-01 3.82677E+02-2.27078E+00
 -1      3609 7.34427E-02-3.39333E-02-1.07023E+02 1.49161E-01 3.89283E+02-2.83767E+00
 -1      3610 1.22465E-01-4.63260E-02-1.33871E+02 1.74767E-01 3.80223E+02-2.30023E+00
 -1      3611 1.44350E-01-2.36602E-02-1.87405E+02 1.05212E-01 3.44816E+02-3.78419E+00
 -1      3612 5.16333E-02-1.26615E-02-5.34717E+01 5.34859E-02 3.82621E+02-2.23577E+00
 -1      3613 3.95310E-02-1.51305E-02-5.34608E+01 6.63315E-02 3.89255E+02-2.79252E+00
 -1      3614 6.88502E-02-2.23109E-02-8.02696E+01 8.13187E-02 3.80135E+02-2.25164E+00
 -1      3615 7.69117E-02-1.04287E-02-1.07033E+02 4.67950E-02 3.44761E+02-3.73315E+00
 -1      3616 2.23077E-02-4.49884E-03 8.54487E-02 1.99135E-02 3.82598E+02-2.21895E+00
 -1      3617 1.71320E-02-5.40932E-03 9.19380E-02 2.45361E-02 3.89244E+02-2.77090E+00
 -1      3618 3.44195E-02-9.25244E-03-2.66969E+01 3.42797E-02 3.80097E+02-2.22660E+00
 -1      3619 3.30290E-02-3.67271E-03-2.66901E+01 1.72581E-02 3.44738E+02-3.70879E+00
 -1      3620-7.70292E-04-7.70293E-04 5.36347E+01-3.37968E-04 3.82592E+02-2.21404E+00
 -1      3621-5.75813E-04-6.47943E-04 5.36405E+01-4.46236E-04 3.89241E+02-2.76454E+00
 -1      3622 1.02190E-02-2.59085E-03 2.68623E+01 9.08904E-03 3.80082E+02-2.21610E+00
 -1      3623-6.47943E-04-5.75814E-04 5.36405E+01-4.46235E-04 3.44732E+02-3.70171E+00
 -1      3624-2.63114E-02 4.95082E-04 1.07184E+02-2.06436E-02 3.82597E+02-2.21951E+00
 -1      3625-2.02251E-02 1.73047E-03 1.07189E+02-2.55050E-02 3.89243E+02-2.77142E+00
 -1      3626-1.20989E-02 7.10950E-04 8.04174E+01-9.78010E-03 3.80082E+02-2.21635E+00
 -1      3627-3.67078E-02 5.79593E-04 1.33971E+02-1.82270E-02 3.44738E+02-3.70942E+00
 -1      3628-6.41013E-02 1.93475E-04 1.60742E+02-5.43487E-02 3.82618E+02-2.23837E+00
 -1      3629-4.93008E-02 3.24712E-03 1.60742E+02-6.74925E-02 3.89252E+02-2.79542E+00
 -1      3630-4.12162E-02 2.45574E-03 1.33977E+02-3.50707E-02 3.80095E+02-2.22808E+00
 -1      3631-8.87950E-02 6.58887E-04 2.14314E+02-4.79560E-02 3.44758E+02-3.73588E+00
 -1      3632-1.26514E-01-1.69599E-03 2.14322E+02-1.20424E-01 3.82669E+02-2.27906E+00
 -1      3633-9.72762E-02 4.73603E-03 2.14307E+02-1.50488E-01 3.89274E+02-2.84750E+00
 -1      3634-8.75691E-02 3.59204E-03 1.87554E+02-8.22434E-02 3.80130E+02-2.25683E+00
 -1      3635-1.73547E-01-1.73331E-04 2.94689E+02-1.06539E-01 3.44807E+02-3.79262E+00
 -1      3636-2.29286E-01-6.49620E-03 2.67952E+02-2.50547E-01 3.82780E+02-2.35739E+00
 -1      3637-1.76176E-01 6.19560E-03 2.67900E+02-3.14948E-01 3.89326E+02-2.94837E+00
 -1      3638-1.64495E-01 4.29623E-03 2.41167E+02-1.75678E-01 3.80209E+02-2.31431E+00
 -1      3639-3.11268E-01-2.81187E-03 3.75132E+02-2.22255E-01 3.44912E+02-3.90129E+00
 -1      3640-3.89657E-01-1.84750E-02 3.21677E+02-4.99055E-01 3.83013E+02-2.49942E+00
 -1      3641-2.99133E-01 5.39186E-03 3.21551E+02-6.30678E-01 3.89442E+02-3.13248E+00
 -1      3642-2.87838E-01 3.24799E-03 2.94856E+02-3.57033E-01 3.80378E+02-2.42083E+00
 -1      3643-5.22457E-01-1.08644E-02 4.55710E+02-4.43641E-01 3.45130E+02-4.09741E+00
 -1      3644-6.17798E-01-4.95440E-02 3.75588E+02-9.56929E-01 3.83486E+02-2.74408E+00
 -1      3645-4.73715E-01-6.57048E-03 3.75318E+02-1.21534E+00 3.89693E+02-3.45206E+00
 -1      3646-4.71157E-01-5.02243E-03 3.48690E+02-6.97111E-01 3.80725E+02-2.60786E+00
 -1      3647-8.13956E-01-3.52285E-02 5.36544E+02-8.51907E-01 3.45566E+02-4.43364E+00
 -1      3648-8.90866E-01-1.27739E-01 4.29845E+02-1.76997E+00 3.84418E+02-3.14276E+00
 -1      3649-6.82276E-01-5.40211E-02 4.29315E+02-2.25892E+00 3.90217E+02-3.97800E+00
 -1      3650-7.10167E-01-3.66608E-02 4.02794E+02-1.31206E+00 3.81417E+02-2.91930E+00
 -1      3651-1.14015E+00-1.03914E-01 6.17853E+02-1.57686E+00 3.46408E+02-4.97829E+00
 -1      3652-1.09359E+00-3.14394E-01 4.84736E+02-3.15759E+00 3.86205E+02-3.74827E+00
 -1      3653-8.35229E-01-1.94183E-01 4.83763E+02-4.05105E+00 3.91286E+02-4.78812E+00
 -1      3654-9.42629E-01-1.31182E-01 4.57394E+02-2.38259E+00 3.82760E+02-3.40584E+00
 -1      3655-1.31182E+00-2.75581E-01 7.00030E+02-2.81281E+00 3.47986E+02-5.79850E+00
 -1      3656-8.55953E-01-6.75187E-01 5.40779E+02-5.42136E+00 3.89540E+02-4.57451E+00
 -1      3657-6.49902E-01-4.96988E-01 5.39092E+02-6.99609E+00 3.93407E+02-5.92256E+00
 -1      3658-9.55955E-01-3.61341E-01 5.12868E+02-4.16982E+00 3.85290E+02-4.10133E+00
 -1      3659-7.84079E-01-6.40456E-01 7.83748E+02-4.82483E+00 3.50853E+02-6.90125E+00
 -1      3660 7.07456E-01-1.24241E+00 5.98761E+02-8.90539E+00 3.95528E+02-5.49181E+00
 -1      3661 5.72353E-01-1.00638E+00 5.96028E+02-1.15829E+01 3.97445E+02-7.25270E+00
 -1      3662-1.81299E-01-8.10479E-01 5.69849E+02-7.00532E+00 3.89907E+02-4.95061E+00
 -1      3663 1.77967E+00-1.17202E+00 8.70113E+02-7.91142E+00 3.55917E+02-8.08450E+00
 -1      3664 6.00355E+00-9.50675E-01 6.60002E+02-1.38502E+01 4.05770E+02-5.95031E+00
 -1      3665 4.68675E+00-7.87621E-01 6.55870E+02-1.81915E+01 4.04779E+02-8.17078E+00
 -1      3666 2.73781E+00-1.24759E+00 6.29021E+02-1.12110E+01 3.97937E+02-5.64116E+00
 -1      3667 9.47828E+00-1.23084E+00 9.60534E+02-1.22830E+01 3.64527E+02-8.54880E+00
 -1      3668 1.93734E+01 2.91233E+00 7.24513E+02-1.99303E+01 4.21258E+02-4.60466E+00
 -1      3669 1.54831E+01 2.79664E+00 7.19200E+02-2.66076E+01 4.16366E+02-6.89897E+00
 -1      3670 1.08035E+01-3.11901E-01 6.90917E+02-1.68138E+01 4.10779E+02-5.25114E+00
 -1      3671 2.88710E+01 3.12352E+00 1.05586E+03-1.76728E+01 3.78581E+02-6.39038E+00
 -1      3672 5.16121E+01 2.38916E+01 7.88145E+02-2.53856E+01 4.40675E+02 1.76951E+00
 -1      3673 4.19470E+01 2.27098E+01 7.83241E+02-3.47008E+01 4.31564E+02 5.86125E-01
 -1      3674 3.05430E+01 8.64282E+00 7.52482E+02-2.29143E+01 4.28198E+02-1.65958E+00
 -1      3675 7.34303E+01 2.32060E+01 1.15169E+03-2.26460E+01 3.99213E+02 2.92644E+00
 -1      3676 1.17295E+02 8.71756E+01 8.30075E+02-2.64317E+01 4.41822E+02 1.52719E+01
 -1      3677 1.01134E+02 8.41851E+01 8.27432E+02-3.66362E+01 4.30274E+02 1.95336E+01
 -1      3678 7.37178E+01 4.33008E+01 8.00490E+02-2.67120E+01 4.39480E+02 7.84533E+00
 -1      3679 1.64397E+02 9.72991E+01 1.21689E+03-2.40814E+01 4.16098E+02 2.23086E+01
 -1      3680 2.14036E+02 2.00609E+02 8.00702E+02-1.80828E+01 3.68258E+02 3.24615E+01
 -1      3681 2.00321E+02 1.97783E+02 8.00599E+02-2.50377E+01 3.56977E+02 4.97720E+01
 -1      3682 1.49807E+02 1.22884E+02 8.06475E+02-2.34148E+01 4.08896E+02 2.36136E+01
 -1      3683 3.08069E+02 2.62513E+02 1.18398E+03-1.71163E+01 3.86563E+02 4.72185E+01
 -1      3684 3.24382E+02 3.24383E+02 7.08017E+02 3.91839E-04 1.39739E+02 4.04041E+01
 -1      3685 3.25890E+02 3.25890E+02 7.11324E+02-5.96975E-04 1.27801E+02 6.28546E+01
 -1      3686 2.66825E+02 2.63156E+02 7.54107E+02-9.63782E+00 2.61715E+02 3.69490E+01
 -1      3687 4.88772E+02 4.88771E+02 1.06685E+03-3.90623E-04 1.68916E+02 5.91932E+01
 -1      3688-2.83104E+02-2.83104E+02-6.17920E+02 1.77540E-12 1.42125E+02 2.73693E-11
 -1      3689-1.92349E+02-1.73670E+02-6.94666E+02 3.57020E-13 3.72391E+02 4.24274E-11
 -1      3690-2.82281E+02-2.82281E+02-6.16139E+02 2.10240E-04 1.40363E+02 1.71239E+01
 -1      3691-1.88204E+02-1.72445E+02-6.94103E+02 8.53934E+00 3.70186E+02 1.35165E+01
 -1      3692-4.47907E+02-4.47906E+02-9.77651E+02 1.34211E-12 1.68403E+02 3.24824E-11
 -1      3693-2.35959E+02-2.29470E+02-6.55757E+02 1.91680E-12 2.64842E+02 3.50827E-11
 -1      3694-2.89231E+02-2.37427E+02-1.07687E+03 1.08313E-12 3.88467E+02 4.63033E-11
 -1      3695-1.10605E+02-7.27295E+01-7.18048E+02 3.10509E-12 4.48531E+02 4.86055E-11
 -1      3696-1.05411E+02-7.12999E+01-7.16956E+02 1.28003E+01 4.46206E+02 6.38329E+00
 -1      3697-1.39822E+02-1.04831E+02-6.99501E+02 1.41531E-12 4.14081E+02 4.61218E-11
 -1      3698-1.61886E+02-8.46686E+01-1.10447E+03 3.64342E-12 4.21870E+02 5.27762E-11
 -1      3699-5.20412E+01-1.80060E+01-6.77557E+02-5.30018E-12 4.47395E+02 5.17413E-11
 -1      3700-4.88168E+01-1.72478E+01-6.76279E+02 1.25425E+01 4.45583E+02 8.02400E-01
 -1      3701-7.22733E+01-3.45393E+01-6.90682E+02-5.76525E-13 4.46269E+02 4.91271E-11
 -1      3702-7.73867E+01-1.85428E+01-1.04274E+03-2.02194E-12 4.05492E+02 4.89733E-11
 -1      3703-2.11580E+01-1.13193E+00-6.15821E+02-8.71564E-12 4.25990E+02 4.58201E-11
 -1      3704-1.96639E+01-8.57688E-01-6.14644E+02 9.96275E+00 4.24944E+02-1.88306E+00
 -1      3705-3.19907E+01-5.29879E+00-6.43266E+02-6.86587E-12 4.34049E+02 4.78737E-11
 -1      3706-3.26212E+01-1.82246E+00-9.49433E+02-3.12000E-12 3.83168E+02 5.33655E-11
 -1      3707-7.40005E+00 1.13251E+00-5.52131E+02-6.38185E-12 4.07735E+02 4.53236E-11
 -1      3708-6.97811E+00 1.10393E+00-5.51406E+02 6.98557E+00 4.07446E+02-2.54996E+00
 -1      3709-1.24421E+01 1.11939E+00-5.82678E+02-5.85027E-12 4.14138E+02 4.71872E-11
 -1      3710-1.16867E+01 1.35591E+00-8.54585E+02-4.93605E-13 3.66593E+02 5.10689E-11
 -1      3711-1.74877E+00 8.26826E-01-4.91314E+02-5.65646E-12 3.95027E+02 5.26630E-11
 -1      3712-1.74913E+00 7.15092E-01-4.90909E+02 4.51775E+00 3.95343E+02-2.41021E+00
 -1      3713-3.96451E+00 1.04335E+00-5.21387E+02-7.41374E-12 3.98635E+02 4.46105E-11
 -1      3714-3.11355E+00 8.52080E-01-7.64027E+02-2.77894E-12 3.55681E+02 4.36475E-11
 -1      3715 1.57593E-01 1.68290E-01-4.33515E+02-1.64461E-11 3.87237E+02 5.44250E-11
 -1      3716 4.42712E-02 6.58413E-02-4.33299E+02 2.75899E+00 3.87966E+02-2.06260E+00
 -1      3717-6.76869E-01 3.20752E-01-4.62482E+02-1.66935E-11 3.88469E+02 5.35559E-11
 -1      3718 2.24945E-02 2.57662E-01-6.77352E+02-1.49524E-11 3.48910E+02 4.79309E-11
 -1      3719 6.48287E-01-1.06013E-01-3.77544E+02-3.66924E-11 3.82708E+02 4.50889E-11
 -1      3720 5.27928E-01-1.82781E-01-3.77443E+02 1.61032E+00 3.83699E+02-1.73790E+00
 -1      3721 3.96620E-01-1.08017E-01-4.05625E+02-1.31810E-11 3.82360E+02 4.75367E-11
 -1      3722 8.82366E-01-4.07292E-02-5.93351E+02-2.26236E-11 3.44900E+02 4.56780E-11
 -1      3723 6.23918E-01-1.67019E-01-3.22670E+02-2.83078E-12 3.80183E+02 4.27453E-11
 -1      3724 5.31945E-01-2.17159E-01-3.22629E+02 9.03567E-01 3.81331E+02-1.49650E+00
 -1      3725 5.97908E-01-2.22459E-01-3.50194E+02-1.90748E-11 3.78873E+02 4.77824E-11
 -1      3726 9.07809E-01-1.17455E-01-5.10962E+02-3.05082E-11 3.42610E+02 5.47402E-11
 -1      3727 4.67800E-01-1.36118E-01-2.68403E+02 1.47741E-11 3.78818E+02 6.04995E-11
 -1      3728 4.05680E-01-1.66932E-01-2.68392E+02 4.88684E-01 3.80057E+02-1.33562E+00
 -1      3729 5.10533E-01-1.97363E-01-2.95599E+02 1.69576E-11 3.76952E+02 4.37124E-11
 -1      3730 6.95287E-01-1.03930E-01-4.29505E+02 6.35000E-12 3.41348E+02 5.06282E-11
 -1      3731 3.11688E-01-8.87250E-02-2.14473E+02-8.34440E-12 3.78104E+02 3.89539E-11
 -1      3732 2.72994E-01-1.06648E-01-2.14475E+02 2.54778E-01 3.79392E+02-1.23559E+00
 -1      3733 3.63269E-01-1.35989E-01-2.41481E+02-1.41888E-12 3.75928E+02 6.02036E-11
 -1      3734 4.67209E-01-6.92297E-02-3.48574E+02-3.87652E-12 3.40678E+02 3.52313E-11
 -1      3735 1.92826E-01-5.02777E-02-1.60727E+02-3.99015E-11 3.77741E+02 3.87389E-11
 -1      3736 1.70033E-01-6.02783E-02-1.60733E+02 1.27782E-01 3.79055E+02-1.17653E+00
 -1      3737 2.34423E-01-8.14016E-02-1.87629E+02-2.82111E-11 3.75399E+02 3.31325E-11
 -1      3738 2.89467E-01-3.93715E-02-2.67935E+02-4.64438E-12 3.40334E+02 3.59615E-11
 -1      3739 1.12230E-01-2.53574E-02-1.07080E+02-4.11274E-11 3.77564E+02 4.88327E-11
 -1      3740 9.94776E-02-3.06971E-02-1.07087E+02 6.12868E-02 3.78892E+02-1.14321E+00
 -1      3741 1.41286E-01-4.38301E-02-1.33923E+02-5.21107E-11 3.75135E+02 4.21125E-11
 -1      3742 1.67955E-01-1.97208E-02-1.87453E+02-2.36493E-11 3.40165E+02 2.40916E-11
 -1      3743 6.03491E-02-1.11826E-02-5.34871E+01-5.39161E-11 3.77482E+02 4.04136E-11
 -1      3744 5.36992E-02-1.38567E-02-5.34906E+01 2.75231E-02 3.78816E+02-1.12537E+00
 -1      3745 7.97119E-02-2.12517E-02-8.02949E+01-2.43929E-11 3.75008E+02 4.07159E-11
 -1      3746 8.97469E-02-8.56928E-03-1.07055E+02-7.06054E-11 3.40087E+02 3.10426E-11
 -1      3747 2.60380E-02-3.97830E-03 7.90958E-02-3.75360E-11 3.77448E+02 5.24310E-11
 -1      3748 2.32123E-02-5.07888E-03 7.96435E-02 1.02767E-02 3.78785E+02-1.11679E+00
 -1      3749 3.99001E-02-8.87626E-03-2.67083E+01-4.99658E-11 3.74951E+02 5.66389E-11
 -1      3750 3.85431E-02-2.98427E-03-2.66990E+01-7.08389E-11 3.40054E+02 4.20958E-11
 -1      3751-1.08225E-03-8.98602E-04 5.36339E+01-2.37647E-10 3.77438E+02 4.69036E-11
 -1      3752-1.02761E-03-8.75857E-04 5.36389E+01-1.68617E-04 3.78776E+02-1.11429E+00
 -1      3753 1.17460E-02-2.56118E-03 2.68585E+01-1.65474E-10 3.74930E+02 3.81977E-11
 -1      3754-9.38529E-04-6.88457E-04 5.36397E+01-1.08393E-10 3.40045E+02 2.83702E-11
 -1      3755-3.11011E-02-3.27948E-04 1.07189E+02 2.95923E-11 3.77447E+02 4.15420E-11
 -1      3756-2.79141E-02 8.97812E-04 1.07198E+02-1.06405E-02 3.78784E+02-1.11712E+00
 -1      3757-1.43083E-02 4.74191E-04 8.04197E+01-1.31561E-10 3.74930E+02 5.17090E-11
 -1      3758-4.32327E-02-3.76364E-04 1.33978E+02-7.98880E-11 3.40054E+02 4.06207E-11
 -1      3759-7.53435E-02-1.72678E-03 1.60756E+02-2.07909E-12 3.77480E+02 2.87182E-11
 -1      3760-6.74625E-02 1.34676E-03 1.60770E+02-2.79516E-02 3.78814E+02-1.12681E+00
 -1      3761-4.82478E-02 1.82738E-03 1.33988E+02 1.06767E-11 3.74950E+02 3.36122E-11
 -1      3762-1.04091E-01-1.59687E-03 2.14335E+02-1.69492E-12 3.40084E+02 2.03162E-11
 -1      3763-1.48019E-01-5.58735E-03 2.14357E+02 1.12243E-10 3.77556E+02 5.92471E-11
 -1      3764-1.32192E-01 7.30081E-04 2.14373E+02-6.17610E-02 3.78884E+02-1.14762E+00
 -1      3765-1.02030E-01 2.20249E-03 1.87580E+02 2.72521E-11 3.75003E+02 7.93845E-12
 -1      3766-2.02577E-01-4.72458E-03 2.94739E+02-2.16618E-12 3.40156E+02 1.47410E-11
 -1      3767-2.66924E-01-1.39409E-02 2.68025E+02 4.24996E-11 3.77720E+02-1.74339E-11
 -1      3768-2.37612E-01-1.88846E-03 2.68042E+02-1.28145E-01 3.79034E+02-1.18755E+00
 -1      3769-1.90772E-01 1.39611E-03 2.41224E+02 2.21467E-12 3.75121E+02 5.06332E-11
 -1      3770-3.61580E-01-1.14448E-02 3.75237E+02 9.42505E-11 3.40308E+02-8.13317E-12
 -1      3771-4.50880E-01-3.21210E-02 3.21825E+02 9.98248E-11 3.78057E+02-8.99191E-12
 -1      3772-3.99727E-01-1.03076E-02 3.21836E+02-2.54586E-01 3.79345E+02-1.25965E+00
 -1      3773-3.32038E-01-2.55177E-03 2.94970E+02 1.19202E-11 3.75366E+02-9.36621E-12
 -1      3774-6.03291E-01-2.65216E-02 4.55921E+02 2.04642E-11 3.40619E+02-2.11668E-11
 -1      3775-7.08938E-01-7.35869E-02 3.75871E+02 1.04526E-11 3.78725E+02-2.47803E-11
 -1      3776-6.24883E-01-3.59750E-02 3.75868E+02-4.86931E-01 3.79963E+02-1.38327E+00
 -1      3777-5.39766E-01-1.61911E-02 3.48911E+02 6.20047E-12 3.75860E+02-2.81310E-11
 -1      3778-9.32059E-01-6.24363E-02 5.36947E+02 5.92367E-11 3.41230E+02-2.10425E-11
 -1      3779-1.00869E+00-1.68211E-01 4.30366E+02-3.32642E-11 3.80010E+02-5.02019E-11
 -1      3780-8.81156E-01-1.07177E-01 4.30327E+02-8.98263E-01 3.81159E+02-1.58354E+00
 -1      3781-8.05273E-01-5.74273E-02 4.03203E+02-2.93407E-12 3.76823E+02 1.33474E-12
 -1      3782-1.28754E+00-1.48949E-01 6.18592E+02 4.13071E-11 3.42389E+02-6.75278E-11
 -1      3783-1.20349E+00-3.78973E-01 4.85651E+02 1.34459E-10 3.82412E+02-1.15520E-10
 -1      3784-1.03066E+00-2.86365E-01 4.85543E+02-1.59790E+00 3.83405E+02-1.88501E+00
 -1      3785-1.04867E+00-1.68465E-01 4.58119E+02 4.02316E-11 3.78644E+02-7.94315E-11
 -1      3786-1.43415E+00-3.45574E-01 7.01326E+02 1.28056E-10 3.44518E+02-1.10808E-10
 -1      3787-8.42506E-01-7.69120E-01 5.42310E+02 2.76282E-11 3.86773E+02-1.23583E-10
 -1      3788-6.62755E-01-6.47449E-01 5.42071E+02-2.73374E+00 3.87505E+02-2.29055E+00
 -1      3789-1.00872E+00-4.25396E-01 5.14091E+02 8.38923E-11 3.81989E+02-1.72054E-10
 -1      3790-7.12473E-01-7.39174E-01 7.85911E+02 7.84579E-11 3.48303E+02-1.21680E-10
 -1      3791 1.15337E+00-1.35641E+00 6.01159E+02-8.54662E-11 3.94376E+02-1.47905E-10
 -1      3792 1.21697E+00-1.22797E+00 6.00701E+02-4.47171E+00 3.94697E+02-2.72439E+00
 -1      3793 4.16722E-03-9.13221E-01 5.71786E+02-3.16537E-11 3.87923E+02-1.19993E-10
 -1      3794 2.49083E+00-1.28201E+00 8.73492E+02 1.04469E-10 3.54813E+02-1.57275E-10
 -1      3795 7.51943E+00-1.04407E+00 6.63393E+02 7.22472E-11 4.06983E+02-2.00598E-10
 -1      3796 7.10296E+00-1.02039E+00 6.62571E+02-6.91023E+00 4.06701E+02-2.90407E+00
 -1      3797 3.58941E+00-1.38844E+00 6.31845E+02-3.18140E-11 3.97941E+02-1.69845E-10
 -1      3798 1.17213E+01-1.31310E+00 9.65298E+02 3.28943E-11 3.65549E+02-2.00257E-10
 -1      3799 2.33796E+01 3.04995E+00 7.28577E+02 1.18183E-10 4.25452E+02-1.78149E-10
 -1      3800 2.17199E+01 2.71256E+00 7.27252E+02-9.85423E+00 4.24413E+02-2.11267E+00
 -1      3801 1.32635E+01-4.43039E-01 6.94443E+02 7.79022E-11 4.13489E+02-1.94528E-10
 -1      3802 3.46654E+01 3.34079E+00 1.06155E+03 1.72364E-10 3.82340E+02-1.62708E-10
 -1      3803 5.89566E+01 2.41816E+01 7.90923E+02 1.98058E-10 4.47855E+02-2.09689E-10
 -1      3804 5.52845E+01 2.32850E+01 7.89513E+02-1.24105E+01 4.46046E+02 1.06350E+00
 -1      3805 3.58604E+01 8.67650E+00 7.55881E+02 2.12976E-10 4.33964E+02-2.12103E-10
 -1      3806 8.39681E+01 2.35225E+01 1.15566E+03 5.33916E-11 4.05866E+02-1.89278E-10
 -1      3807 1.26107E+02 8.71891E+01 8.29278E+02 8.35686E-11 4.50970E+02-1.34523E-10
 -1      3808 1.20148E+02 8.55392E+01 8.28113E+02-1.26736E+01 4.48640E+02 7.58870E+00
 -1      3809 8.24191E+01 4.37590E+01 8.02328E+02 1.81933E-10 4.47622E+02-1.69197E-10
 -1      3810 1.76908E+02 9.70656E+01 1.21569E+03 3.22450E-11 4.25039E+02-1.35636E-10
 -1      3811 2.20273E+02 2.00825E+02 7.98641E+02 7.40850E-11 3.77114E+02-1.81328E-10
 -1      3812 2.15524E+02 1.99435E+02 7.98070E+02-8.45723E+00 3.74900E+02 1.57996E+01
 -1      3813 1.60434E+02 1.24296E+02 8.06508E+02 7.85098E-11 4.17639E+02-1.14694E-10
 -1      3814 3.16836E+02 2.62887E+02 1.18118E+03 7.06470E-11 3.95690E+02-1.81746E-10
 -1      3815 3.25715E+02 3.25715E+02 7.10925E+02 5.24419E-11 1.47653E+02-1.05011E-10
 -1      3816 3.24799E+02 3.24799E+02 7.08943E+02-2.08370E-04 1.45878E+02 1.98114E+01
 -1      3817 2.70836E+02 2.63915E+02 7.53904E+02 7.45021E-12 2.70036E+02-1.65160E-10
 -1      3818 4.90863E+02 4.90862E+02 1.07141E+03-5.06969E-11 1.76994E+02-1.05312E-10
 -1      3819-2.81830E+02-2.81830E+02-6.15140E+02 3.95300E-04 1.34260E+02-3.49252E+01
 -1      3820-1.86815E+02-1.73388E+02-6.96169E+02-1.82495E+01 3.63574E+02-2.77771E+01
 -1      3821-2.82281E+02-2.82281E+02-6.16139E+02-2.10240E-04 1.40363E+02-1.71239E+01
 -1      3822-1.88204E+02-1.72445E+02-6.94103E+02-8.53934E+00 3.70186E+02-1.35165E+01
 -1      3823-4.45863E+02-4.45862E+02-9.73190E+02-3.95936E-04 1.60403E+02-5.37753E+01
 -1      3824-2.32340E+02-2.28671E+02-6.55643E+02-9.73099E+00 2.56567E+02-3.18006E+01
 -1      3825-2.81134E+02-2.36975E+02-1.07910E+03-1.73434E+01 3.79401E+02-4.25763E+01
 -1      3826-1.02876E+02-7.27568E+01-7.18459E+02-2.66909E+01 4.39399E+02-1.28486E+01
 -1      3827-1.05411E+02-7.12999E+01-7.16956E+02-1.28003E+01 4.46206E+02-6.38329E+00
 -1      3828-1.30520E+02-1.03597E+02-6.99197E+02-2.36367E+01 4.05365E+02-2.00831E+01
 -1      3829-1.50419E+02-8.49163E+01-1.10528E+03-2.44372E+01 4.12952E+02-1.99029E+01
 -1      3830-4.55978E+01-1.78773E+01-6.74977E+02-2.56544E+01 4.40203E+02-1.29798E+00
 -1      3831-4.88168E+01-1.72478E+01-6.76279E+02-1.25425E+01 4.45583E+02-8.02400E-01
 -1      3832-6.46618E+01-3.42448E+01-6.88876E+02-2.69848E+01 4.38129E+02-6.49456E+00
 -1      3833-6.77140E+01-1.83603E+01-1.03895E+03-2.30136E+01 3.98820E+02-2.43953E+00
 -1      3834-1.75956E+01-1.13448E+00-6.12235E+02-2.01500E+01 4.21770E+02 4.09221E+00
 -1      3835-1.96639E+01-8.57688E-01-6.14644E+02-9.96275E+00 4.24944E+02 1.88306E+00
 -1      3836-2.72985E+01-5.39830E+00-6.40207E+02-2.31629E+01 4.28262E+02 1.59488E+00
 -1      3837-2.72452E+01-1.72534E+00-9.44202E+02-1.79695E+01 3.79372E+02 5.90788E+00
 -1      3838-5.98738E+00 9.66841E-01-5.49192E+02-1.40019E+01 4.06497E+02 5.22301E+00
 -1      3839-6.97811E+00 1.10393E+00-5.51406E+02-6.98557E+00 4.07446E+02 2.54996E+00
 -1      3840-1.02111E+01 9.04371E-01-5.79589E+02-1.69996E+01 4.11404E+02 4.62705E+00
 -1      3841-9.53265E+00 1.21279E+00-8.50259E+02-1.24850E+01 3.65536E+02 7.84926E+00
 -1      3842-1.27219E+00 6.77676E-01-4.89256E+02-8.99769E+00 3.96160E+02 4.85913E+00
 -1      3843-1.74913E+00 7.15092E-01-4.90909E+02-4.51775E+00 3.95343E+02 2.41021E+00
 -1      3844-3.12770E+00 8.57705E-01-5.18946E+02-1.13312E+01 3.98609E+02 4.96896E+00
 -1      3845-2.36480E+00 7.12602E-01-7.60979E+02-8.03275E+00 3.56759E+02 7.47130E+00
 -1      3846 2.41087E-01 6.03208E-02-4.32206E+02-5.47180E+00 3.89993E+02 4.12120E+00
 -1      3847 4.42712E-02 6.58413E-02-4.33299E+02-2.75899E+00 3.87966E+02 2.06260E+00
 -1      3848-4.33122E-01 1.96059E-01-4.60819E+02-7.07471E+00 3.90439E+02 4.41850E+00
 -1      3849 1.67244E-01 1.47507E-01-6.75406E+02-4.89033E+00 3.51445E+02 6.45953E+00
 -1      3850 6.04338E-01-1.74858E-01-3.76761E+02-3.18230E+00 3.86495E+02 3.45813E+00
 -1      3851 5.27928E-01-1.82781E-01-3.77443E+02-1.61032E+00 3.83699E+02 1.73790E+00
 -1      3852 4.12734E-01-1.81880E-01-4.04579E+02-4.20587E+00 3.85653E+02 3.73839E+00
 -1      3853 8.27164E-01-1.13937E-01-5.92184E+02-2.84445E+00 3.48360E+02 5.51441E+00
 -1      3854 5.55363E-01-2.07763E-01-3.22222E+02-1.78048E+00 3.84589E+02 2.97230E+00
 -1      3855 5.31945E-01-2.17159E-01-3.22629E+02-9.03567E-01 3.81331E+02 1.49650E+00
 -1      3856 5.47897E-01-2.63550E-01-3.49572E+02-2.39920E+00 3.82984E+02 3.18164E+00
 -1      3857 8.10031E-01-1.62408E-01-5.10294E+02-1.59003E+00 3.46625E+02 4.81059E+00
 -1      3858 4.09113E-01-1.59140E-01-2.68156E+02-9.60364E-01 3.83579E+02 2.65139E+00
 -1      3859 4.05680E-01-1.66932E-01-2.68392E+02-4.88684E-01 3.80057E+02 1.33562E+00
 -1      3860 4.54313E-01-2.19193E-01-2.95245E+02-1.31846E+00 3.81545E+02 2.79151E+00
 -1      3861 6.09637E-01-1.30058E-01-4.29139E+02-8.56003E-01 3.45683E+02 4.34197E+00
 -1      3862 2.69991E-01-1.01191E-01-2.14342E+02-4.99396E-01 3.83060E+02 2.45299E+00
 -1      3863 2.72994E-01-1.06648E-01-2.14475E+02-2.54778E-01 3.79392E+02 1.23559E+00
 -1      3864 3.19015E-01-1.47119E-01-2.41288E+02-6.98699E-01 3.80792E+02 2.54047E+00
 -1      3865 4.05797E-01-8.37504E-02-3.48381E+02-4.43843E-01 3.45188E+02 4.05120E+00
 -1      3866 1.66024E-01-5.67661E-02-1.60660E+02-2.49795E-01 3.82801E+02 2.33636E+00
 -1      3867 1.70033E-01-6.02783E-02-1.60733E+02-1.27782E-01 3.79055E+02 1.17653E+00
 -1      3868 2.04264E-01-8.68227E-02-1.87527E+02-3.56687E-01 3.80410E+02 2.38825E+00
 -1      3869 2.49878E-01-4.71137E-02-2.67836E+02-2.21134E-01 3.44937E+02 3.88017E+00
 -1      3870 9.62395E-02-2.85785E-02-1.07047E+02-1.19463E-01 3.82677E+02 2.27078E+00
 -1      3871 9.94776E-02-3.06971E-02-1.07087E+02-6.12868E-02 3.78892E+02 1.14321E+00
 -1      3872 1.22465E-01-4.63260E-02-1.33871E+02-1.74767E-01 3.80223E+02 2.30023E+00
 -1      3873 1.44350E-01-2.36602E-02-1.87405E+02-1.05212E-01 3.44816E+02 3.78419E+00
 -1      3874 5.16333E-02-1.26615E-02-5.34717E+01-5.34859E-02 3.82621E+02 2.23577E+00
 -1      3875 5.36992E-02-1.38567E-02-5.34906E+01-2.75231E-02 3.78816E+02 1.12537E+00
 -1      3876 6.88502E-02-2.23109E-02-8.02696E+01-8.13187E-02 3.80135E+02 2.25164E+00
 -1      3877 7.69117E-02-1.04287E-02-1.07033E+02-4.67950E-02 3.44761E+02 3.73315E+00
 -1      3878 2.23077E-02-4.49884E-03 8.54487E-02-1.99135E-02 3.82598E+02 2.21895E+00
 -1      3879 2.32123E-02-5.07888E-03 7.96435E-02-1.02767E-02 3.78785E+02 1.11679E+00
 -1      3880 3.44195E-02-9.25244E-03-2.66969E+01-3.42797E-02 3.80097E+02 2.22660E+00
 -1      3881 3.30290E-02-3.67271E-03-2.66901E+01-1.72581E-02 3.44738E+02 3.70879E+00
 -1      3882-7.70292E-04-7.70293E-04 5.36347E+01 3.37968E-04 3.82592E+02 2.21404E+00
 -1      3883-1.02761E-03-8.75857E-04 5.36389E+01 1.68617E-04 3.78776E+02 1.11429E+00
 -1      3884 1.02190E-02-2.59085E-03 2.68623E+01-9.08904E-03 3.80082E+02 2.21610E+00
 -1      3885-6.47943E-04-5.75813E-04 5.36405E+01 4.46235E-04 3.44732E+02 3.70171E+00
 -1      3886-2.63114E-02 4.95082E-04 1.07184E+02 2.06436E-02 3.82597E+02 2.21951E+00
 -1      3887-2.79141E-02 8.97812E-04 1.07198E+02 1.06405E-02 3.78784E+02 1.11712E+00
 -1      3888-1.20989E-02 7.10950E-04 8.04174E+01 9.78010E-03 3.80082E+02 2.21635E+00
 -1      3889-3.67078E-02 5.79593E-04 1.33971E+02 1.82270E-02 3.44738E+02 3.70942E+00
 -1      3890-6.41013E-02 1.93474E-04 1.60742E+02 5.43487E-02 3.82618E+02 2.23837E+00
 -1      3891-6.74625E-02 1.34676E-03 1.60770E+02 2.79516E-02 3.78814E+02 1.12681E+00
 -1      3892-4.12162E-02 2.45574E-03 1.33977E+02 3.50707E-02 3.80095E+02 2.22808E+00
 -1      3893-8.87950E-02 6.58886E-04 2.14314E+02 4.79560E-02 3.44758E+02 3.73588E+00
 -1      3894-1.26514E-01-1.69599E-03 2.14322E+02 1.20424E-01 3.82669E+02 2.27906E+00
 -1      3895-1.32192E-01 7.30081E-04 2.14373E+02 6.17610E-02 3.78884E+02 1.14762E+00
 -1      3896-8.75691E-02 3.59204E-03 1.87554E+02 8.22434E-02 3.80130E+02 2.25683E+00
 -1      3897-1.73547E-01-1.73331E-04 2.94689E+02 1.06539E-01 3.44807E+02 3.79262E+00
 -1      3898-2.29286E-01-6.49620E-03 2.67952E+02 2.50547E-01 3.82780E+02 2.35739E+00
 -1      3899-2.37612E-01-1.88846E-03 2.68042E+02 1.28145E-01 3.79034E+02 1.18755E+00
 -1      3900-1.64495E-01 4.29623E-03 2.41167E+02 1.75678E-01 3.80209E+02 2.31431E+00
 -1      3901-3.11268E-01-2.81187E-03 3.75132E+02 2.22255E-01 3.44912E+02 3.90129E+00
 -1      3902-3.89657E-01-1.84750E-02 3.21677E+02 4.99055E-01 3.83013E+02 2.49942E+00
 -1      3903-3.99727E-01-1.03076E-02 3.21836E+02 2.54586E-01 3.79345E+02 1.25965E+00
 -1      3904-2.87838E-01 3.24799E-03 2.94856E+02 3.57033E-01 3.80378E+02 2.42083E+00
 -1      3905-5.22457E-01-1.08644E-02 4.55710E+02 4.43641E-01 3.45130E+02 4.09741E+00
 -1      3906-6.17798E-01-4.95440E-02 3.75588E+02 9.56929E-01 3.83486E+02 2.74408E+00
 -1      3907-6.24883E-01-3.59750E-02 3.75868E+02 4.86931E-01 3.79963E+02 1.38327E+00
 -1      3908-4.71157E-01-5.02243E-03 3.48690E+02 6.97111E-01 3.80725E+02 2.60786E+00
 -1      3909-8.13956E-01-3.52285E-02 5.36544E+02 8.51907E-01 3.45566E+02 4.43364E+00
 -1      3910-8.90866E-01-1.27739E-01 4.29845E+02 1.76997E+00 3.84418E+02 3.14276E+00
 -1      3911-8.81156E-01-1.07177E-01 4.30327E+02 8.98263E-01 3.81159E+02 1.58354E+00
 -1      3912-7.10167E-01-3.66608E-02 4.02794E+02 1.31206E+00 3.81417E+02 2.91930E+00
 -1      3913-1.14015E+00-1.03914E-01 6.17853E+02 1.57686E+00 3.46408E+02 4.97829E+00
 -1      3914-1.09359E+00-3.14394E-01 4.84736E+02 3.15759E+00 3.86205E+02 3.74827E+00
 -1      3915-1.03066E+00-2.86365E-01 4.85543E+02 1.59790E+00 3.83405E+02 1.88501E+00
 -1      3916-9.42629E-01-1.31182E-01 4.57394E+02 2.38259E+00 3.82760E+02 3.40584E+00
 -1      3917-1.31182E+00-2.75581E-01 7.00030E+02 2.81281E+00 3.47986E+02 5.79850E+00
 -1      3918-8.55953E-01-6.75187E-01 5.40779E+02 5.42136E+00 3.89540E+02 4.57451E+00
 -1      3919-6.62755E-01-6.47449E-01 5.42071E+02 2.73374E+00 3.87505E+02 2.29055E+00
 -1      3920-9.55955E-01-3.61341E-01 5.12868E+02 4.16982E+00 3.85290E+02 4.10133E+00
 -1      3921-7.84079E-01-6.40456E-01 7.83748E+02 4.82483E+00 3.50853E+02 6.90125E+00
 -1      3922 7.07456E-01-1.24241E+00 5.98761E+02 8.90539E+00 3.95528E+02 5.49181E+00
 -1      3923 1.21697E+00-1.22797E+00 6.00701E+02 4.47171E+00 3.94697E+02 2.72439E+00
 -1      3924-1.81299E-01-8.10479E-01 5.69849E+02 7.00532E+00 3.89907E+02 4.95061E+00
 -1      3925 1.77967E+00-1.17202E+00 8.70113E+02 7.91142E+00 3.55917E+02 8.08450E+00
 -1      3926 6.00355E+00-9.50675E-01 6.60002E+02 1.38502E+01 4.05770E+02 5.95031E+00
 -1      3927 7.10296E+00-1.02039E+00 6.62571E+02 6.91023E+00 4.06701E+02 2.90407E+00
 -1      3928 2.73781E+00-1.24759E+00 6.29021E+02 1.12110E+01 3.97937E+02 5.64116E+00
 -1      3929 9.47828E+00-1.23084E+00 9.60534E+02 1.22830E+01 3.64527E+02 8.54880E+00
 -1      3930 1.93734E+01 2.91233E+00 7.24513E+02 1.99303E+01 4.21258E+02 4.60466E+00
 -1      3931 2.17199E+01 2.71256E+00 7.27252E+02 9.85423E+00 4.24413E+02 2.11267E+00
 -1      3932 1.08035E+01-3.11901E-01 6.90917E+02 1.68138E+01 4.10779E+02 5.25114E+00
 -1      3933 2.88710E+01 3.12352E+00 1.05586E+03 1.76728E+01 3.78581E+02 6.39038E+00
 -1      3934 5.16121E+01 2.38916E+01 7.88145E+02 2.53856E+01 4.40675E+02-1.76951E+00
 -1      3935 5.52845E+01 2.32850E+01 7.89513E+02 1.24105E+01 4.46046E+02-1.06350E+00
 -1      3936 3.05430E+01 8.64282E+00 7.52482E+02 2.29143E+01 4.28198E+02 1.65958E+00
 -1      3937 7.34303E+01 2.32060E+01 1.15169E+03 2.26460E+01 3.99213E+02-2.92644E+00
 -1      3938 1.17295E+02 8.71756E+01 8.30075E+02 2.64317E+01 4.41822E+02-1.52719E+01
 -1      3939 1.20148E+02 8.55392E+01 8.28113E+02 1.26736E+01 4.48640E+02-7.58870E+00
 -1      3940 7.37178E+01 4.33008E+01 8.00490E+02 2.67120E+01 4.39480E+02-7.84533E+00
 -1      3941 1.64397E+02 9.72991E+01 1.21689E+03 2.40814E+01 4.16098E+02-2.23086E+01
 -1      3942 2.14036E+02 2.00609E+02 8.00702E+02 1.80828E+01 3.68258E+02-3.24615E+01
 -1      3943 2.15524E+02 1.99435E+02 7.98070E+02 8.45723E+00 3.74900E+02-1.57996E+01
 -1      3944 1.49807E+02 1.22884E+02 8.06475E+02 2.34148E+01 4.08896E+02-2.36136E+01
 -1      3945 3.08069E+02 2.62513E+02 1.18398E+03 1.71163E+01 3.86563E+02-4.72185E+01
 -1      3946 3.24382E+02 3.24383E+02 7.08017E+02-3.91839E-04 1.39739E+02-4.04041E+01
 -1      3947 3.24799E+02 3.24799E+02 7.08943E+02 2.08370E-04 1.45878E+02-1.98114E+01
 -1      3948 2.66825E+02 2.63156E+02 7.54107E+02 9.63782E+00 2.61715E+02-3.69490E+01
 -1      3949 4.88772E+02 4.88771E+02 1.06685E+03 3.90623E-04 1.68916E+02-5.91932E+01
 -1      3950-2.85591E+02-2.85591E+02-6.23346E+02 7.57129E-04 1.04281E+02-7.60934E+01
 -1      3951-1.63032E+02-1.69686E+02-6.97940E+02-3.51764E+01 3.34716E+02-5.98365E+01
 -1      3952-2.82980E+02-2.82980E+02-6.17665E+02-6.02287E-04 1.22383E+02-5.43419E+01
 -1      3953-1.74783E+02-1.70848E+02-6.95721E+02-2.52648E+01 3.52335E+02-4.26100E+01
 -1      3954-4.51300E+02-4.51301E+02-9.85061E+02-7.66394E-04 1.30434E+02-1.17337E+02
 -1      3955-2.22070E+02-2.27054E+02-6.57383E+02-1.98732E+01 2.27541E+02-7.03638E+01
 -1      3956-2.44836E+02-2.31368E+02-1.08193E+03-3.31571E+01 3.49579E+02-9.13905E+01
 -1      3957-7.14773E+01-6.76219E+01-7.12686E+02-5.04535E+01 4.10693E+02-1.80467E+01
 -1      3958-8.87513E+01-7.02074E+01-7.15817E+02-3.69919E+01 4.27868E+02-1.63881E+01
 -1      3959-1.03110E+02-1.00634E+02-7.00340E+02-4.62646E+01 3.75545E+02-3.78352E+01
 -1      3960-1.02781E+02-7.81874E+01-1.09649E+03-4.57106E+01 3.85002E+02-2.80144E+01
 -1      3961-2.79552E+01-1.63483E+01-6.63983E+02-4.61351E+01 4.18228E+02 1.94155E+00
 -1      3962-3.71012E+01-1.69934E+01-6.70502E+02-3.50684E+01 4.31077E+02-1.93761E-01
 -1      3963-4.06536E+01-3.16861E+01-6.81192E+02-4.97461E+01 4.12313E+02-7.49830E+00
 -1      3964-4.11179E+01-1.66158E+01-1.02277E+03-4.09793E+01 3.78397E+02 2.06085E+00
 -1      3965-9.00354E+00-5.30497E-01-5.99831E+02-3.39906E+01 4.10609E+02 8.97250E+00
 -1      3966-1.40849E+01-1.17092E+00-6.07542E+02-2.69042E+01 4.16849E+02 6.10792E+00
 -1      3967-1.49077E+01-4.61809E+00-6.28240E+02-4.02536E+01 4.11588E+02 5.67307E+00
 -1      3968-1.42201E+01-7.93126E-01-9.25938E+02-3.00258E+01 3.69407E+02 1.30556E+01
 -1      3969-2.69562E+00 8.56855E-01-5.40093E+02-2.27818E+01 4.04790E+02 9.36161E+00
 -1      3970-4.70480E+00 7.33253E-01-5.45595E+02-1.83935E+01 4.05479E+02 7.16224E+00
 -1      3971-4.97718E+00 7.85842E-01-5.69398E+02-2.81413E+01 4.05020E+02 8.95109E+00
 -1      3972-4.44800E+00 1.19906E+00-8.36840E+02-2.01565E+01 3.64270E+02 1.40775E+01
 -1      3973-2.95787E-01 4.51489E-01-4.83242E+02-1.42610E+01 4.01367E+02 8.00979E+00
 -1      3974-1.03177E+00 4.21254E-01-4.86894E+02-1.17042E+01 3.98058E+02 6.41029E+00
 -1      3975-1.23987E+00 6.34638E-01-5.11549E+02-1.81944E+01 4.00457E+02 8.49397E+00
 -1      3976-7.93901E-01 5.16242E-01-7.52057E+02-1.26395E+01 3.61758E+02 1.23332E+01
 -1      3977 3.43686E-01-1.29890E-01-4.28525E+02-8.51089E+00 3.99747E+02 6.49261E+00
 -1      3978 1.56953E-01-1.19846E-01-4.30750E+02-7.06158E+00 3.93849E+02 5.33045E+00
 -1      3979 4.42455E-02 1.79882E-02-4.56011E+02-1.11104E+01 3.98005E+02 7.10060E+00
 -1      3980 3.85358E-01-4.44887E-02-6.69933E+02-7.55269E+00 3.60542E+02 1.02162E+01
 -1      3981 4.40535E-01-3.01843E-01-3.74613E+02-4.87536E+00 3.99047E+02 5.29838E+00
 -1      3982 4.45711E-01-2.90475E-01-3.75918E+02-4.08269E+00 3.91570E+02 4.41422E+00
 -1      3983 3.90551E-01-2.91948E-01-4.01652E+02-6.49497E+00 3.96868E+02 5.79835E+00
 -1      3984 6.14484E-01-2.51480E-01-5.88988E+02-4.32593E+00 3.59977E+02 8.50619E+00
 -1      3985 3.58413E-01-2.84404E-01-3.21020E+02-2.69196E+00 3.98781E+02 4.47442E+00
 -1      3986 4.15955E-01-2.76102E-01-3.21756E+02-2.27209E+00 3.90385E+02 3.76070E+00
 -1      3987 3.92545E-01-3.24803E-01-3.47875E+02-3.65329E+00 3.96397E+02 4.82639E+00
 -1      3988 5.30894E-01-2.49349E-01-5.08507E+02-2.38540E+00 3.59718E+02 7.31165E+00
 -1      3989 2.50528E-01-2.02453E-01-2.67508E+02-1.43397E+00 3.98693E+02 3.94900E+00
 -1      3990 3.08429E-01-1.97749E-01-2.67912E+02-1.21944E+00 3.89784E+02 3.33517E+00
 -1      3991 3.00027E-01-2.50814E-01-2.94300E+02-1.98218E+00 3.96224E+02 4.17690E+00
 -1      3992 3.79411E-01-1.81172E-01-4.28177E+02-1.26745E+00 3.59606E+02 6.54498E+00
 -1      3993 1.60502E-01-1.24410E-01-2.14005E+02-7.36284E-01 3.98674E+02 3.63184E+00
 -1      3994 2.04518E-01-1.22052E-01-2.14221E+02-6.30880E-01 3.89488E+02 3.07466E+00
 -1      3995 2.02352E-01-1.62291E-01-2.40781E+02-1.03739E+00 3.96172E+02 3.77105E+00
 -1      3996 2.45310E-01-1.12115E-01-3.47883E+02-6.48394E-01 3.59561E+02 6.08102E+00
 -1      3997 9.68527E-02-6.85858E-02-1.60491E+02-3.63301E-01 3.98675E+02 3.44881E+00
 -1      3998 1.26250E-01-6.75853E-02-1.60603E+02-3.13827E-01 3.89347E+02 2.92264E+00
 -1      3999 1.26412E-01-9.34753E-02-1.87265E+02-5.22725E-01 3.96163E+02 3.53006E+00
 -1      4000 1.48110E-01-6.20703E-02-2.67589E+02-3.18353E-01 3.59545E+02 5.81332E+00
 -1      4001 5.54461E-02-3.42458E-02-1.06966E+02-1.71123E-01 3.98682E+02 3.34745E+00
 -1      4002 7.34427E-02-3.39333E-02-1.07023E+02-1.49161E-01 3.89283E+02 2.83767E+00
 -1      4003 7.45122E-02-4.88623E-02-1.33740E+02-2.52477E-01 3.96168E+02 3.39298E+00
 -1      4004 8.43494E-02-3.11150E-02-1.87287E+02-1.48984E-01 3.59541E+02 5.66546E+00
 -1      4005 2.95515E-02-1.51181E-02-5.34345E+01-7.53466E-02 3.98688E+02 3.29399E+00
 -1      4006 3.95310E-02-1.51305E-02-5.34608E+01-6.63315E-02 3.89255E+02 2.79252E+00
 -1      4007 4.14058E-02-2.30266E-02-8.02074E+01-1.15611E-01 3.96174E+02 3.31831E+00
 -1      4008 4.45170E-02-1.38312E-02-1.06980E+02-6.50526E-02 3.59541E+02 5.58788E+00
 -1      4009 1.28322E-02-5.23116E-03 1.00712E-01-2.76033E-02 3.98692E+02 3.26849E+00
 -1      4010 1.71320E-02-5.40932E-03 9.19380E-02-2.45361E-02 3.89244E+02 2.77090E+00
 -1      4011 2.06084E-02-9.24728E-03-2.66692E+01-4.79281E-02 3.96179E+02 3.28021E+00
 -1      4012 1.91084E-02-4.82983E-03-2.66692E+01-2.35491E-02 3.59542E+02 5.55118E+00
 -1      4013-1.56732E-04-3.26074E-04 5.36372E+01 5.55018E-04 3.98693E+02 3.26090E+00
 -1      4014-5.75813E-04-6.47943E-04 5.36405E+01 4.46235E-04 3.89241E+02 2.76454E+00
 -1      4015 6.28438E-03-2.30416E-03 2.68715E+01-1.25068E-02 3.96182E+02 3.26423E+00
 -1      4016-9.14984E-05-1.93769E-04 5.36429E+01 7.28655E-04 3.59543E+02 5.54039E+00
 -1      4017-1.45451E-02 2.27194E-03 1.07173E+02 2.88135E-02 3.98691E+02 3.26870E+00
 -1      4018-2.02251E-02 1.73047E-03 1.07189E+02 2.55050E-02 3.89243E+02 2.77142E+00
 -1      4019-6.76746E-03 1.22828E-03 8.04127E+01 1.36449E-02 3.96181E+02 3.26432E+00
 -1      4020-2.06244E-02 2.64182E-03 1.33954E+02 2.51502E-02 3.59542E+02 5.55152E+00
 -1      4021-3.61199E-02 4.16608E-03 1.60708E+02 7.68138E-02 3.98685E+02 3.29651E+00
 -1      4022-4.93008E-02 3.24712E-03 1.60742E+02 6.74925E-02 3.89252E+02 2.79542E+00
 -1      4023-2.38782E-02 3.45222E-03 1.33953E+02 4.92539E-02 3.96178E+02 3.28148E+00
 -1      4024-5.06674E-02 5.39546E-03 2.14264E+02 6.70342E-02 3.59538E+02 5.59064E+00
 -1      4025-7.23866E-02 6.25889E-03 2.14240E+02 1.72836E-01 3.98673E+02 3.35747E+00
 -1      4026-9.72762E-02 4.73603E-03 2.14307E+02 1.50488E-01 3.89274E+02 2.84750E+00
 -1      4027-5.15293E-02 5.66893E-03 1.87492E+02 1.17215E-01 3.96169E+02 3.32430E+00
 -1      4028-1.00431E-01 9.32990E-03 2.94570E+02 1.51380E-01 3.59530E+02 5.67578E+00
 -1      4029-1.33349E-01 8.56288E-03 2.67771E+02 3.64831E-01 3.98654E+02 3.47674E+00
 -1      4030-1.76176E-01 6.19560E-03 2.67900E+02 3.14948E-01 3.89326E+02 2.94837E+00
 -1      4031-9.82805E-02 8.59299E-03 2.41030E+02 2.54174E-01 3.96154E+02 3.41123E+00
 -1      4032-1.82985E-01 1.51083E-02 3.74873E+02 3.20685E-01 3.59518E+02 5.84144E+00
 -1      4033-2.31088E-01 8.69843E-03 3.21305E+02 7.36296E-01 3.98627E+02 3.69671E+00
 -1      4034-2.99133E-01 5.39186E-03 3.21551E+02 6.30678E-01 3.89442E+02 3.13248E+00
 -1      4035-1.74982E-01 1.17712E-02 2.94569E+02 5.23702E-01 3.96131E+02 3.57487E+00
 -1      4036-3.13072E-01 2.12495E-02 4.55176E+02 6.49040E-01 3.59503E+02 6.14558E+00
 -1      4037-3.76159E-01-2.89062E-03 3.74855E+02 1.42934E+00 3.98602E+02 4.08315E+00
 -1      4038-4.73715E-01-6.57048E-03 3.75318E+02 1.21534E+00 3.89693E+02 3.45206E+00
 -1      4039-2.92762E-01 1.10697E-02 3.48120E+02 1.03554E+00 3.96105E+02 3.86737E+00
 -1      4040-5.00513E-01 1.93904E-02 5.35497E+02 1.26249E+00 3.59492E+02 6.67748E+00
 -1      4041-5.65011E-01-5.21893E-02 4.28466E+02 2.67632E+00 3.98616E+02 4.72849E+00
 -1      4042-6.82276E-01-5.40211E-02 4.29315E+02 2.25892E+00 3.90217E+02 3.97800E+00
 -1      4043-4.55501E-01-7.76289E-03 4.01715E+02 1.97295E+00 3.96100E+02 4.36513E+00
 -1      4044-7.30960E-01-1.68405E-02 6.15890E+02 2.36670E+00 3.59508E+02 7.56106E+00
 -1      4045-7.51074E-01-2.01896E-01 4.82252E+02 4.83704E+00 3.98769E+02 5.74361E+00
 -1      4046-8.35229E-01-1.94183E-01 4.83763E+02 4.05105E+00 3.91286E+02 4.78812E+00
 -1      4047-6.38873E-01-8.21896E-02 4.55437E+02 3.62791E+00 3.96182E+02 5.16594E+00
 -1      4048-9.16905E-01-1.48761E-01 6.96503E+02 4.27828E+00 3.59619E+02 8.94093E+00
 -1      4049-7.54716E-01-5.31771E-01 5.36509E+02 8.43052E+00 3.99317E+02 7.21259E+00
 -1      4050-6.49902E-01-4.96988E-01 5.39092E+02 6.99609E+00 3.93407E+02 5.92256E+00
 -1      4051-7.43215E-01-2.84925E-01 5.09479E+02 6.43817E+00 3.96523E+02 6.36515E+00
 -1      4052-7.89801E-01-4.86087E-01 7.77697E+02 7.45033E+00 3.59982E+02 1.09156E+01
 -1      4053-1.34926E-01-1.13243E+00 5.91796E+02 1.41103E+01 4.00776E+02 9.06549E+00
 -1      4054 5.72353E-01-1.00638E+00 5.96028E+02 1.15829E+01 3.97445E+02 7.25270E+00
 -1      4055-4.74613E-01-7.09445E-01 5.64282E+02 1.09984E+01 3.97505E+02 7.96574E+00
 -1      4056 3.61613E-01-1.07172E+00 8.60262E+02 1.24439E+01 3.60973E+02 1.33531E+01
 -1      4057 2.52959E+00-1.08860E+00 6.49535E+02 2.25278E+01 4.04122E+02 1.06909E+01
 -1      4058 4.68675E+00-7.87621E-01 6.55870E+02 1.81915E+01 4.04779E+02 8.17078E+00
 -1      4059 8.76045E-01-1.18484E+00 6.20498E+02 1.79956E+01 3.99834E+02 9.66178E+00
 -1      4060 4.24870E+00-1.42490E+00 9.45785E+02 1.98200E+01 3.63347E+02 1.53535E+01
 -1      4061 9.77853E+00 1.82216E+00 7.10422E+02 3.36120E+01 4.10162E+02 1.01800E+01
 -1      4062 1.54831E+01 2.79664E+00 7.19200E+02 2.66076E+01 4.16366E+02 6.89897E+00
 -1      4063 5.10227E+00-4.93887E-01 6.79290E+02 2.78259E+01 4.04459E+02 1.02005E+01
 -1      4064 1.49104E+01 1.77793E+00 1.03595E+03 2.95119E+01 3.68716E+02 1.42007E+01
 -1      4065 3.15372E+01 2.17084E+01 7.76044E+02 4.56587E+01 4.18735E+02 1.79592E+00
 -1      4066 4.19470E+01 2.27098E+01 7.83241E+02 3.47008E+01 4.31564E+02-5.86125E-01
 -1      4067 1.65490E+01 7.31808E+00 7.39060E+02 3.98193E+01 4.11576E+02 6.26157E+00
 -1      4068 4.44995E+01 2.09172E+01 1.13445E+03 4.03135E+01 3.78849E+02 1.87704E+00
 -1      4069 8.13561E+01 8.10816E+01 8.24349E+02 4.99881E+01 4.13078E+02-2.16195E+01
 -1      4070 1.01134E+02 8.41851E+01 8.27432E+02 3.66362E+01 4.30274E+02-1.95336E+01
 -1      4071 4.62826E+01 4.00007E+01 7.92362E+02 4.92586E+01 4.13664E+02-9.25636E+00
 -1      4072 1.12315E+02 8.97271E+01 1.20817E+03 4.50465E+01 3.88094E+02-3.15518E+01
 -1      4073 1.87011E+02 1.96597E+02 8.03761E+02 3.48799E+01 3.39306E+02-6.98563E+01
 -1      4074 2.00321E+02 1.97783E+02 8.00599E+02 2.50377E+01 3.56977E+02-4.97720E+01
 -1      4075 1.18514E+02 1.19467E+02 8.08782E+02 4.58667E+01 3.79001E+02-4.44859E+01
 -1      4076 2.68584E+02 2.56663E+02 1.18815E+03 3.27340E+01 3.56579E+02-1.01303E+02
 -1      4077 3.29169E+02 3.29169E+02 7.18464E+02-7.51298E-04 1.09629E+02-8.79996E+01
 -1      4078 3.25890E+02 3.25890E+02 7.11324E+02 5.96975E-04 1.27801E+02-6.28546E+01
 -1      4079 2.55511E+02 2.61785E+02 7.57164E+02 1.97151E+01 2.32579E+02-8.16940E+01
 -1      4080 4.95265E+02 4.95265E+02 1.08102E+03 7.57436E-04 1.38755E+02-1.29130E+02
 -1      4081-2.75981E+02-2.75979E+02-6.02366E+02 9.02878E-04 4.57647E+01-1.31289E+02
 -1      4082-1.25974E+02-1.74117E+02-7.42542E+02-5.83588E+01 2.60379E+02-9.02031E+01
 -1      4083-2.75134E+02-2.75135E+02-6.00542E+02-9.56601E-04 8.12310E+01-1.00062E+02
 -1      4084-1.27120E+02-1.63611E+02-7.10724E+02-3.79655E+01 3.05552E+02-6.78042E+01
 -1      4085-4.35997E+02-4.36000E+02-9.51668E+02-8.13663E-04 7.15345E+01-2.01893E+02
 -1      4086-1.56900E+02-2.10893E+02-6.69550E+02-2.28658E+01 1.62383E+02-1.12601E+02
 -1      4087-1.88791E+02-2.42004E+02-1.15161E+03-5.59139E+01 2.73741E+02-1.37361E+02
 -1      4088-1.61947E+01-4.78475E+01-6.83666E+02-6.07296E+01 3.55404E+02-8.90824E+00
 -1      4089-5.43265E+01-6.40629E+01-7.07172E+02-5.42484E+01 3.86184E+02-1.70875E+01
 -1      4090-4.26253E+01-8.03611E+01-6.79461E+02-6.29208E+01 3.13621E+02-3.88327E+01
 -1      4091-1.96646E+01-5.33393E+01-1.05449E+03-5.44114E+01 3.31060E+02-1.35864E+01
 -1      4092-6.85655E+00-7.18875E+00-6.30869E+02-4.82284E+01 3.84589E+02 1.05756E+01
 -1      4093-1.81011E+01-1.31468E+01-6.50168E+02-4.65153E+01 4.02594E+02 5.21233E+00
 -1      4094-6.95884E+00-2.04439E+01-6.53955E+02-5.56046E+01 3.66522E+02 6.40222E-01
 -1      4095-9.35546E+00-5.54843E+00-9.73398E+02-4.22547E+01 3.46989E+02 1.50297E+01
 -1      4096-1.04144E+00 2.97790E+00-5.76684E+02-3.24025E+01 3.99426E+02 1.16715E+01
 -1      4097-6.19448E+00-2.16915E-01-5.90828E+02-3.33456E+01 4.04273E+02 9.99894E+00
 -1      4098-2.60496E+00 3.06782E-01-6.02101E+02-4.02292E+01 3.89533E+02 1.06334E+01
 -1      4099-1.92422E+00 3.50681E+00-8.91798E+02-2.83199E+01 3.59568E+02 1.70708E+01
 -1      4100-2.08185E-01 2.30945E+00-5.25242E+02-2.04840E+01 4.09380E+02 9.56757E+00
 -1      4101-1.77654E+00 1.00354E+00-5.33602E+02-2.18018E+01 4.05719E+02 9.44872E+00
 -1      4102-3.22739E-01 3.02983E+00-5.50843E+02-2.60875E+01 4.01926E+02 1.00694E+01
 -1      4103-4.28424E-01 2.94942E+00-8.14787E+02-1.79309E+01 3.69211E+02 1.43529E+01
 -1      4104 1.74617E-01 1.02620E+00-4.74367E+02-1.23241E+01 4.16210E+02 7.27186E+00
 -1      4105-2.26027E-01 4.33426E-01-4.79246E+02-1.34576E+01 4.07135E+02 7.69955E+00
 -1      4106 1.06716E-01 1.67886E+00-4.99779E+02-1.60707E+01 4.10397E+02 8.12173E+00
 -1      4107 1.21591E-01 1.22572E+00-7.38862E+02-1.08106E+01 3.76155E+02 1.11702E+01
 -1      4108 1.60172E-01 1.24738E-01-4.23412E+02-7.13600E+00 4.20796E+02 5.48266E+00
 -1      4109 1.90307E-01-1.46645E-01-4.26149E+02-7.94076E+00 4.08538E+02 6.06562E+00
 -1      4110 2.19660E-01 5.34298E-01-4.48965E+02-9.47986E+00 4.16098E+02 6.18434E+00
 -1      4111 2.20356E-01 2.55913E-01-6.62331E+02-6.26327E+00 3.80635E+02 8.62968E+00
 -1      4112 1.22225E-01-1.87408E-01-3.71784E+02-3.98615E+00 4.23698E+02 4.25530E+00
 -1      4113 2.58092E-01-3.14263E-01-3.73276E+02-4.50837E+00 4.09627E+02 4.85125E+00
 -1      4114 1.93725E-01-2.42163E-02-3.97625E+02-5.39169E+00 4.19815E+02 4.75791E+00
 -1      4115 1.95218E-01-1.22356E-01-5.84788E+02-3.49463E+00 3.83362E+02 6.85914E+00
 -1      4116 7.96435E-02-2.28662E-01-3.19508E+02-2.15095E+00 4.25437E+02 3.47039E+00
 -1      4117 2.12656E-01-2.89080E-01-3.20297E+02-2.46903E+00 4.10375E+02 4.03909E+00
 -1      4118 1.42252E-01-1.81199E-01-3.45659E+02-2.96110E+00 4.22109E+02 3.79929E+00
 -1      4119 1.40260E-01-1.91783E-01-5.06270E+02-1.88045E+00 3.84934E+02 5.71789E+00
 -1      4120 4.94879E-02-1.74037E-01-2.66731E+02-1.12019E+00 4.26426E+02 2.99385E+00
 -1      4121 1.49883E-01-2.02986E-01-2.67136E+02-1.30486E+00 4.10841E+02 3.53083E+00
 -1      4122 9.44293E-02-1.71950E-01-2.93125E+02-1.57070E+00 4.23452E+02 3.19766E+00
 -1      4123 9.11361E-02-1.54379E-01-4.27032E+02-9.75076E-01 3.85801E+02 5.02224E+00
 -1      4124 2.95800E-02-1.09061E-01-2.13621E+02-5.61670E-01 4.26962E+02 2.71653E+00
 -1      4125 9.67832E-02-1.23057E-01-2.13822E+02-6.64475E-01 4.11113E+02 3.22823E+00
 -1      4126 5.87865E-02-1.18446E-01-2.40181E+02-8.03377E-01 4.24202E+02 2.83725E+00
 -1      4127 5.53571E-02-9.88778E-02-3.47321E+02-4.86027E-01 3.86260E+02 4.61717E+00
 -1      4128 1.71750E-02-6.00076E-02-1.60310E+02-2.69895E-01 4.27240E+02 2.56123E+00
 -1      4129 5.88853E-02-6.67902E-02-1.60407E+02-3.24887E-01 4.11262E+02 3.05550E+00
 -1      4130 3.48214E-02-6.90372E-02-1.86971E+02-3.94870E-01 4.24602E+02 2.63006E+00
 -1      4131 3.19493E-02-5.51371E-02-2.67326E+02-2.31731E-01 3.86495E+02 4.39074E+00
 -1      4132 9.66605E-03-2.93639E-02-1.06885E+02-1.23265E-01 4.27377E+02 2.47744E+00
 -1      4133 3.39990E-02-3.26629E-02-1.06930E+02-1.51428E-01 4.11340E+02 2.96073E+00
 -1      4134 1.97588E-02-3.53393E-02-1.33602E+02-1.85382E-01 4.24805E+02 2.51530E+00
 -1      4135 1.75822E-02-2.73153E-02-1.87171E+02-1.04751E-01 3.86609E+02 4.26912E+00
 -1      4136 5.16230E-03-1.23402E-02-5.33999E+01-5.23791E-02 4.27442E+02 2.43421E+00
 -1      4137 1.82701E-02-1.39725E-02-5.34188E+01-6.58855E-02 4.11379E+02 2.91113E+00
 -1      4138 1.06901E-02-1.56886E-02-8.01458E+01-8.21169E-02 4.24903E+02 2.45421E+00
 -1      4139 9.06477E-03-1.16961E-02-1.06932E+02-4.39105E-02 3.86662E+02 4.20683E+00
 -1      4140 2.31700E-03-3.65484E-03 1.14636E-01-1.85024E-02 4.27469E+02 2.41385E+00
 -1      4141 7.98541E-03-4.53615E-03 1.09070E-01-2.38512E-02 4.11396E+02 2.88757E+00
 -1      4142 5.26749E-03-5.44574E-03-2.66432E+01-3.28213E-02 4.24948E+02 2.42356E+00
 -1      4143 3.88121E-03-3.60184E-03-2.66511E+01-1.52132E-02 3.86685E+02 4.17785E+00
 -1      4144 1.01307E-04 5.95175E-04 5.36410E+01 5.17491E-04 4.27476E+02 2.40756E+00
 -1      4145-1.11239E-04-1.80674E-05 5.36437E+01 5.38221E-04 4.11401E+02 2.88047E+00
 -1      4146 1.70802E-03-6.14879E-04 2.68809E+01-8.24840E-03 4.24965E+02 2.41069E+00
 -1      4147 1.01165E-04 5.74976E-04 5.36466E+01 6.65042E-04 3.86691E+02 4.16915E+00
 -1      4148-2.43459E-03 2.87105E-03 1.07167E+02 1.96424E-02 4.27468E+02 2.41306E+00
 -1      4149-9.14318E-03 2.27397E-03 1.07178E+02 2.50308E-02 4.11395E+02 2.88740E+00
 -1      4150-1.43755E-03 1.42293E-03 8.04111E+01 9.31584E-03 4.24965E+02 2.41033E+00
 -1      4151-3.95044E-03 3.24865E-03 1.33944E+02 1.66971E-02 3.86684E+02 4.17720E+00
 -1      4152-6.41348E-03 4.57308E-03 1.60682E+02 5.37990E-02 4.27438E+02 2.43406E+00
 -1      4153-2.26718E-02 3.94951E-03 1.60705E+02 6.73353E-02 4.11376E+02 2.91261E+00
 -1      4154-5.60690E-03 2.08553E-03 1.33935E+02 3.40884E-02 4.24946E+02 2.42314E+00
 -1      4155-1.00979E-02 6.00554E-03 2.14224E+02 4.58202E-02 3.86658E+02 4.20695E+00
 -1      4156-1.34146E-02 6.22986E-03 2.14166E+02 1.25000E-01 4.27368E+02 2.48159E+00
 -1      4157-4.53263E-02 5.93575E-03 2.14215E+02 1.53161E-01 4.11331E+02 2.96847E+00
 -1      4158-1.25915E-02 1.82577E-03 1.87438E+02 8.37028E-02 4.24897E+02 2.45622E+00
 -1      4159-2.07471E-02 9.81342E-03 2.94461E+02 1.07209E-01 3.86598E+02 4.27362E+00
 -1      4160-2.57943E-02 6.94226E-03 2.67590E+02 2.71624E-01 4.27218E+02 2.57739E+00
 -1      4161-8.32629E-02 8.29981E-03 2.67693E+02 3.26528E-01 4.11240E+02 3.07887E+00
 -1      4162-2.49256E-02-6.10323E-05 2.40894E+02 1.87173E-01 4.24790E+02 2.52525E+00
 -1      4163-3.92892E-02 1.44921E-02 3.74610E+02 2.34451E-01 3.86467E+02 4.40718E+00
 -1      4164-4.69918E-02 2.03357E-03 3.20900E+02 5.62270E-01 4.26915E+02 2.75957E+00
 -1      4165-1.43895E-01 8.69726E-03 3.21115E+02 6.64792E-01 4.11066E+02 3.28465E+00
 -1      4166-4.62245E-02-6.72948E-03 2.94263E+02 3.96202E-01 4.24568E+02 2.65888E+00
 -1      4167-7.02651E-02 1.62579E-02 4.54593E+02 4.87769E-01 3.86201E+02 4.66001E+00
 -1      4168-8.16666E-02-2.34289E-02 3.74009E+02 1.11691E+00 4.26334E+02 3.09033E+00
 -1      4169-2.33678E-01-2.51071E-03 3.74447E+02 1.30091E+00 4.10750E+02 3.65042E+00
 -1      4170-8.12650E-02-2.76549E-02 3.47472E+02 8.02418E-01 4.24135E+02 2.90498E+00
 -1      4171-1.18808E-01 9.65364E-04 5.34282E+02 9.72600E-01 3.85685E+02 5.11718E+00
 -1      4172-1.34650E-01-1.08294E-01 4.26784E+02 2.13803E+00 4.25271E+02 3.66450E+00
 -1      4173-3.50377E-01-5.22822E-02 4.27654E+02 2.45474E+00 4.10211E+02 4.27000E+00
 -1      4174-1.35164E-01-8.77053E-02 4.00415E+02 1.56336E+00 4.23327E+02 3.33849E+00
 -1      4175-1.87778E-01-7.17176E-02 6.13483E+02 1.86669E+00 3.84723E+02 5.90740E+00
 -1      4176-2.09097E-01-3.42257E-01 4.79059E+02 3.95272E+00 4.23422E+02 4.61442E+00
 -1      4177-4.64945E-01-2.05186E-01 4.80727E+02 4.47243E+00 4.09352E+02 5.26331E+00
 -1      4178-2.10656E-01-2.45534E-01 4.52947E+02 2.93930E+00 4.21894E+02 4.06697E+00
 -1      4179-2.70626E-01-2.94962E-01 6.91941E+02 3.45587E+00 3.83008E+02 7.20755E+00
 -1      4180-2.83788E-01-8.74459E-01 5.30688E+02 7.06344E+00 4.20374E+02 6.09820E+00
 -1      4181-4.64177E-01-5.54329E-01 5.33782E+02 7.86413E+00 4.08117E+02 6.74580E+00
 -1      4182-2.99170E-01-6.16622E-01 5.04910E+02 5.34094E+00 4.19474E+02 5.22900E+00
 -1      4183-3.28603E-01-8.53619E-01 7.69396E+02 6.17528E+00 3.80089E+02 9.22354E+00
 -1      4184-3.28218E-01-1.92680E+00 5.81652E+02 1.21840E+01 4.15637E+02 8.24434E+00
 -1      4185-5.99223E-02-1.19742E+00 5.87203E+02 1.33120E+01 4.06559E+02 8.72434E+00
 -1      4186-3.66469E-01-1.38317E+00 5.56247E+02 9.37676E+00 4.15611E+02 6.94989E+00
 -1      4187-2.57322E-01-1.95734E+00 8.45823E+02 1.06349E+01 3.75401E+02 1.21035E+01
 -1      4188 8.44815E-02-3.02468E+00 6.32566E+02 2.02405E+01 4.08747E+02 1.09516E+01
 -1      4189 1.65987E+00-1.40963E+00 6.42099E+02 2.15529E+01 4.05078E+02 1.08039E+01
 -1      4190-2.73454E-01-2.56516E+00 6.07061E+02 1.58825E+01 4.09802E+02 9.25769E+00
 -1      4191 3.12263E-01-3.57353E+00 9.21664E+02 1.76151E+01 3.68345E+02 1.56751E+01
 -1      4192 1.04210E+00-2.64919E+00 6.84104E+02 3.20263E+01 3.99028E+02 1.33265E+01
 -1      4193 6.74245E+00 1.22852E+00 7.00206E+02 3.29686E+01 4.03859E+02 1.13776E+01
 -1      4194 1.93367E-01-3.40558E+00 6.58168E+02 2.57792E+01 4.01406E+02 1.15148E+01
 -1      4195 1.91698E+00-3.33366E+00 9.98735E+02 2.78128E+01 3.58959E+02 1.86458E+01
 -1      4196 7.65911E+00 1.07187E+01 7.38706E+02 4.77405E+01 3.85132E+02 1.17896E+01
 -1      4197 2.03544E+01 1.77714E+01 7.60494E+02 4.60340E+01 4.03122E+02 5.57969E+00
 -1      4198 2.82261E+00 1.20328E+00 7.09520E+02 3.97915E+01 3.89565E+02 1.20221E+01
 -1      4199 1.00830E+01 8.26419E+00 1.08095E+03 4.15538E+01 3.47518E+02 1.61815E+01
 -1      4200 1.80456E+01 5.82748E+01 7.92512E+02 6.02493E+01 3.57761E+02-1.11187E+01
 -1      4201 6.17768E+01 7.69556E+01 8.18746E+02 5.37774E+01 3.88551E+02-2.05493E+01
 -1      4202 7.80997E+00 2.67046E+01 7.62101E+02 5.51017E+01 3.67882E+02 1.46756E-01
 -1      4203 2.13308E+01 6.21614E+01 1.16347E+03 5.36709E+01 3.34121E+02-1.57418E+01
 -1      4204 1.45114E+02 2.02550E+02 8.57383E+02 5.81038E+01 2.64884E+02-1.05175E+02
 -1      4205 1.45728E+02 1.89843E+02 8.19342E+02 3.76805E+01 3.10087E+02-7.91477E+01
 -1      4206 4.91767E+01 9.62646E+01 7.86389E+02 6.25345E+01 3.17022E+02-4.57193E+01
 -1      4207 2.07745E+02 2.69019E+02 1.26691E+03 5.55001E+01 2.80586E+02-1.52144E+02
 -1      4208 3.18915E+02 3.18913E+02 6.96075E+02-8.98334E-04 5.10424E+01-1.51723E+02
 -1      4209 3.17419E+02 3.17420E+02 6.92838E+02 9.49854E-04 8.65297E+01-1.15655E+02
 -1      4210 1.80907E+02 2.44017E+02 7.73228E+02 2.27429E+01 1.67334E+02-1.30623E+02
 -1      4211 4.79366E+02 4.79369E+02 1.04633E+03 8.06944E-04 7.96890E+01-2.22165E+02
 -1      4212-4.86892E+02-4.86889E+02-1.06272E+03 6.54022E-04-1.61443E+02-3.27306E+02
 -1      4213 4.29252E+01-8.48471E+01-6.30950E+02-4.75080E+00 1.19474E+02 2.30415E+01
 -1      4214-3.57161E+02-3.57164E+02-7.79589E+02-7.73636E-04-3.94910E+01-2.23146E+02
 -1      4215-5.84424E+01-1.37862E+02-6.94414E+02-3.01745E+01 2.13531E+02-4.21362E+01
 -1      4216-7.57159E+02-7.57164E+02-1.65267E+03-9.18847E-04-1.34740E+02-5.09897E+02
 -1      4217-1.21032E+02-2.44502E+02-8.15325E+02-2.08925E+01-2.55605E+01-1.28644E+02
 -1      4218 6.80647E+01-1.05775E+02-9.84164E+02-4.85365E+00 1.34046E+02 3.76979E+01
 -1      4219-6.37843E+00-7.58645E+00-5.77958E+02-1.05138E+01 2.76970E+02 9.34903E+00
 -1      4220-1.71879E+01-4.08533E+01-6.57971E+02-3.87349E+01 3.15015E+02-6.67297E-01
 -1      4221 5.18087E+01-1.20581E+01-5.64585E+02-1.34008E+01 1.95669E+02 1.60705E+01
 -1      4222-6.65787E+00 2.38514E+00-8.95215E+02-1.01228E+01 2.54203E+02 1.43931E+01
 -1      4223 6.84545E+00 1.75472E+01-5.75271E+02-4.74463E+00 3.62270E+02 2.97564E+00
 -1      4224-3.85370E+00-3.81841E-01-6.08858E+02-2.75985E+01 3.69863E+02 7.99099E+00
 -1      4225-9.23914E-01 7.97493E+00-5.81053E+02-7.47341E+00 3.18185E+02 1.87437E+00
 -1      4226 1.17748E+01 2.83972E+01-8.90022E+02-4.43590E+00 3.24658E+02 4.48445E+00
 -1      4227 2.09741E-01 1.44787E+01-5.46965E+02-2.85948E+00 4.06287E+02 1.86799E+00
 -1      4228-9.80625E-01 6.67475E+00-5.62713E+02-1.83025E+01 3.98854E+02 7.12148E+00
 -1      4229 3.15897E+00 1.72077E+01-5.61479E+02-3.35218E+00 3.82361E+02 1.87583E+00
 -1      4230 8.69149E-02 1.85056E+01-8.47111E+02-2.57165E+00 3.66050E+02 3.05940E+00
 -1      4231 4.91323E-01 8.62642E+00-5.08786E+02-1.50800E+00 4.33472E+02 1.02259E+00
 -1      4232-2.35321E-01 4.38184E+00-5.17075E+02-1.13459E+01 4.17950E+02 5.56798E+00
 -1      4233 5.23992E-01 1.18638E+01-5.27771E+02-1.86500E+00 4.17939E+02 8.33817E-01
 -1      4234 7.92787E-01 1.12594E+01-7.90070E+02-1.40345E+00 3.92777E+02 1.68762E+00
 -1      4235-1.00012E-02 4.28058E+00-4.65585E+02-8.38545E-01 4.49736E+02 6.32075E-01
 -1      4236 3.42073E-02 2.18755E+00-4.69713E+02-6.76661E+00 4.29974E+02 4.06798E+00
 -1      4237 3.27481E-01 6.43096E+00-4.87195E+02-9.28813E-01 4.39494E+02 5.26114E-01
 -1      4238-5.57670E-02 5.49361E+00-7.25684E+02-7.65810E-01 4.09034E+02 9.95386E-01
 -1      4239-7.70644E-02 1.85970E+00-4.18833E+02-4.43424E-01 4.59397E+02 3.90915E-01
 -1      4240 4.88389E-02 7.76381E-01-4.20876E+02-3.88441E+00 4.37484E+02 2.98991E+00
 -1      4241 3.87678E-02 3.04982E+00-4.42249E+02-4.77395E-01 4.52335E+02 3.22520E-01
 -1      4242-8.69979E-02 2.53492E+00-6.55499E+02-4.06720E-01 4.18501E+02 5.69506E-01
 -1      4243-1.04928E-01 7.30722E-01-3.69496E+02-2.32505E-01 4.64904E+02 2.63864E-01
 -1      4244 4.01017E-02 1.79859E-01-3.70452E+02-2.15592E+00 4.41955E+02 2.27154E+00
 -1      4245-1.25798E-02 1.32054E+00-3.94168E+02-2.31769E-01 4.59812E+02 2.27953E-01
 -1      4246-1.22397E-01 1.07850E+00-5.81398E+02-2.09545E-01 4.23775E+02 3.37966E-01
 -1      4247-8.30722E-02 2.60368E-01-3.18419E+02-1.17659E-01 4.67922E+02 1.92760E-01
 -1      4248 2.67431E-02-2.19547E-02-3.18841E+02-1.15607E+00 4.44508E+02 1.82226E+00
 -1      4249-3.23322E-02 5.36516E-01-3.43951E+02-1.09730E-01 4.64004E+02 1.74834E-01
 -1      4250-9.43246E-02 4.41813E-01-5.04672E+02-1.03931E-01 4.26595E+02 2.10443E-01
 -1      4251-5.79004E-02 8.48219E-02-2.66244E+02-5.77099E-02 4.69504E+02 1.55646E-01
 -1      4252 1.72618E-02-5.84047E-02-2.66415E+02-5.98408E-01 4.45900E+02 1.55353E+00
 -1      4253-2.74435E-02 2.10351E-01-2.92325E+02-4.89684E-02 4.66259E+02 1.47846E-01
 -1      4254-6.62458E-02 1.75990E-01-4.26329E+02-4.93174E-02 4.28041E+02 1.43317E-01
 -1      4255-3.60828E-02 2.67573E-02-2.13423E+02-2.71011E-02 4.70294E+02 1.36666E-01
 -1      4256 1.10020E-02-4.51717E-02-2.13483E+02-2.98066E-01 4.46626E+02 1.39916E+00
 -1      4257-1.96900E-02 8.32632E-02-2.39831E+02-2.03620E-02 4.67419E+02 1.33788E-01
 -1      4258-4.18843E-02 7.09632E-02-3.47041E+02-2.21359E-02 4.28750E+02 1.08985E-01
 -1      4259-2.10303E-02 1.00836E-02-1.60240E+02-1.20784E-02 4.70668E+02 1.27483E-01
 -1      4260 6.90073E-03-2.53366E-02-1.60256E+02-1.42147E-01 4.46988E+02 1.31369E+00
 -1      4261-1.25128E-02 3.58488E-02-1.86833E+02-7.49575E-03 4.67988E+02 1.26837E-01
 -1      4262-2.49531E-02 3.03351E-02-2.67233E+02-9.22471E-03 4.29082E+02 9.21575E-02
 -1      4263-1.15047E-02 5.97975E-03-1.06868E+02-5.01616E-03 4.70835E+02 1.23250E-01
 -1      4264 4.21260E-03-1.10227E-02-1.06867E+02-6.43276E-02 4.47159E+02 1.26808E+00
 -1      4265-7.42547E-03 1.80569E-02-1.33557E+02-2.16824E-03 4.68251E+02 1.23491E-01
 -1      4266-1.40075E-02 1.45073E-02-1.87152E+02-3.44872E-03 4.29228E+02 8.42711E-02
 -1      4267-5.83919E-03 4.81046E-03-5.33992E+01-1.88057E-03 4.70904E+02 1.21410E-01
 -1      4268 2.41750E-03-3.06090E-03-5.33947E+01-2.70323E-02 4.47235E+02 1.24478E+00
 -1      4269-4.11245E-03 1.06902E-02-8.01357E+01-2.46922E-04 4.68366E+02 1.21953E-01
 -1      4270-7.30288E-03 7.87117E-03-1.06935E+02-1.08019E-03 4.29288E+02 8.07681E-02
 -1      4271-2.42991E-03 3.86967E-03 1.13970E-01-5.61960E-04 4.70929E+02 1.20647E-01
 -1      4272 1.13226E-03 4.69640E-04 1.18453E-01-9.43106E-03 4.47266E+02 1.23387E+00
 -1      4273-2.02322E-03 6.85035E-03-2.66426E+01 2.27699E-04 4.68411E+02 1.21271E-01
 -1      4274-3.11502E-03 4.52086E-03-2.66545E+01-2.32095E-04 4.29310E+02 7.93154E-02
 -1      4275-2.84622E-06 2.37921E-03 5.36451E+01 5.87917E-05 4.70935E+02 1.20348E-01
 -1      4276 1.03165E-05 1.33474E-03 5.36479E+01 2.98824E-04 4.47274E+02 1.23046E+00
 -1      4277-5.80668E-04 3.98826E-03 2.68827E+01 1.53404E-04 4.68426E+02 1.20974E-01
 -1      4278-2.83862E-05 1.97922E-03 5.36506E+01 5.45122E-05 4.29315E+02 7.88320E-02
 -1      4279 2.54546E-03-4.39510E-04 1.07178E+02 6.86473E-04 4.70928E+02 1.20327E-01
 -1      4280-1.32526E-03 3.88348E-04 1.07178E+02 1.00885E-02 4.47265E+02 1.23325E+00
 -1      4281 7.39317E-04 6.32525E-04 8.04180E+01-5.36635E-05 4.68426E+02 1.20864E-01
 -1      4282 3.22483E-03-1.47014E-03 1.33957E+02 3.55568E-04 4.29309E+02 7.89986E-02
 -1      4283 6.37838E-03-6.40563E-03 1.60695E+02 2.01949E-03 4.70901E+02 1.20756E-01
 -1      4284-3.35729E-03-2.61933E-03 1.60692E+02 2.78487E-02 4.47232E+02 1.24425E+00
 -1      4285 2.47498E-03-5.13522E-03 1.33946E+02-1.15916E-04 4.68409E+02 1.20928E-01
 -1      4286 7.99861E-03-8.31301E-03 2.14240E+02 1.24500E-03 4.29284E+02 8.01234E-02
 -1      4287 1.29579E-02-1.97075E-02 2.14170E+02 5.15361E-03 4.70825E+02 1.22275E-01
 -1      4288-6.76638E-03-9.47268E-03 2.14165E+02 6.53204E-02 4.47149E+02 1.26950E+00
 -1      4289 5.26715E-03-1.69666E-02 1.87445E+02 3.72126E-04 4.68359E+02 1.21354E-01
 -1      4290 1.59804E-02-2.35608E-02 2.94461E+02 3.67231E-03 4.29216E+02 8.33231E-02
 -1      4291 2.42292E-02-4.96636E-02 2.67550E+02 1.21443E-02 4.70644E+02 1.26347E-01
 -1      4292-1.25375E-02-2.49008E-02 2.67553E+02 1.43125E-01 4.46965E+02 1.32107E+00
 -1      4293 9.93592E-03-4.23550E-02 2.40873E+02 2.27969E-03 4.68235E+02 1.22643E-01
 -1      4294 2.93917E-02-5.80770E-02 3.74544E+02 9.49618E-03 4.29053E+02 9.10858E-02
 -1      4295 4.23547E-02-1.16952E-01 3.20738E+02 2.69141E-02 4.70242E+02 1.35914E-01
 -1      4296-2.20877E-02-6.02800E-02 3.20775E+02 2.98372E-01 4.46577E+02 1.42038E+00
 -1      4297 1.73993E-02-9.69997E-02 2.94156E+02 7.50356E-03 4.67951E+02 1.25886E-01
 -1      4298 5.07161E-02-1.35858E-01 4.54346E+02 2.23734E-02 4.28686E+02 1.08368E-01
 -1      4299 6.92410E-02-2.66970E-01 3.73552E+02 5.68799E-02 4.69401E+02 1.56670E-01
 -1      4300-3.72856E-02-1.42429E-01 3.73690E+02 5.96440E-01 4.45804E+02 1.60299E+00
 -1      4301 2.84393E-02-2.14074E-01 3.47153E+02 2.00515E-02 4.67345E+02 1.33224E-01
 -1      4302 8.23993E-02-3.09313E-01 5.33604E+02 4.92831E-02 4.27912E+02 1.44599E-01
 -1      4303 1.01863E-01-5.97737E-01 4.25684E+02 1.15428E-01 4.67737E+02 1.98583E-01
 -1      4304-6.01920E-02-3.31299E-01 4.26075E+02 1.14848E+00 4.44335E+02 1.92440E+00
 -1      4305 4.18661E-02-4.63528E-01 3.99622E+02 4.78929E-02 4.66119E+02 1.48914E-01
 -1      4306 1.21476E-01-6.92351E-01 6.11867E+02 1.03078E-01 4.26359E+02 2.16725E-01
 -1      4307 1.34185E-01-1.30912E+00 4.76642E+02 2.27545E-01 4.64591E+02 2.80616E-01
 -1      4308-9.14194E-02-7.54411E-01 4.77600E+02 2.13640E+00 4.41668E+02 2.46459E+00
 -1      4309 5.42883E-02-9.88777E-01 4.51166E+02 1.07056E-01 4.63761E+02 1.80195E-01
 -1      4310 1.65101E-01-1.51412E+00 6.88414E+02 2.06755E-01 4.23375E+02 3.55444E-01
 -1      4311 1.14724E-01-2.77492E+00 5.25703E+02 4.33533E-01 4.58914E+02 4.29456E-01
 -1      4312-1.19011E-01-1.62769E+00 5.27858E+02 3.84211E+00 4.37044E+02 3.32807E+00
 -1      4313 4.13497E-02-2.06852E+00 5.01183E+02 2.26024E-01 4.59423E+02 2.43035E-01
 -1      4314 1.44156E-01-3.23677E+00 7.62155E+02 3.99979E-01 4.17876E+02 6.09145E-01
 -1      4315 6.04709E-02-5.58588E+00 5.71892E+02 8.20900E-01 4.49069E+02 7.13155E-01
 -1      4316-1.13776E-01-3.29402E+00 5.76399E+02 6.68514E+00 4.29376E+02 4.61497E+00
 -1      4317-5.27850E-03-4.18216E+00 5.48837E+02 4.66388E-01 4.51770E+02 3.56573E-01
 -1      4318 1.31843E-01-6.51715E+00 8.31676E+02 7.51556E-01 4.08159E+02 1.07767E+00
 -1      4319-5.00000E-01-1.02318E+01 6.14020E+02 1.47865E+00 4.32715E+02 1.17373E+00
 -1      4320 1.85512E-01-5.48066E+00 6.23294E+02 1.12041E+01 4.17286E+02 6.37835E+00
 -1      4321-3.21203E-01-7.95288E+00 5.92957E+02 9.09184E-01 4.38789E+02 5.98540E-01
 -1      4322-7.79934E-01-1.25852E+01 8.94898E+02 1.37758E+00 3.91747E+02 1.83941E+00
 -1      4323-1.43664E-01-1.58134E+01 6.50334E+02 2.81877E+00 4.05762E+02 2.15596E+00
 -1      4324 1.05507E+00-7.00968E+00 6.68199E+02 1.80842E+01 3.98428E+02 8.14177E+00
 -1      4325-5.29950E-01-1.34995E+01 6.32041E+02 1.83365E+00 4.17291E+02 9.62387E-01
 -1      4326-1.61055E-03-1.97069E+01 9.50108E+02 2.52674E+00 3.65264E+02 3.34621E+00
 -1      4327-7.91891E+00-1.75841E+01 6.75337E+02 4.69900E+00 3.62760E+02 3.40617E+00
 -1      4328 4.26085E+00 2.75947E+00 7.13678E+02 2.73171E+01 3.70401E+02 8.98524E+00
 -1      4329-3.57264E+00-1.81285E+01 6.63313E+02 3.30780E+00 3.82296E+02 2.16479E+00
 -1      4330-1.28889E+01-2.88893E+01 9.90033E+02 4.38116E+00 3.25086E+02 4.90203E+00
 -1      4331 7.17522E+00 1.25167E+01 6.72101E+02 1.04817E+01 2.79442E+02 1.07453E+01
 -1      4332 1.93324E+01 5.02984E+01 7.63607E+02 3.84634E+01 3.17400E+02-1.25326E+00
 -1      4333 1.17061E+00-5.63214E+00 6.79127E+02 7.41574E+00 3.19568E+02 2.12060E+00
 -1      4334 7.35295E+00 1.32751E+00 9.89789E+02 1.00627E+01 2.57408E+02 1.57823E+01
 -1      4335-5.00596E+01 1.00317E+02 7.31753E+02 4.71153E+00 1.24211E+02 2.65310E+01
 -1      4336 6.71387E+01 1.61086E+02 8.03231E+02 3.00284E+01 2.18067E+02-4.92349E+01
 -1      4337-5.99145E+01 1.80154E+01 6.55946E+02 1.33387E+01 1.99265E+02 1.84765E+01
 -1      4338-7.51835E+01 1.20049E+02 1.08560E+03 4.79818E+00 1.41216E+02 4.12847E+01
 -1      4339 5.64852E+02 5.64848E+02 1.23287E+03-6.51872E-04-1.56000E+02-3.79100E+02
 -1      4340 4.13566E+02 4.13570E+02 9.02706E+02 7.71383E-04-3.41660E+01-2.58227E+02
 -1      4341 1.40303E+02 2.84373E+02 9.45778E+02 2.09437E+01-2.03996E+01-1.49013E+02
 -1      4342 8.35296E+02 8.35302E+02 1.82322E+03 9.15422E-04-1.26348E+02-5.61729E+02
 -1      4343 3.90551E+01 3.90548E+01 8.52436E+01-6.48999E-04-1.78178E+02-2.59661E+01
 -1      4344-3.58156E+00 7.98577E+00 5.01205E+01 5.40080E+00 1.07389E+02 1.72811E+00
 -1      4345 2.14702E+01 2.14700E+01 4.68617E+01-9.14613E-04 2.91436E+01-1.02634E+01
 -1      4346 9.53755E+00 1.44916E+01 5.71076E+01 5.91449E+01 2.49486E+02-7.56228E+00
 -1      4347-2.22237E+02-2.22239E+02-4.85082E+02 8.94651E-04-1.75254E+02 1.50548E+02
 -1      4348 9.63604E+00 2.00946E+01 6.51230E+01 1.93761E+01-4.06544E+01-1.02058E+01
 -1      4349 2.16687E+01-3.47673E+01-2.85685E+02 5.88297E+00 1.08077E+02-1.05991E+01
 -1      4350 2.82216E+01 2.82219E+01 6.16004E+01 7.63423E-04-5.61761E+01-1.75979E+01
 -1      4351 4.33125E+00 1.18650E+01 5.41065E+01 3.08087E+01 2.02650E+02-3.60177E+00
 -1      4352-1.25439E+02-1.25440E+02-2.73801E+02 8.35460E-04 3.20676E+01 6.06369E+01
 -1      4353 1.19761E+01 1.67006E+01 5.16393E+01 2.30517E+01 1.48166E+02-9.07664E+00
 -1      4354-5.54055E+01-7.53679E+01-3.37368E+02 5.86657E+01 2.49688E+02 4.14409E+01
 -1      4355 3.65486E-01 2.78967E+00 4.67518E+01 1.06678E+01 2.87019E+02 7.04360E-01
 -1      4356 8.87151E-01 5.61691E+00 5.42074E+01 6.42512E+01 3.66056E+02-1.12872E+00
 -1      4357-4.04036E+00 3.43809E+00 4.54283E+01 1.36274E+01 1.95643E+02 1.19250E+00
 -1      4358-1.17392E+00 1.15085E-01-2.61845E+02 1.06009E+01 2.79317E+02-4.20011E+00
 -1      4359 1.03970E+00 5.08051E+00 5.25680E+01 4.06696E+01 3.25624E+02-3.03039E-01
 -1      4360 3.30936E+00 8.48015E+00 5.32850E+01 6.51459E+01 3.14636E+02-3.48853E+00
 -1      4361-5.23916E+00-1.78028E+01-3.10634E+02 6.25669E+01 3.58010E+02 3.91509E+00
 -1      4362-5.37303E-01 1.87484E-01 4.99987E+01 4.99989E+00 3.85125E+02 2.19486E-01
 -1      4363 4.15325E-01 2.07886E+00 5.39683E+01 5.19762E+01 4.07303E+02 6.22736E-01
 -1      4364 1.34896E-01 1.48043E+00 4.89247E+01 7.87522E+00 3.36035E+02 1.19816E-01
 -1      4365 3.34417E+00 8.77351E+00-2.61680E+02 4.82686E+00 3.73456E+02-1.41445E+00
 -1      4366 2.13392E-01 1.45017E+00 5.24285E+01 2.97340E+01 3.92380E+02 5.07553E-01
 -1      4367 4.36968E-01 3.52642E+00 5.40427E+01 5.94577E+01 3.84618E+02-2.48703E-01
 -1      4368-2.84459E+00-2.54207E+00-2.87540E+02 5.02708E+01 3.95657E+02-5.07658E+00
 -1      4369 4.19561E-02-6.39779E-01 5.18270E+01 3.06721E+00 4.33847E+02 1.48343E-01
 -1      4370 2.08179E-02 2.88065E-01 5.38981E+01 3.52229E+01 4.26650E+02 8.56928E-01
 -1      4371-2.09033E-01-3.67067E-01 5.09754E+01 3.57307E+00 4.08059E+02 1.47889E-01
 -1      4372 2.36905E-02 6.65239E+00-2.47475E+02 2.92895E+00 4.20866E+02-9.28949E-01
 -1      4373 5.59973E-02-8.19342E-02 5.29157E+01 1.99043E+01 4.25981E+02 5.28196E-01
 -1      4374 1.18345E-01 9.51867E-01 5.38292E+01 4.35736E+01 4.14913E+02 7.17369E-01
 -1      4375-5.18383E-01 1.40436E+00-2.61311E+02 3.39969E+01 4.13787E+02-5.52043E+00
 -1      4376-3.96136E-03-8.78642E-01 5.27892E+01 1.65712E+00 4.61112E+02 7.83804E-02
 -1      4377-5.44146E-02-3.62428E-01 5.38508E+01 2.22700E+01 4.36680E+02 7.17401E-01
 -1      4378-6.17526E-03-8.61055E-01 5.22826E+01 2.00852E+00 4.45480E+02 6.71561E-02
 -1      4379 2.36062E-01 3.97387E+00-2.27955E+02 1.56635E+00 4.48151E+02-5.09912E-01
 -1      4380-1.88890E-02-5.82287E-01 5.32905E+01 1.23605E+01 4.45264E+02 4.20229E-01
 -1      4381-5.96706E-02-1.47634E-01 5.38395E+01 2.83685E+01 4.29112E+02 7.49493E-01
 -1      4382-9.17737E-02 1.06429E+00-2.35674E+02 2.14959E+01 4.23877E+02-4.48223E+00
 -1      4383 2.36616E-02-7.43235E-01 5.32983E+01 9.07911E-01 4.77133E+02 4.17737E-02
 -1      4384-7.41018E-02-4.95771E-01 5.37903E+01 1.33812E+01 4.43280E+02 5.03069E-01
 -1      4385 1.77119E-04-8.52109E-01 5.30360E+01 1.01621E+00 4.66991E+02 3.79828E-02
 -1      4386-1.70412E-02 1.80421E+00-2.06125E+02 8.56676E-01 4.64277E+02-2.97321E-01
 -1      4387-3.81470E-02-6.16157E-01 5.34885E+01 7.35583E+00 4.57153E+02 2.83159E-01
 -1      4388-8.12682E-02-4.76905E-01 5.38056E+01 1.74616E+01 4.37553E+02 5.88677E-01
 -1      4389 5.75557E-02 2.98933E-01-2.10279E+02 1.29221E+01 4.30599E+02-3.38898E+00
 -1      4390 1.64741E-02-5.33269E-01 5.35370E+01 4.79224E-01 4.86776E+02 1.98102E-02
 -1      4391-6.17833E-02-4.24390E-01 5.37380E+01 7.74127E+00 4.47840E+02 3.17488E-01
 -1      4392 1.42606E-02-6.51389E-01 5.34157E+01 5.16840E-01 4.79713E+02 1.80785E-02
 -1      4393-2.27762E-02 7.16896E-01-1.82582E+02 4.52359E-01 4.73874E+02-1.63066E-01
 -1      4394-3.56978E-02-4.85197E-01 5.35910E+01 4.21849E+00 4.64705E+02 1.74564E-01
 -1      4395-7.28823E-02-4.74942E-01 5.37631E+01 1.02878E+01 4.43143E+02 3.95907E-01
 -1      4396 7.82199E-02-9.55032E-02-1.84777E+02 7.47437E+00 4.35128E+02-2.55069E+00
 -1      4397 1.25372E-02-3.42240E-01 5.36374E+01 2.50048E-01 4.92402E+02 8.54411E-03
 -1      4398-4.42869E-02-3.04134E-01 5.36990E+01 4.32612E+00 4.50846E+02 1.84558E-01
 -1      4399 1.27270E-02-4.37660E-01 5.35906E+01 2.51183E-01 4.87255E+02 8.05713E-03
 -1      4400-3.52999E-02 2.28703E-01-1.57875E+02 2.33264E-01 4.79421E+02-9.04639E-02
 -1      4401-2.68679E-02-3.31779E-01 5.36359E+01 2.34203E+00 4.69325E+02 9.92881E-02
 -1      4402-5.27406E-02-3.64893E-01 5.37232E+01 5.84940E+00 4.46913E+02 2.42909E-01
 -1      4403 6.31971E-02-2.09351E-01-1.58991E+02 4.17311E+00 4.38067E+02-1.98103E+00
 -1      4404 7.87494E-03-2.02140E-01 5.36702E+01 1.26532E-01 4.95565E+02 2.93256E-03
 -1      4405-2.84257E-02-1.95390E-01 5.36733E+01 2.33848E+00 4.52718E+02 9.93204E-02
 -1      4406 9.96150E-03-2.67951E-01 5.36591E+01 1.18651E-01 4.91582E+02 2.91760E-03
 -1      4407-2.77606E-02 5.09721E-02-1.32336E+02 1.16290E-01 4.82505E+02-5.00758E-02
 -1      4408-1.78293E-02-2.05977E-01 5.36528E+01 1.25813E+00 4.72037E+02 5.22976E-02
 -1      4409-3.43857E-02-2.45553E-01 5.36929E+01 3.21580E+00 4.49330E+02 1.37531E-01
 -1      4410 4.37628E-02-1.88269E-01-1.32881E+02 2.25195E+00 4.39869E+02-1.61804E+00
 -1      4411 4.68345E-03-1.10472E-01 5.36740E+01 6.22874E-02 4.97260E+02 4.81781E-04
 -1      4412-1.68225E-02-1.15436E-01 5.36576E+01 1.22161E+00 4.53816E+02 4.90927E-02
 -1      4413 6.63608E-03-1.51682E-01 5.36779E+01 5.31424E-02 4.93965E+02 6.23873E-04
 -1      4414-1.99464E-02-6.48314E-04-1.06264E+02 5.56586E-02 4.84144E+02-2.85572E-02
 -1      4415-1.08269E-02-1.18096E-01 5.36566E+01 6.53415E-01 4.73552E+02 2.51724E-02
 -1      4416-2.05553E-02-1.50613E-01 5.36724E+01 1.70983E+00 4.50794E+02 7.20329E-02
 -1      4417 2.78916E-02-1.31135E-01-1.06516E+02 1.17353E+00 4.40914E+02-1.39735E+00
 -1      4418 2.54946E-03-5.54819E-02 5.36675E+01 2.94977E-02 4.98124E+02-4.14894E-04
 -1      4419-9.20671E-03-6.30699E-02 5.36487E+01 6.15262E-01 4.54425E+02 2.17140E-02
 -1      4420 4.07486E-03-7.93036E-02 5.36765E+01 2.23311E-02 4.95217E+02-2.59511E-04
 -1      4421-1.28922E-02-8.05041E-03-7.98681E+01 2.53142E-02 4.84973E+02-1.73377E-02
 -1      4422-6.07411E-03-6.25589E-02 5.36553E+01 3.27071E-01 4.74358E+02 1.06996E-02
 -1      4423-1.13843E-02-8.53620E-02 5.36597E+01 8.77791E-01 4.51633E+02 3.44354E-02
 -1      4424 1.68843E-02-7.88056E-02-7.99761E+01 5.89111E-01 4.41490E+02-1.26814E+00
 -1      4425 1.27795E-03-2.48560E-02 5.36594E+01 1.33404E-02 4.98540E+02-5.99976E-04
 -1      4426-4.62012E-03-3.15708E-02 5.36441E+01 2.97455E-01 4.54746E+02 8.02654E-03
 -1      4427 2.30114E-03-3.76485E-02 5.36690E+01 8.43903E-03 4.95841E+02-4.79729E-04
 -1      4428-7.87451E-03-4.37558E-03-5.32871E+01 1.07533E-02 4.85370E+02-1.16725E-02
 -1      4429-3.13528E-03-3.01413E-02 5.36527E+01 1.57052E-01 4.74766E+02 3.64508E-03
 -1      4430-5.79876E-03-4.46179E-02 5.36524E+01 4.33693E-01 4.52089E+02 1.45108E-02
 -1      4431 9.85040E-03-4.21960E-02-5.33288E+01 2.83593E-01 4.41792E+02-1.19498E+00
 -1      4432 5.65406E-04-9.01440E-03 5.36526E+01 5.67657E-03 4.98728E+02-5.09729E-04
 -1      4433-2.05220E-03-1.39688E-02 5.36418E+01 1.36991E-01 4.54907E+02 1.95738E-03
 -1      4434 1.19753E-03-1.53651E-02 5.36613E+01 2.62738E-03 4.96135E+02-4.35367E-04
 -1      4435-4.55708E-03-2.14125E-04-2.66062E+01 4.14796E-03 4.85549E+02-8.89703E-03
 -1      4436-1.45156E-03-1.25375E-02 5.36504E+01 7.17515E-02 4.74961E+02 6.36960E-04
 -1      4437-2.64290E-03-2.10690E-02 5.36485E+01 2.05057E-01 4.52324E+02 4.90527E-03
 -1      4438 5.56491E-03-2.00273E-02-2.66198E+01 1.29867E-01 4.41943E+02-1.15485E+00
 -1      4439 1.97606E-04-1.46982E-03 5.36480E+01 2.22068E-03 4.98807E+02-3.40434E-04
 -1      4440-7.21736E-04-4.86535E-03 5.36409E+01 5.89157E-02 4.54982E+02-1.73509E-04
 -1      4441 5.61307E-04-4.33006E-03 5.36554E+01 4.74682E-04 4.96265E+02-3.10298E-04
 -1      4442-2.46984E-03 2.15333E-03 1.25730E-01 1.38183E-03 4.85623E+02-7.57394E-03
 -1      4443-5.59719E-04-3.69429E-03 5.36487E+01 3.05731E-02 4.75049E+02-3.23852E-04
 -1      4444-9.84713E-04-8.41883E-03 5.36466E+01 9.17332E-02 4.52440E+02 9.05251E-04
 -1      4445 2.99722E-03-7.94368E-03 1.22177E-01 5.54228E-02 4.42014E+02-1.13364E+00
 -1      4446 2.92283E-05 1.70658E-03 5.36454E+01 7.28070E-04 4.98836E+02-1.65780E-04
 -1      4447-1.11882E-04-6.99903E-04 5.36405E+01 2.12822E-02 4.55015E+02-4.45400E-04
 -1      4448 2.28554E-04 6.36273E-04 5.36517E+01-1.09977E-04 4.96316E+02-1.78154E-04
 -1      4449-1.11058E-03 2.90159E-03 2.68824E+01 3.53723E-04 4.85650E+02-6.95198E-03
 -1      4450-1.42708E-04 2.41093E-04 5.36477E+01 1.09458E-02 4.75085E+02-3.40308E-04
 -1      4451-1.88638E-04-2.20865E-03 5.36458E+01 3.72293E-02 4.52493E+02-2.78717E-04
 -1      4452 1.36727E-03-1.99385E-03 2.68805E+01 1.97746E-02 4.42044E+02-1.12328E+00
 -1      4453-1.85571E-05 2.55681E-03 5.36445E+01 6.62388E-11 4.98843E+02 5.39102E-11
 -1      4454 6.15053E-05 4.83013E-04 5.36404E+01 7.83619E-12 4.55024E+02 2.07853E-11
 -1      4455 8.88840E-05 2.46871E-03 5.36499E+01-8.81290E-05 4.96334E+02-5.73875E-05
 -1      4456-3.42246E-05 2.40668E-03 5.36495E+01-1.89474E-05 4.85657E+02-6.67095E-03
 -1      4457-2.26049E-05 1.33781E-03 5.36474E+01 6.28367E-11 4.75094E+02 2.48570E-11
 -1      4458 1.23140E-04 2.69846E-04 5.36454E+01 9.81611E-03 4.52513E+02-2.09341E-04
 -1      4459 5.61770E-05 4.66694E-04 5.36454E+01-2.51010E-04 4.42052E+02-1.11981E+00
 -1      4460 2.92283E-05 1.70658E-03 5.36454E+01-7.28070E-04 4.98836E+02 1.65780E-04
 -1      4461-1.11882E-04-6.99902E-04 5.36405E+01-2.12822E-02 4.55015E+02 4.45401E-04
 -1      4462 8.88840E-05 2.46871E-03 5.36499E+01 8.81288E-05 4.96334E+02 5.73875E-05
 -1      4463 1.20098E-03 4.33471E-04 8.04182E+01-3.95843E-04 4.85650E+02-6.61792E-03
 -1      4464-1.42707E-04 2.41093E-04 5.36477E+01-1.09458E-02 4.75085E+02 3.40308E-04
 -1      4465 1.23140E-04 2.69846E-04 5.36454E+01-9.81611E-03 4.52513E+02 2.09341E-04
 -1      4466-1.53491E-03 7.94111E-04 8.04105E+01-2.03271E-02 4.42043E+02-1.12242E+00
 -1      4467 1.97606E-04-1.46982E-03 5.36480E+01-2.22068E-03 4.98807E+02 3.40434E-04
 -1      4468-7.21736E-04-4.86535E-03 5.36409E+01-5.89157E-02 4.54982E+02 1.73510E-04
 -1      4469 2.28554E-04 6.36273E-04 5.36517E+01 1.09977E-04 4.96316E+02 1.78154E-04
 -1      4470 3.12016E-03-4.37157E-03 1.07180E+02-1.43554E-03 4.85621E+02-6.89815E-03
 -1      4471-5.59719E-04-3.69429E-03 5.36487E+01-3.05731E-02 4.75049E+02 3.23852E-04
 -1      4472-1.88638E-04-2.20865E-03 5.36458E+01-3.72293E-02 4.52493E+02 2.78717E-04
 -1      4473-4.15081E-03-7.72673E-04 1.07170E+02-5.61097E-02 4.42012E+02-1.13335E+00
 -1      4474 5.65406E-04-9.01440E-03 5.36526E+01-5.67657E-03 4.98728E+02 5.09729E-04
 -1      4475-2.05220E-03-1.39688E-02 5.36418E+01-1.36991E-01 4.54907E+02-1.95738E-03
 -1      4476 5.61307E-04-4.33006E-03 5.36554E+01-4.74682E-04 4.96265E+02 3.10298E-04
 -1      4477 6.43192E-03-1.52893E-02 1.33921E+02-4.21610E-03 4.85543E+02-7.91572E-03
 -1      4478-1.45156E-03-1.25375E-02 5.36504E+01-7.17515E-02 4.74961E+02-6.36960E-04
 -1      4479-9.84713E-04-8.41883E-03 5.36466E+01-9.17332E-02 4.52440E+02-9.05251E-04
 -1      4480-8.87322E-03-5.13377E-03 1.33913E+02-1.30704E-01 4.41938E+02-1.15884E+00
 -1      4481 1.27795E-03-2.48560E-02 5.36594E+01-1.33404E-02 4.98540E+02 5.99976E-04
 -1      4482-4.62012E-03-3.15708E-02 5.36441E+01-2.97455E-01 4.54746E+02-8.02654E-03
 -1      4483 1.19753E-03-1.53651E-02 5.36613E+01-2.62738E-03 4.96135E+02 4.35367E-04
 -1      4484 1.21220E-02-3.92050E-02 1.60615E+02-1.08266E-02 4.85357E+02-1.05960E-02
 -1      4485-3.13528E-03-3.01413E-02 5.36527E+01-1.57052E-01 4.74766E+02-3.64508E-03
 -1      4486-2.64290E-03-2.10690E-02 5.36485E+01-2.05057E-01 4.52324E+02-4.90527E-03
 -1      4487-1.73252E-02-1.47974E-02 1.60626E+02-2.84420E-01 4.41781E+02-1.21108E+00
 -1      4488 2.54946E-03-5.54819E-02 5.36675E+01-2.94977E-02 4.98124E+02 4.14894E-04
 -1      4489-9.20671E-03-6.30699E-02 5.36487E+01-6.15262E-01 4.54425E+02-2.17140E-02
 -1      4490 2.30114E-03-3.76485E-02 5.36690E+01-8.43903E-03 4.95841E+02 4.79729E-04
 -1      4491 2.13816E-02-9.01200E-02 1.87211E+02-2.53557E-02 4.84946E+02-1.68152E-02
 -1      4492-6.07411E-03-6.25589E-02 5.36553E+01-3.27071E-01 4.74358E+02-1.06996E-02
 -1      4493-5.79876E-03-4.46179E-02 5.36524E+01-4.33693E-01 4.52089E+02-1.45108E-02
 -1      4494-3.18162E-02-3.52206E-02 1.87282E+02-5.89380E-01 4.41466E+02-1.31147E+00
 -1      4495 4.68345E-03-1.10472E-01 5.36740E+01-6.22874E-02 4.97260E+02-4.81781E-04
 -1      4496-1.68225E-02-1.15436E-01 5.36576E+01-1.22161E+00 4.53816E+02-4.90927E-02
 -1      4497 4.07486E-03-7.93036E-02 5.36765E+01-2.23311E-02 4.95217E+02 2.59512E-04
 -1      4498 3.55343E-02-1.96051E-01 2.13618E+02-5.55730E-02 4.84091E+02-3.01805E-02
 -1      4499-1.08269E-02-1.18096E-01 5.36566E+01-6.53415E-01 4.73552E+02-2.51724E-02
 -1      4500-1.13843E-02-8.53620E-02 5.36597E+01-8.77791E-01 4.51633E+02-3.44354E-02
 -1      4501-5.52298E-02-7.78210E-02 2.13838E+02-1.17190E+00 4.40867E+02-1.49506E+00
 -1      4502 7.87494E-03-2.02140E-01 5.36702E+01-1.26532E-01 4.95565E+02-2.93256E-03
 -1      4503-2.84257E-02-1.95390E-01 5.36733E+01-2.33848E+00 4.52718E+02-9.93204E-02
 -1      4504 6.63608E-03-1.51682E-01 5.36779E+01-5.31424E-02 4.93965E+02-6.23873E-04
 -1      4505 5.40447E-02-4.12884E-01 2.39679E+02-1.15873E-01 4.82409E+02-5.72227E-02
 -1      4506-1.78293E-02-2.05977E-01 5.36528E+01-1.25813E+00 4.72037E+02-5.22976E-02
 -1      4507-2.05553E-02-1.50613E-01 5.36724E+01-1.70983E+00 4.50794E+02-7.20329E-02
 -1      4508-9.00761E-02-1.65907E-01 2.40230E+02-2.24563E+00 4.39784E+02-1.81539E+00
 -1      4509 1.25372E-02-3.42240E-01 5.36374E+01-2.50048E-01 4.92402E+02-8.54411E-03
 -1      4510-4.42869E-02-3.04134E-01 5.36990E+01-4.32612E+00 4.50846E+02-1.84558E-01
 -1      4511 9.96150E-03-2.67951E-01 5.36591E+01-1.18651E-01 4.91582E+02-2.91760E-03
 -1      4512 7.68339E-02-8.44789E-01 2.65144E+02-2.32114E-01 4.79261E+02-1.09822E-01
 -1      4513-2.68679E-02-3.31779E-01 5.36359E+01-2.34203E+00 4.69325E+02-9.92881E-02
 -1      4514-3.43857E-02-2.45553E-01 5.36929E+01-3.21580E+00 4.49330E+02-1.37531E-01
 -1      4515-1.35537E-01-3.42766E-01 2.66384E+02-4.15681E+00 4.37927E+02-2.34724E+00
 -1      4516 1.64741E-02-5.33269E-01 5.35370E+01-4.79224E-01 4.86776E+02-1.98102E-02
 -1      4517-6.17834E-02-4.24390E-01 5.37380E+01-7.74127E+00 4.47840E+02-3.17488E-01
 -1      4518 1.27270E-02-4.37660E-01 5.35906E+01-2.51183E-01 4.87255E+02-8.05713E-03
 -1      4519 7.84941E-02-1.68396E+00 2.89639E+02-4.49796E-01 4.73629E+02-2.06322E-01
 -1      4520-3.56978E-02-4.85197E-01 5.35910E+01-4.21849E+00 4.64705E+02-1.74564E-01
 -1      4521-5.27406E-02-3.64893E-01 5.37232E+01-5.84940E+00 4.46913E+02-2.42909E-01
 -1      4522-1.79833E-01-6.77258E-01 2.92233E+02-7.43911E+00 4.34915E+02-3.17993E+00
 -1      4523 2.36616E-02-7.43235E-01 5.32983E+01-9.07911E-01 4.77133E+02-4.17737E-02
 -1      4524-7.41018E-02-4.95771E-01 5.37903E+01-1.33812E+01 4.43280E+02-5.03069E-01
 -1      4525 1.42606E-02-6.51389E-01 5.34157E+01-5.16840E-01 4.79713E+02-1.80785E-02
 -1      4526 9.16964E-02-3.16454E+00 3.12688E+02-8.51566E-01 4.63942E+02-3.86054E-01
 -1      4527-3.81470E-02-6.16157E-01 5.34885E+01-7.35583E+00 4.57153E+02-2.83159E-01
 -1      4528-7.28823E-02-4.74942E-01 5.37631E+01-1.02878E+01 4.43143E+02-3.95907E-01
 -1      4529-1.80558E-01-1.20539E+00 3.17820E+02-1.28542E+01 4.30313E+02-4.38505E+00
 -1      4530-3.96136E-03-8.78642E-01 5.27892E+01-1.65712E+00 4.61112E+02-7.83804E-02
 -1      4531-5.44146E-02-3.62428E-01 5.38508E+01-2.22700E+01 4.36680E+02-7.17401E-01
 -1      4532 1.77119E-04-8.52109E-01 5.30360E+01-1.01621E+00 4.66991E+02-3.79828E-02
 -1      4533-2.23389E-01-5.61535E+00 3.33480E+02-1.55750E+00 4.47778E+02-6.72140E-01
 -1      4534-1.88890E-02-5.82287E-01 5.32905E+01-1.23605E+01 4.45264E+02-4.20229E-01
 -1      4535-8.12682E-02-4.76905E-01 5.38056E+01-1.74616E+01 4.37553E+02-5.88677E-01
 -1      4536-8.86810E-04-1.73854E+00 3.43305E+02-2.13784E+01 4.23568E+02-5.90150E+00
 -1      4537 4.19561E-02-6.39779E-01 5.18270E+01-3.06721E+00 4.33847E+02-1.48343E-01
 -1      4538 2.08179E-02 2.88065E-01 5.38981E+01-3.52229E+01 4.26650E+02-8.56928E-01
 -1      4539-6.17526E-03-8.61055E-01 5.22826E+01-2.00852E+00 4.45480E+02-6.71561E-02
 -1      4540 5.18598E-02-7.91861E+00 3.51063E+02-2.91546E+00 4.20626E+02-1.22882E+00
 -1      4541 5.59973E-02-8.19342E-02 5.29157E+01-1.99043E+01 4.25981E+02-5.28196E-01
 -1      4542-5.96706E-02-1.47634E-01 5.38395E+01-2.83685E+01 4.29112E+02-7.49493E-01
 -1      4543 5.40446E-01-9.07678E-01 3.69003E+02-3.38164E+01 4.13610E+02-7.21604E+00
 -1      4544-5.37303E-01 1.87484E-01 4.99987E+01-4.99989E+00 3.85125E+02-2.19486E-01
 -1      4545 4.15325E-01 2.07886E+00 5.39683E+01-5.19762E+01 4.07303E+02-6.22736E-01
 -1      4546-2.09033E-01-3.67067E-01 5.09754E+01-3.57307E+00 4.08059E+02-1.47889E-01
 -1      4547-4.46484E+00-8.59830E+00 3.61672E+02-4.81052E+00 3.73725E+02-1.85027E+00
 -1      4548 2.13392E-01 1.45017E+00 5.24285E+01-2.97340E+01 3.92380E+02-5.07553E-01
 -1      4549 1.18345E-01 9.51867E-01 5.38292E+01-4.35736E+01 4.14913E+02-7.17369E-01
 -1      4550 3.60813E+00 6.38945E+00 3.95405E+02-5.00368E+01 3.95952E+02-6.31228E+00
 -1      4551 3.65486E-01 2.78967E+00 4.67518E+01-1.06678E+01 2.87019E+02-7.04360E-01
 -1      4552 8.87151E-01 5.61691E+00 5.42074E+01-6.42512E+01 3.66056E+02 1.12872E+00
 -1      4553 1.34896E-01 1.48043E+00 4.89247E+01-7.87522E+00 3.36035E+02-1.19816E-01
 -1      4554 1.77453E+00 4.95306E+00 3.55416E+02-1.05943E+01 2.80549E+02-5.58938E+00
 -1      4555 1.03970E+00 5.08051E+00 5.25680E+01-4.06696E+01 3.25624E+02 3.03039E-01
 -1      4556 4.36968E-01 3.52642E+00 5.40427E+01-5.94577E+01 3.84618E+02 2.48703E-01
 -1      4557 6.86928E+00 2.84307E+01 4.19023E+02-6.23368E+01 3.59187E+02 6.15830E+00
 -1      4558-3.58156E+00 7.98577E+00 5.01205E+01-5.40080E+00 1.07389E+02-1.72811E+00
 -1      4559 9.53755E+00 1.44916E+01 5.71076E+01-5.91449E+01 2.49486E+02 7.56228E+00
 -1      4560-4.04036E+00 3.43809E+00 4.54283E+01-1.36274E+01 1.95643E+02-1.19250E+00
 -1      4561-2.89483E+01 5.02888E+01 3.85965E+02-5.89522E+00 1.10394E+02-1.40529E+01
 -1      4562 4.33125E+00 1.18650E+01 5.41065E+01-3.08087E+01 2.02650E+02 3.60177E+00
 -1      4563 3.30936E+00 8.48015E+00 5.32850E+01-6.51459E+01 3.14636E+02 3.48853E+00
 -1      4564 7.43452E+01 1.03848E+02 4.51623E+02-5.85370E+01 2.51888E+02 5.65130E+01
 -1      4565 3.90551E+01 3.90548E+01 8.52436E+01 6.48999E-04-1.78178E+02 2.59661E+01
 -1      4566 2.14702E+01 2.14700E+01 4.68617E+01 9.14613E-04 2.91436E+01 1.02634E+01
 -1      4567 9.63604E+00 2.00946E+01 6.51230E+01-1.93761E+01-4.06544E+01 1.02058E+01
 -1      4568 3.00220E+02 3.00222E+02 6.55297E+02-8.93370E-04-1.72573E+02 2.02441E+02
 -1      4569 2.82216E+01 2.82219E+01 6.16004E+01-7.63423E-04-5.61761E+01 1.75979E+01
 -1      4570 1.19761E+01 1.67006E+01 5.16393E+01-2.30517E+01 1.48166E+02 9.07664E+00
 -1      4571 1.68301E+02 1.68302E+02 3.67357E+02-8.33409E-04 3.46617E+01 8.11505E+01
 -1      4572 2.18043E+01 2.18043E+01 4.75914E+01-7.80756E-04 8.80688E+01-6.00675E+00
 -1      4573 1.19305E+01 1.37606E+01 5.26102E+01 3.67631E+01 3.22680E+02-5.05062E+00
 -1      4574 2.11501E+01 2.11501E+01 4.61647E+01 9.85729E-04 6.48905E+01-7.84763E+00
 -1      4575 9.24028E+00 1.34041E+01 5.39953E+01 3.94417E+01 2.94135E+02-5.72571E+00
 -1      4576-1.30062E+02-1.30062E+02-2.83889E+02 8.14298E-04 9.06338E+01 3.51254E+01
 -1      4577 1.66970E+01 1.75446E+01 4.97116E+01 2.03463E+01 2.12799E+02-5.71090E+00
 -1      4578-7.17458E+01-7.23325E+01-3.16537E+02 3.62126E+01 3.23189E+02 2.74870E+01
 -1      4579 4.92565E+00 7.21899E+00 5.56238E+01 5.37765E+01 4.21021E+02-1.80321E+00
 -1      4580 3.70309E+00 6.90270E+00 5.55814E+01 5.77294E+01 3.96674E+02-1.75069E+00
 -1      4581 7.76326E+00 1.00290E+01 5.40708E+01 4.87578E+01 3.76093E+02-3.35790E+00
 -1      4582-3.02405E+01-2.61502E+01-3.23890E+02 5.25325E+01 4.12863E+02 8.12744E+00
 -1      4583 1.83792E+00 3.08361E+00 5.61158E+01 4.97617E+01 4.41733E+02-5.96152E-02
 -1      4584 1.16083E+00 2.67891E+00 5.52364E+01 5.02825E+01 4.25667E+02 1.98499E-01
 -1      4585 2.86192E+00 4.65136E+00 5.55879E+01 5.33765E+01 4.30868E+02-8.80485E-01
 -1      4586-1.24209E+01-6.52011E+00-3.02925E+02 4.83761E+01 4.29664E+02-1.10296E+00
 -1      4587 4.34286E-01 8.36078E-01 5.55166E+01 3.68861E+01 4.38730E+02 6.29123E-01
 -1      4588 3.11538E-01 6.69347E-01 5.48976E+01 3.62684E+01 4.31907E+02 7.16554E-01
 -1      4589 8.58250E-01 1.62296E+00 5.55638E+01 4.35834E+01 4.37888E+02 3.13937E-01
 -1      4590-4.23140E+00-1.95022E-01-2.72222E+02 3.57709E+01 4.25517E+02-4.28394E+00
 -1      4591-6.04116E-02-8.21956E-02 5.49326E+01 2.47178E+01 4.32494E+02 6.87823E-01
 -1      4592-4.15377E-02-1.84788E-01 5.44497E+01 2.37158E+01 4.33187E+02 7.01786E-01
 -1      4593 8.66886E-02 2.36739E-01 5.51491E+01 3.05425E+01 4.32827E+02 6.49142E-01
 -1      4594-1.29160E+00 4.35081E-01-2.42697E+02 2.39657E+01 4.19606E+02-4.39609E+00
 -1      4595-2.04645E-01-3.64700E-01 5.44373E+01 1.54536E+01 4.28389E+02 5.43955E-01
 -1      4596-1.35527E-01-4.14707E-01 5.41329E+01 1.46174E+01 4.34165E+02 5.28853E-01
 -1      4597-1.69285E-01-2.80457E-01 5.46545E+01 1.97289E+01 4.27773E+02 6.03414E-01
 -1      4598-2.21537E-01 3.54547E-02-2.14501E+02 1.49850E+01 4.15836E+02-3.73302E+00
 -1      4599-2.01683E-01-3.69885E-01 5.40977E+01 9.21282E+00 4.26423E+02 3.69579E-01
 -1      4600-1.34848E-01-3.93772E-01 5.39190E+01 8.61638E+00 4.35396E+02 3.49747E-01
 -1      4601-2.08976E-01-3.80956E-01 5.42659E+01 1.20323E+01 4.24826E+02 4.45311E-01
 -1      4602 1.19188E-01-2.13264E-01-1.87216E+02 8.93323E+00 4.13979E+02-3.01953E+00
 -1      4603-1.54436E-01-2.86413E-01 5.38828E+01 5.27735E+00 4.25628E+02 2.27664E-01
 -1      4604-1.03479E-01-2.96218E-01 5.37879E+01 4.89233E+00 4.36497E+02 2.11055E-01
 -1      4605-1.73584E-01-3.25541E-01 5.39976E+01 7.02976E+00 4.23490E+02 2.90646E-01
 -1      4606 1.78932E-01-2.68230E-01-1.60351E+02 5.11437E+00 4.13204E+02-2.46625E+00
 -1      4607-1.03595E-01-1.93391E-01 5.37584E+01 2.91688E+00 4.25379E+02 1.29376E-01
 -1      4608-6.95710E-02-1.96548E-01 5.37133E+01 2.68267E+00 4.37325E+02 1.17760E-01
 -1      4609-1.22098E-01-2.32480E-01 5.38307E+01 3.95592E+00 4.22987E+02 1.73439E-01
 -1      4610 1.53188E-01-2.20243E-01-1.33614E+02 2.82392E+00 4.12932E+02-2.08723E+00
 -1      4611-6.33899E-02-1.18905E-01 5.36913E+01 1.55703E+00 4.25335E+02 6.79819E-02
 -1      4612-4.26447E-02-1.19204E-01 5.36738E+01 1.42119E+00 4.37871E+02 6.06673E-02
 -1      4613-7.74472E-02-1.48955E-01 5.37345E+01 2.14964E+00 4.22846E+02 9.57309E-02
 -1      4614 1.09534E-01-1.49783E-01-1.06899E+02 1.50508E+00 4.12864E+02-1.84577E+00
 -1      4615-3.58195E-02-6.74837E-02 5.36582E+01 8.01986E-01 4.25354E+02 3.26643E-02
 -1      4616-2.41386E-02-6.68023E-02 5.36547E+01 7.26310E-01 4.38201E+02 2.84199E-02
 -1      4617-4.52234E-02-8.77246E-02 5.36832E+01 1.12793E+00 4.22835E+02 4.87334E-02
 -1      4618 7.15258E-02-9.00435E-02-8.01690E+01 7.73618E-01 4.12863E+02-1.69949E+00
 -1      4619-1.86372E-02-3.52804E-02 5.36435E+01 3.97438E-01 4.25382E+02 1.39239E-02
 -1      4620-1.25834E-02-3.44359E-02 5.36464E+01 3.56870E-01 4.38386E+02 1.16361E-02
 -1      4621-2.43974E-02-4.77328E-02 5.36580E+01 5.70439E-01 4.22858E+02 2.25058E-02
 -1      4622 4.40086E-02-4.90198E-02-5.34225E+01 3.82340E-01 4.12879E+02-1.61436E+00
 -1      4623-8.72722E-03-1.66299E-02 5.36379E+01 1.88301E-01 4.25403E+02 4.89955E-03
 -1      4624-5.90806E-03-1.59141E-02 5.36435E+01 1.67448E-01 4.38484E+02 3.75725E-03
 -1      4625-1.20019E-02-2.37303E-02 5.36469E+01 2.76903E-01 4.22883E+02 9.05758E-03
 -1      4626 2.57979E-02-2.41277E-02-2.66638E+01 1.80508E-01 4.12894E+02-1.56657E+00
 -1      4627-3.44523E-03-6.65104E-03 5.36365E+01 8.35964E-02 4.25416E+02 1.16187E-03
 -1      4628-2.34468E-03-6.11348E-03 5.36429E+01 7.35465E-02 4.38532E+02 6.42944E-04
 -1      4629-5.15729E-03-1.03754E-02 5.36428E+01 1.27665E-01 4.22900E+02 2.89160E-03
 -1      4630 1.41536E-02-1.03798E-02 1.02050E-01 7.97574E-02 4.12904E+02-1.54086E+00
 -1      4631-9.61798E-04-1.94357E-03 5.36364E+01 3.10991E-02 4.25423E+02 5.13991E-05
 -1      4632-6.67051E-04-1.53495E-03 5.36429E+01 2.70949E-02 4.38554E+02-1.41819E-04
 -1      4633-1.70755E-03-3.59700E-03 5.36417E+01 5.34788E-02 4.22910E+02 5.61663E-04
 -1      4634 6.32325E-03-3.47123E-03 2.68712E+01 2.94353E-02 4.12909E+02-1.52826E+00
 -1      4635-2.44041E-04-5.80137E-04 5.36364E+01 3.56327E-11 4.25425E+02 4.61459E-11
 -1      4636-1.81777E-04-2.17046E-04 5.36430E+01-3.06354E-11 4.38560E+02 3.76534E-11
 -1      4637-3.01039E-04-8.18023E-04 5.36415E+01 1.44290E-02 4.22915E+02 1.64376E-05
 -1      4638-2.34289E-04-5.42975E-04 5.36414E+01-2.75427E-04 4.12911E+02-1.52436E+00
 -1      4639-9.61798E-04-1.94357E-03 5.36364E+01-3.10991E-02 4.25423E+02-5.13990E-05
 -1      4640-6.67050E-04-1.53495E-03 5.36429E+01-2.70949E-02 4.38554E+02 1.41819E-04
 -1      4641-3.01039E-04-8.18023E-04 5.36415E+01-1.44290E-02 4.22915E+02-1.64375E-05
 -1      4642-8.15049E-03-9.49855E-05 8.04116E+01-3.00351E-02 4.12909E+02-1.52839E+00
 -1      4643-3.44523E-03-6.65104E-03 5.36365E+01-8.35964E-02 4.25416E+02-1.16187E-03
 -1      4644-2.34468E-03-6.11348E-03 5.36429E+01-7.35465E-02 4.38532E+02-6.42943E-04
 -1      4645-1.70755E-03-3.59700E-03 5.36417E+01-5.34788E-02 4.22910E+02-5.61663E-04
 -1      4646-2.06813E-02-1.74737E-03 1.07181E+02-8.04822E-02 4.12902E+02-1.54324E+00
 -1      4647-8.72722E-03-1.66299E-02 5.36379E+01-1.88301E-01 4.25403E+02-4.89955E-03
 -1      4648-5.90806E-03-1.59141E-02 5.36435E+01-1.67448E-01 4.38484E+02-3.75725E-03
 -1      4649-5.15729E-03-1.03754E-02 5.36428E+01-1.27665E-01 4.22900E+02-2.89160E-03
 -1      4650-4.23210E-02-6.13863E-03 1.33950E+02-1.81349E-01 4.12889E+02-1.57643E+00
 -1      4651-1.86372E-02-3.52804E-02 5.36435E+01-3.97438E-01 4.25382E+02-1.39239E-02
 -1      4652-1.25834E-02-3.44359E-02 5.36464E+01-3.56870E-01 4.38386E+02-1.16361E-02
 -1      4653-1.20019E-02-2.37303E-02 5.36469E+01-2.76903E-01 4.22883E+02-9.05758E-03
 -1      4654-7.92811E-02-1.51301E-02 1.60719E+02-3.83079E-01 4.12868E+02-1.64224E+00
 -1      4655-3.58195E-02-6.74837E-02 5.36582E+01-8.01986E-01 4.25354E+02-3.26643E-02
 -1      4656-2.41386E-02-6.68023E-02 5.36547E+01-7.26310E-01 4.38201E+02-2.84199E-02
 -1      4657-2.43974E-02-4.77328E-02 5.36580E+01-5.70439E-01 4.22858E+02-2.25058E-02
 -1      4658-1.39301E-01-3.25815E-02 1.87495E+02-7.73586E-01 4.12839E+02-1.76471E+00
 -1      4659-6.33899E-02-1.18905E-01 5.36913E+01-1.55703E+00 4.25335E+02-6.79819E-02
 -1      4660-4.26447E-02-1.19204E-01 5.36738E+01-1.42119E+00 4.37871E+02-6.06673E-02
 -1      4661-4.52234E-02-8.77246E-02 5.36832E+01-1.12793E+00 4.22835E+02-4.87334E-02
 -1      4662-2.29448E-01-6.61479E-02 2.14289E+02-1.50271E+00 4.12817E+02-1.98127E+00
 -1      4663-1.03595E-01-1.93391E-01 5.37584E+01-2.91688E+00 4.25379E+02-1.29376E-01
 -1      4664-6.95710E-02-1.96548E-01 5.37133E+01-2.68267E+00 4.37325E+02-1.17760E-01
 -1      4665-7.74472E-02-1.48955E-01 5.37345E+01-2.14964E+00 4.22846E+02-9.57309E-02
 -1      4666-3.49154E-01-1.30784E-01 2.41134E+02-2.81606E+00 4.12848E+02-2.34474E+00
 -1      4667-1.54436E-01-2.86413E-01 5.38828E+01-5.27735E+00 4.25628E+02-2.27664E-01
 -1      4668-1.03479E-01-2.96218E-01 5.37879E+01-4.89233E+00 4.36497E+02-2.11055E-01
 -1      4669-1.22098E-01-2.32480E-01 5.38307E+01-3.95592E+00 4.22987E+02-1.73439E-01
 -1      4670-4.71008E-01-2.51244E-01 2.68111E+02-5.09520E+00 4.13063E+02-2.91886E+00
 -1      4671-2.01683E-01-3.69885E-01 5.40977E+01-9.21282E+00 4.26423E+02-3.69579E-01
 -1      4672-1.34848E-01-3.93772E-01 5.39190E+01-8.61638E+00 4.35396E+02-3.49747E-01
 -1      4673-1.73584E-01-3.25541E-01 5.39976E+01-7.02976E+00 4.23490E+02-2.90646E-01
 -1      4674-5.00993E-01-4.57503E-01 2.95390E+02-8.89320E+00 4.13763E+02-3.75346E+00
 -1      4675-2.04645E-01-3.64700E-01 5.44373E+01-1.54536E+01 4.28389E+02-5.43955E-01
 -1      4676-1.35527E-01-4.14707E-01 5.41329E+01-1.46174E+01 4.34165E+02-5.28853E-01
 -1      4677-2.08976E-01-3.80956E-01 5.42659E+01-1.20323E+01 4.24826E+02-4.45311E-01
 -1      4678-1.65854E-01-6.95281E-01 3.23329E+02-1.49103E+01 4.15542E+02-4.81202E+00
 -1      4679-6.04116E-02-8.21956E-02 5.49326E+01-2.47178E+01 4.32494E+02-6.87823E-01
 -1      4680-4.15377E-02-1.84788E-01 5.44497E+01-2.37158E+01 4.33187E+02-7.01786E-01
 -1      4681-1.69285E-01-2.80457E-01 5.46545E+01-1.97289E+01 4.27773E+02-6.03414E-01
 -1      4682 1.17626E+00-5.80183E-01 3.52476E+02-2.38403E+01 4.19281E+02-5.75870E+00
 -1      4683 4.34286E-01 8.36078E-01 5.55166E+01-3.68861E+01 4.38730E+02-6.29123E-01
 -1      4684 3.11538E-01 6.69347E-01 5.48976E+01-3.62684E+01 4.31907E+02-7.16554E-01
 -1      4685 8.66886E-02 2.36739E-01 5.51491E+01-3.05425E+01 4.32827E+02-6.49142E-01
 -1      4686 5.05527E+00 1.72853E+00 3.83122E+02-3.55851E+01 4.25319E+02-5.52753E+00
 -1      4687 1.83792E+00 3.08361E+00 5.61158E+01-4.97617E+01 4.41733E+02 5.96152E-02
 -1      4688 1.16083E+00 2.67891E+00 5.52364E+01-5.02825E+01 4.25667E+02-1.98499E-01
 -1      4689 8.58250E-01 1.62296E+00 5.55638E+01-4.35834E+01 4.37888E+02-3.13937E-01
 -1      4690 1.59836E+01 1.22806E+01 4.15038E+02-4.81441E+01 4.29942E+02-9.75475E-01
 -1      4691 4.92565E+00 7.21899E+00 5.56238E+01-5.37765E+01 4.21021E+02 1.80321E+00
 -1      4692 3.70309E+00 6.90270E+00 5.55814E+01-5.77294E+01 3.96674E+02 1.75069E+00
 -1      4693 2.86192E+00 4.65136E+00 5.55879E+01-5.33765E+01 4.30868E+02 8.80485E-01
 -1      4694 3.98940E+01 3.98682E+01 4.35079E+02-5.23078E+01 4.14051E+02 1.17251E+01
 -1      4695 1.19305E+01 1.37606E+01 5.26102E+01-3.67631E+01 3.22680E+02 5.05062E+00
 -1      4696 9.24028E+00 1.34041E+01 5.39953E+01-3.94417E+01 2.94135E+02 5.72571E+00
 -1      4697 7.76326E+00 1.00290E+01 5.40708E+01-4.87578E+01 3.76093E+02 3.35790E+00
 -1      4698 9.54589E+01 9.92801E+01 4.21762E+02-3.60712E+01 3.25425E+02 3.75683E+01
 -1      4699 2.18043E+01 2.18043E+01 4.75914E+01 7.80756E-04 8.80688E+01 6.00675E+00
 -1      4700 2.11501E+01 2.11501E+01 4.61647E+01-9.85729E-04 6.48905E+01 7.84763E+00
 -1      4701 1.66970E+01 1.75446E+01 4.97116E+01-2.03463E+01 2.12799E+02 5.71090E+00
 -1      4702 1.73588E+02 1.73588E+02 3.78893E+02-8.11372E-04 9.32578E+01 4.71075E+01
 -1      4703 2.13056E+01 2.13056E+01 4.65028E+01-4.06960E-04 1.17577E+02-2.76405E+00
 -1      4704 1.35774E+01 1.39620E+01 5.19877E+01 1.89613E+01 3.50932E+02-2.36184E+00
 -1      4705 2.14778E+01 2.14778E+01 4.68798E+01 6.20572E-04 1.05898E+02-4.29566E+00
 -1      4706 1.27300E+01 1.38023E+01 5.21537E+01 2.63270E+01 3.39973E+02-3.61137E+00
 -1      4707-1.28405E+02-1.28405E+02-2.80271E+02 4.21565E-04 1.20229E+02 1.61208E+01
 -1      4708 1.72223E+01 1.74386E+01 4.90736E+01 1.00087E+01 2.41404E+02-2.59712E+00
 -1      4709-8.29133E+01-7.43687E+01-3.15984E+02 1.87212E+01 3.51548E+02 1.27459E+01
 -1      4710 7.22981E+00 7.75083E+00 5.56151E+01 2.83603E+01 4.49685E+02-1.21920E+00
 -1      4711 6.19849E+00 7.51102E+00 5.56097E+01 3.94119E+01 4.38194E+02-1.58448E+00
 -1      4712 9.73261E+00 1.03060E+01 5.35037E+01 2.48632E+01 4.05464E+02-1.77902E+00
 -1      4713-4.47810E+01-2.84488E+01-3.26689E+02 2.77607E+01 4.41356E+02 5.80434E+00
 -1      4714 3.08782E+00 3.45767E+00 5.66829E+01 2.75880E+01 4.64423E+02-2.29797E-01
 -1      4715 2.48983E+00 3.29072E+00 5.64640E+01 3.78255E+01 4.54998E+02-1.86759E-01
 -1      4716 4.60987E+00 5.07289E+00 5.58230E+01 2.88773E+01 4.57107E+02-6.76094E-01
 -1      4717-2.06562E+01-7.23661E+00-3.08221E+02 2.68814E+01 4.51981E+02 4.76992E-01
 -1      4718 9.59011E-01 1.11081E+00 5.63779E+01 2.17693E+01 4.50699E+02 2.68918E-01
 -1      4719 7.59167E-01 1.02212E+00 5.60604E+01 2.91643E+01 4.45424E+02 4.14101E-01
 -1      4720 1.68886E+00 1.93483E+00 5.63074E+01 2.49839E+01 4.55362E+02 4.21025E-02
 -1      4721-8.27140E+00-4.70671E-01-2.78131E+02 2.11699E+01 4.37169E+02-1.97273E+00
 -1      4722 4.42214E-02 5.96932E-02 5.56309E+01 1.51335E+01 4.34615E+02 3.75967E-01
 -1      4723 2.14040E-02 1.73039E-02 5.53569E+01 1.99414E+01 4.33410E+02 5.21732E-01
 -1      4724 3.38177E-01 4.10717E-01 5.58827E+01 1.83748E+01 4.39815E+02 3.24713E-01
 -1      4725-2.88828E+00 4.83689E-01-2.47039E+02 1.47075E+01 4.21619E+02-2.45554E+00
 -1      4726-2.64793E-01-2.97697E-01 5.49224E+01 9.71435E+00 4.23185E+02 3.25271E-01
 -1      4727-2.14965E-01-3.11359E-01 5.47323E+01 1.26720E+01 4.25076E+02 4.33575E-01
 -1      4728-1.72547E-01-1.87553E-01 5.52294E+01 1.22406E+01 4.26118E+02 3.46715E-01
 -1      4729-7.37954E-01 1.34441E-01-2.17369E+02 9.44077E+00 4.10713E+02-2.26567E+00
 -1      4730-3.00415E-01-3.42456E-01 5.43977E+01 5.90202E+00 4.16373E+02 2.32115E-01
 -1      4731-2.40756E-01-3.44989E-01 5.42795E+01 7.63755E+00 4.20354E+02 3.03513E-01
 -1      4732-2.96234E-01-3.36351E-01 5.46521E+01 7.63404E+00 4.17100E+02 2.73187E-01
 -1      4733 2.15084E-02-1.32107E-01-1.88972E+02 5.73521E+00 4.04139E+02-1.91790E+00
 -1      4734-2.42493E-01-2.77601E-01 5.40536E+01 3.43191E+00 4.12589E+02 1.48005E-01
 -1      4735-1.93152E-01-2.75893E-01 5.39876E+01 4.41491E+00 4.17874E+02 1.90917E-01
 -1      4736-2.66707E-01-3.06052E-01 5.42326E+01 4.53555E+00 4.11874E+02 1.85616E-01
 -1      4737 2.19753E-01-2.15540E-01-1.61378E+02 3.33347E+00 4.00455E+02-1.61169E+00
 -1      4738-1.67615E-01-1.92388E-01 5.38479E+01 1.92156E+00 4.10587E+02 8.66191E-02
 -1      4739-1.33202E-01-1.89867E-01 5.38151E+01 2.45904E+00 4.16644E+02 1.10510E-01
 -1      4740-1.95462E-01-2.25381E-01 5.39623E+01 2.58792E+00 4.09025E+02 1.14230E-01
 -1      4741 2.21818E-01-1.89681E-01-1.34192E+02 1.86490E+00 3.98477E+02-1.38921E+00
 -1      4742-1.04852E-01-1.20569E-01 5.37341E+01 1.03820E+00 4.09557E+02 4.68976E-02
 -1      4743-8.31830E-02-1.18386E-01 5.37207E+01 1.32219E+00 4.16052E+02 5.91764E-02
 -1      4744-1.27395E-01-1.47370E-01 5.38023E+01 1.42385E+00 4.07532E+02 6.48510E-02
 -1      4745 1.69561E-01-1.33303E-01-1.07213E+02 1.00634E+00 3.97447E+02-1.24256E+00
 -1      4746-6.04230E-02-6.95961E-02 5.36760E+01 5.41284E-01 4.09041E+02 2.33666E-02
 -1      4747-4.78756E-02-6.80409E-02 5.36730E+01 6.85972E-01 4.15775E+02 2.91034E-02
 -1      4748-7.60899E-02-8.82483E-02 5.37148E+01 7.56139E-01 4.06772E+02 3.40412E-02
 -1      4749 1.14879E-01-8.17283E-02-8.03350E+01 5.23788E-01 3.96927E+02-1.15165E+00
 -1      4750-3.21093E-02-3.70490E-02 5.36491E+01 2.71732E-01 4.08789E+02 1.05056E-02
 -1      4751-2.54081E-02-3.60566E-02 5.36513E+01 3.42570E-01 4.15650E+02 1.28444E-02
 -1      4752-4.19767E-02-4.88073E-02 5.36706E+01 3.87197E-01 4.06396E+02 1.63588E-02
 -1      4753 7.24013E-02-4.51105E-02-5.35074E+01 2.62373E-01 3.96671E+02-1.09781E+00
 -1      4754-1.54724E-02-1.78944E-02 5.36382E+01 1.30593E-01 4.08671E+02 4.08088E-03
 -1      4755-1.22227E-02-1.73107E-02 5.36427E+01 1.63685E-01 4.15595E+02 4.82874E-03
 -1      4756-2.12170E-02-2.47431E-02 5.36504E+01 1.90512E-01 4.06215E+02 7.01139E-03
 -1      4757 4.31296E-02-2.24641E-02-2.67058E+01 1.25737E-01 3.96549E+02-1.06717E+00
 -1      4758-6.45471E-03-7.49722E-03 5.36347E+01 5.88718E-02 4.08617E+02 1.25023E-03
 -1      4759-5.08308E-03-7.17215E-03 5.36401E+01 7.33324E-02 4.15572E+02 1.37235E-03
 -1      4760-9.52462E-03-1.11590E-02 5.36424E+01 8.91515E-02 4.06131E+02 2.54060E-03
 -1      4761 2.38512E-02-9.82048E-03 8.18050E-02 5.64678E-02 3.96495E+02-1.05052E+00
 -1      4762-2.15312E-03-2.53154E-03 5.36339E+01 2.22006E-02 4.08595E+02 2.49220E-04
 -1      4763-1.68032E-03-2.34479E-03 5.36397E+01 2.75021E-02 4.15564E+02 2.16718E-04
 -1      4764-3.52444E-03-4.17384E-03 5.36397E+01 3.79081E-02 4.06094E+02 7.01381E-04
 -1      4765 1.05312E-02-3.49740E-03 2.68621E+01 2.11558E-02 3.96472E+02-1.04235E+00
 -1      4766-8.98602E-04-1.08225E-03 5.36339E+01-1.02103E-10 4.08590E+02 4.90310E-11
 -1      4767-6.88457E-04-9.38528E-04 5.36397E+01 3.39756E-11 4.15561E+02 4.49906E-11
 -1      4768-1.04349E-03-1.28117E-03 5.36391E+01 1.03354E-02 4.06080E+02 1.12541E-04
 -1      4769-8.75856E-04-1.02761E-03 5.36389E+01-1.68617E-04 3.96466E+02-1.03993E+00
 -1      4770-2.15312E-03-2.53154E-03 5.36339E+01-2.22006E-02 4.08595E+02-2.49220E-04
 -1      4771-1.68032E-03-2.34479E-03 5.36397E+01-2.75021E-02 4.15564E+02-2.16718E-04
 -1      4772-1.04349E-03-1.28117E-03 5.36391E+01-1.03354E-02 4.06080E+02-1.12541E-04
 -1      4773-1.47123E-02-1.20443E-03 8.04159E+01-2.15197E-02 3.96472E+02-1.04286E+00
 -1      4774-6.45471E-03-7.49722E-03 5.36347E+01-5.88718E-02 4.08617E+02-1.25023E-03
 -1      4775-5.08308E-03-7.17215E-03 5.36401E+01-7.33324E-02 4.15572E+02-1.37235E-03
 -1      4776-3.52444E-03-4.17384E-03 5.36397E+01-3.79081E-02 4.06094E+02-7.01381E-04
 -1      4777-3.63612E-02-3.94287E-03 1.07198E+02-5.68963E-02 3.96493E+02-1.05305E+00
 -1      4778-1.54724E-02-1.78944E-02 5.36382E+01-1.30593E-01 4.08671E+02-4.08088E-03
 -1      4779-1.22227E-02-1.73107E-02 5.36427E+01-1.63685E-01 4.15595E+02-4.82874E-03
 -1      4780-9.52462E-03-1.11590E-02 5.36424E+01-8.91515E-02 4.06131E+02-2.54060E-03
 -1      4781-7.30967E-02-1.02503E-02 1.33992E+02-1.26211E-01 3.96545E+02-1.07537E+00
 -1      4782-3.21093E-02-3.70490E-02 5.36491E+01-2.71732E-01 4.08789E+02-1.05056E-02
 -1      4783-2.54081E-02-3.60566E-02 5.36513E+01-3.42570E-01 4.15650E+02-1.28444E-02
 -1      4784-2.12170E-02-2.47431E-02 5.36504E+01-1.90512E-01 4.06215E+02-7.01139E-03
 -1      4785-1.34568E-01-2.24687E-02 1.60816E+02-2.62737E-01 3.96660E+02-1.11883E+00
 -1      4786-6.04230E-02-6.95961E-02 5.36760E+01-5.41284E-01 4.09041E+02-2.33666E-02
 -1      4787-4.78756E-02-6.80409E-02 5.36730E+01-6.85972E-01 4.15775E+02-2.91034E-02
 -1      4788-4.19767E-02-4.88073E-02 5.36706E+01-3.87197E-01 4.06396E+02-1.63588E-02
 -1      4789-2.31835E-01-4.50045E-02 1.87696E+02-5.23596E-01 3.96903E+02-1.19831E+00
 -1      4790-1.04852E-01-1.20569E-01 5.37341E+01-1.03820E+00 4.09557E+02-4.68976E-02
 -1      4791-8.31830E-02-1.18386E-01 5.37207E+01-1.32219E+00 4.16052E+02-5.91764E-02
 -1      4792-7.60899E-02-8.82483E-02 5.37148E+01-7.56139E-01 4.06772E+02-3.40412E-02
 -1      4793-3.72468E-01-8.58993E-02 2.14689E+02-1.00459E+00 3.97400E+02-1.33607E+00
 -1      4794-1.67615E-01-1.92388E-01 5.38479E+01-1.92156E+00 4.10587E+02-8.66191E-02
 -1      4795-1.33202E-01-1.89867E-01 5.38151E+01-2.45904E+00 4.16644E+02-1.10510E-01
 -1      4796-1.27395E-01-1.47370E-01 5.38023E+01-1.42385E+00 4.07532E+02-6.48510E-02
 -1      4797-5.46155E-01-1.59530E-01 2.41891E+02-1.85960E+00 3.98390E+02-1.56171E+00
 -1      4798-2.42493E-01-2.77601E-01 5.40536E+01-3.43191E+00 4.12589E+02-1.48005E-01
 -1      4799-1.93152E-01-2.75893E-01 5.39876E+01-4.41491E+00 4.17874E+02-1.90917E-01
 -1      4800-1.95462E-01-2.25381E-01 5.39623E+01-2.58792E+00 4.09025E+02-1.14230E-01
 -1      4801-6.88900E-01-2.87195E-01 2.69478E+02-3.32105E+00 4.00308E+02-1.90612E+00
 -1      4802-3.00415E-01-3.42456E-01 5.43977E+01-5.90202E+00 4.16373E+02-2.32115E-01
 -1      4803-2.40756E-01-3.44989E-01 5.42795E+01-7.63755E+00 4.20354E+02-3.03513E-01
 -1      4804-2.66707E-01-3.06052E-01 5.42326E+01-4.53555E+00 4.11874E+02-1.85616E-01
 -1      4805-6.03116E-01-4.86376E-01 2.97743E+02-5.70996E+00 4.03911E+02-2.37917E+00
 -1      4806-2.64793E-01-2.97697E-01 5.49224E+01-9.71435E+00 4.23185E+02-3.25271E-01
 -1      4807-2.14965E-01-3.11359E-01 5.47323E+01-1.26720E+01 4.25076E+02-4.33575E-01
 -1      4808-2.96234E-01-3.36351E-01 5.46521E+01-7.63404E+00 4.17100E+02-2.73187E-01
 -1      4809 2.25077E-01-6.66599E-01 3.27161E+02-9.39473E+00 4.10399E+02-2.91132E+00
 -1      4810 4.42214E-02 5.96932E-02 5.56309E+01-1.51335E+01 4.34615E+02-3.75967E-01
 -1      4811 2.14040E-02 1.73039E-02 5.53569E+01-1.99414E+01 4.33410E+02-5.21732E-01
 -1      4812-1.72547E-01-1.87553E-01 5.52294E+01-1.22406E+01 4.26118E+02-3.46715E-01
 -1      4813 2.97182E+00-3.58841E-01 3.58204E+02-1.46322E+01 4.21265E+02-3.20067E+00
 -1      4814 9.59011E-01 1.11081E+00 5.63779E+01-2.17693E+01 4.50699E+02-2.68918E-01
 -1      4815 7.59167E-01 1.02212E+00 5.60604E+01-2.91643E+01 4.45424E+02-4.14101E-01
 -1      4816 3.38177E-01 4.10717E-01 5.58827E+01-1.83748E+01 4.39815E+02-3.24713E-01
 -1      4817 1.01263E+01 2.52670E+00 3.90739E+02-2.10614E+01 4.36939E+02-2.50348E+00
 -1      4818 3.08782E+00 3.45767E+00 5.66829E+01-2.75880E+01 4.64423E+02 2.29797E-01
 -1      4819 2.48983E+00 3.29072E+00 5.64640E+01-3.78255E+01 4.54998E+02 1.86759E-01
 -1      4820 1.68886E+00 1.93483E+00 5.63074E+01-2.49839E+01 4.55362E+02-4.21025E-02
 -1      4821 2.66934E+01 1.37043E+01 4.21455E+02-2.67494E+01 4.52242E+02 9.40055E-01
 -1      4822 7.22981E+00 7.75083E+00 5.56151E+01-2.83603E+01 4.49685E+02 1.21920E+00
 -1      4823 6.19849E+00 7.51102E+00 5.56097E+01-3.94119E+01 4.38194E+02 1.58448E+00
 -1      4824 4.60987E+00 5.07289E+00 5.58230E+01-2.88773E+01 4.57107E+02 6.76094E-01
 -1      4825 5.90202E+01 4.31859E+01 4.37846E+02-2.76341E+01 4.42561E+02 8.23879E+00
 -1      4826 1.35774E+01 1.39620E+01 5.19877E+01-1.89613E+01 3.50932E+02 2.36184E+00
 -1      4827 1.27300E+01 1.38023E+01 5.21537E+01-2.63270E+01 3.39973E+02 3.61137E+00
 -1      4828 9.73261E+00 1.03060E+01 5.35037E+01-2.48632E+01 4.05464E+02 1.77902E+00
 -1      4829 1.09903E+02 1.01689E+02 4.19951E+02-1.86390E+01 3.53831E+02 1.74598E+01
 -1      4830 2.13056E+01 2.13056E+01 4.65028E+01 4.06960E-04 1.17577E+02 2.76405E+00
 -1      4831 2.14778E+01 2.14778E+01 4.68798E+01-6.20572E-04 1.05898E+02 4.29566E+00
 -1      4832 1.72223E+01 1.74386E+01 4.90736E+01-1.00087E+01 2.41404E+02 2.59712E+00
 -1      4833 1.70923E+02 1.70923E+02 3.73075E+02-4.19696E-04 1.22916E+02 2.16351E+01
 -1      4834 2.13389E+01 2.13389E+01 4.65757E+01 1.31252E-12 1.25431E+02 2.00365E-11
 -1      4835 1.39364E+01 1.39364E+01 5.17161E+01-1.31704E-12 3.59471E+02 3.16168E-11
 -1      4836 2.12911E+01 2.12911E+01 4.64723E+01 2.15411E-04 1.23625E+02-1.35594E+00
 -1      4837 1.36309E+01 1.38503E+01 5.17086E+01 8.90108E+00 3.57374E+02-1.15089E+00
 -1      4838-1.29010E+02-1.29010E+02-2.81592E+02 1.54736E-12 1.28038E+02 2.37242E-11
 -1      4839 1.74267E+01 1.74267E+01 4.89237E+01 1.63015E-12 2.49497E+02 2.59724E-11
 -1      4840-8.54307E+01-7.43885E+01-3.15272E+02-1.01516E-12 3.60147E+02 3.64055E-11
 -1      4841 7.78514E+00 7.78514E+00 5.54239E+01-1.01541E-12 4.58798E+02 3.87485E-11
 -1      4842 7.39730E+00 7.67004E+00 5.53864E+01 1.36074E+01 4.56502E+02-6.06311E-01
 -1      4843 1.04077E+01 1.04077E+01 5.33745E+01-1.96593E-13 4.14083E+02 3.58496E-11
 -1      4844-4.83674E+01-2.84024E+01-3.26545E+02 2.11936E-12 4.50417E+02 4.19067E-11
 -1      4845 3.55156E+00 3.55156E+00 5.67858E+01-9.19137E-12 4.71858E+02 3.59069E-11
 -1      4846 3.32253E+00 3.47788E+00 5.67178E+01 1.34938E+01 4.69997E+02-1.27652E-01
 -1      4847 5.17034E+00 5.17034E+00 5.58441E+01-6.00447E-12 4.65393E+02 3.82532E-11
 -1      4848-2.36639E+01-7.28550E+00-3.09481E+02-7.16238E-12 4.59290E+02 4.18304E-11
 -1      4849 1.19036E+00 1.19036E+00 5.66218E+01 3.28626E-13 4.55205E+02 3.62440E-11
 -1      4850 1.10410E+00 1.15569E+00 5.65458E+01 1.07689E+01 4.54086E+02 1.21003E-01
 -1      4851 2.01303E+00 2.01303E+00 5.64823E+01-5.38013E-12 4.61436E+02 3.82946E-11
 -1      4852-9.95372E+00-4.69600E-01-2.79856E+02-8.47894E-12 4.41559E+02 3.95273E-11
 -1      4853 1.01208E-01 1.01208E-01 5.58618E+01-1.05325E-11 4.36007E+02 3.88077E-11
 -1      4854 1.02109E-01 9.70531E-02 5.58119E+01 7.55351E+00 4.35677E+02 1.83080E-01
 -1      4855 4.59979E-01 4.59979E-01 5.61069E+01-6.30566E-12 4.42769E+02 3.73608E-11
 -1      4856-3.57071E+00 5.64294E-01-2.48444E+02-1.31054E-11 4.22968E+02 4.08770E-11
 -1      4857-2.77414E-01-2.77414E-01 5.50954E+01-2.08144E-11 4.22057E+02 3.70329E-11
 -1      4858-2.46591E-01-2.69831E-01 5.50682E+01 4.87944E+00 4.22371E+02 1.61483E-01
 -1      4859-1.61386E-01-1.61386E-01 5.54253E+01-1.62038E-11 4.26219E+02 3.99124E-11
 -1      4860-9.84897E-01 2.02677E-01-2.18351E+02-1.19625E-11 4.09611E+02 4.12308E-11
 -1      4861-3.34267E-01-3.34267E-01 5.45106E+01-1.44956E-11 4.13508E+02 3.08152E-11
 -1      4862-3.01339E-01-3.24941E-01 5.44979E+01 2.97698E+00 4.14264E+02 1.16674E-01
 -1      4863-3.23565E-01-3.23565E-01 5.47921E+01-1.64377E-11 4.15074E+02 3.33366E-11
 -1      4864-3.70544E-02-8.30747E-02-1.89595E+02-1.22336E-11 4.01350E+02 3.83636E-11
 -1      4865-2.75026E-01-2.75026E-01 5.41205E+01-1.85108E-11 4.08620E+02 3.53530E-11
 -1      4866-2.48869E-01-2.67184E-01 5.41170E+01 1.73714E+00 4.09656E+02 7.50097E-02
 -1      4867-3.00394E-01-3.00394E-01 5.43220E+01-5.71817E-12 4.08432E+02 4.47893E-11
 -1      4868 2.25912E-01-1.85124E-01-1.61751E+02-4.60440E-11 3.96591E+02 3.77241E-11
 -1      4869-1.92139E-01-1.92139E-01 5.38845E+01-1.85111E-11 4.05954E+02 3.61252E-11
 -1      4870-1.74357E-01-1.86693E-01 5.38858E+01 9.75394E-01 4.07159E+02 4.42099E-02
 -1      4871-2.23211E-01-2.23211E-01 5.40144E+01-4.33090E-12 4.04707E+02 3.90715E-11
 -1      4872 2.44374E-01-1.72040E-01-1.34407E+02 9.36065E-12 3.93968E+02 4.13728E-11
 -1      4873-1.21090E-01-1.21090E-01 5.37525E+01-4.70235E-11 4.04544E+02 3.50679E-11
 -1      4874-1.10104E-01-1.17671E-01 5.37561E+01 5.28374E-01 4.05845E+02 2.41017E-02
 -1      4875-1.46786E-01-1.46786E-01 5.38303E+01-1.70406E-11 4.02699E+02 3.11183E-11
 -1      4876 1.91178E-01-1.23604E-01-1.07332E+02-3.36706E-11 3.92569E+02 4.61121E-11
 -1      4877-7.02327E-02-7.02327E-02 5.36843E+01-1.28917E-11 4.03819E+02 2.62541E-11
 -1      4878-6.39836E-02-6.82661E-02 5.36889E+01 2.76166E-01 4.05173E+02 1.21056E-02
 -1      4879-8.82924E-02-8.82924E-02 5.37286E+01-1.13055E-11 4.01648E+02 3.80529E-11
 -1      4880 1.31088E-01-7.66249E-02-8.03989E+01-3.09968E-11 3.91844E+02 3.08610E-11
 -1      4881-3.75740E-02-3.75740E-02 5.36522E+01-5.50779E-11 4.03456E+02 4.29851E-11
 -1      4882-3.42999E-02-3.65316E-02 5.36572E+01 1.38996E-01 4.04839E+02 5.50383E-03
 -1      4883-4.90402E-02-4.90402E-02 5.36766E+01-6.03251E-12 4.01114E+02 3.54052E-11
 -1      4884 8.32312E-02-4.25452E-02-5.35406E+01-6.99106E-12 3.91480E+02 3.67346E-11
 -1      4885-1.82661E-02-1.82661E-02 5.36388E+01-5.67879E-11 4.03280E+02 4.40681E-11
 -1      4886-1.67190E-02-1.77661E-02 5.36439E+01 6.69833E-02 4.04677E+02 2.17879E-03
 -1      4887-2.49849E-02-2.49849E-02 5.36525E+01-3.14347E-11 4.00850E+02 4.23866E-11
 -1      4888 4.98210E-02-2.12453E-02-2.67226E+01-3.62417E-11 3.91303E+02 4.71016E-11
 -1      4889-7.74395E-03-7.74395E-03 5.36343E+01-7.47063E-11 4.03199E+02 5.48342E-11
 -1      4890-7.12215E-03-7.53714E-03 5.36394E+01 3.02820E-02 4.04603E+02 6.94699E-04
 -1      4891-1.13542E-02-1.13542E-02 5.36426E+01-3.13832E-11 4.00725E+02 6.31784E-11
 -1      4892 2.76130E-02-9.30155E-03 7.35927E-02-9.09117E-11 3.91222E+02 4.90964E-11
 -1      4893-2.70177E-03-2.70177E-03 5.36332E+01-8.56594E-11 4.03165E+02 4.56714E-11
 -1      4894-2.51703E-03-2.63449E-03 5.36382E+01 1.14472E-02 4.04572E+02 1.52932E-04
 -1      4895-4.32176E-03-4.32176E-03 5.36392E+01-5.69503E-11 4.00668E+02 4.60512E-11
 -1      4896 1.21410E-02-3.36216E-03 2.68584E+01-2.07686E-11 3.91187E+02 5.02488E-11
 -1      4897-1.22714E-03-1.22714E-03 5.36331E+01-6.61902E-11 4.03155E+02 3.42152E-11
 -1      4898-1.16906E-03-1.20048E-03 5.36381E+01-7.94598E-11 4.04564E+02 3.89876E-11
 -1      4899-1.40208E-03-1.40208E-03 5.36384E+01-9.88836E-11 4.00647E+02 5.19662E-11
 -1      4900-1.20048E-03-1.16906E-03 5.36381E+01-1.32024E-10 3.91178E+02 2.52383E-11
 -1      4901-2.70177E-03-2.70177E-03 5.36332E+01-1.40701E-10 4.03165E+02 5.24873E-11
 -1      4902-2.51703E-03-2.63449E-03 5.36382E+01-1.14472E-02 4.04572E+02-1.52932E-04
 -1      4903-1.40208E-03-1.40208E-03 5.36384E+01-1.08342E-10 4.00647E+02 4.39485E-11
 -1      4904-1.74100E-02-1.67189E-03 8.04181E+01-1.52718E-11 3.91187E+02 3.50414E-11
 -1      4905-7.74395E-03-7.74395E-03 5.36343E+01 3.76107E-11 4.03199E+02 5.50209E-12
 -1      4906-7.12215E-03-7.53714E-03 5.36394E+01-3.02820E-02 4.04603E+02-6.94699E-04
 -1      4907-4.32176E-03-4.32176E-03 5.36392E+01-5.62765E-11 4.00668E+02 1.94189E-11
 -1      4908-4.26873E-02-4.94276E-03 1.07205E+02 5.27255E-11 3.91220E+02 1.77837E-11
 -1      4909-1.82661E-02-1.82661E-02 5.36388E+01 3.73881E-12 4.03280E+02 3.91753E-11
 -1      4910-1.67190E-02-1.77661E-02 5.36439E+01-6.69833E-02 4.04677E+02-2.17879E-03
 -1      4911-1.13542E-02-1.13542E-02 5.36426E+01 3.60340E-12 4.00725E+02 4.77318E-11
 -1      4912-8.53533E-02-1.21927E-02 1.34011E+02-9.23190E-12 3.91299E+02 4.43240E-11
 -1      4913-3.75740E-02-3.75740E-02 5.36522E+01 7.55999E-11 4.03456E+02-1.22030E-11
 -1      4914-3.42999E-02-3.65316E-02 5.36572E+01-1.38996E-01 4.04839E+02-5.50383E-03
 -1      4915-2.49849E-02-2.49849E-02 5.36525E+01 1.27343E-11 4.00850E+02-5.94032E-12
 -1      4916-1.56294E-01-2.60545E-02 1.60855E+02 7.92639E-11 3.91469E+02-8.86045E-14
 -1      4917-7.02327E-02-7.02327E-02 5.36843E+01 2.27679E-10 4.03819E+02 1.32649E-12
 -1      4918-6.39836E-02-6.82661E-02 5.36889E+01-2.76166E-01 4.05173E+02-1.21056E-02
 -1      4919-4.90402E-02-4.90402E-02 5.36766E+01 1.72954E-10 4.01114E+02 1.81158E-11
 -1      4920-2.67620E-01-5.13422E-02 1.87777E+02 1.33106E-10 3.91820E+02-8.28985E-12
 -1      4921-1.21090E-01-1.21090E-01 5.37525E+01 7.71981E-11 4.04544E+02-4.12294E-11
 -1      4922-1.10104E-01-1.17671E-01 5.37561E+01-5.28374E-01 4.05845E+02-2.41017E-02
 -1      4923-8.82924E-02-8.82924E-02 5.37286E+01 9.84651E-11 4.01648E+02-3.83520E-12
 -1      4924-4.26521E-01-9.66026E-02 2.14844E+02 7.62718E-11 3.92521E+02-4.49139E-11
 -1      4925-1.92139E-01-1.92139E-01 5.38845E+01 2.22443E-10 4.05954E+02-4.82315E-11
 -1      4926-1.74357E-01-1.86693E-01 5.38858E+01-9.75394E-01 4.07159E+02-4.42099E-02
 -1      4927-1.46786E-01-1.46786E-01 5.38303E+01 1.59764E-10 4.02699E+02-5.46071E-11
 -1      4928-6.17759E-01-1.76674E-01 2.42178E+02 1.30382E-10 3.93880E+02-4.59975E-11
 -1      4929-2.75026E-01-2.75026E-01 5.41205E+01 6.06522E-11 4.08620E+02-1.17363E-10
 -1      4930-2.48869E-01-2.67184E-01 5.41170E+01-1.73714E+00 4.09656E+02-7.50097E-02
 -1      4931-2.23211E-01-2.23211E-01 5.40144E+01 2.01072E-10 4.04707E+02-9.37508E-11
 -1      4932-7.60281E-01-3.12615E-01 2.69985E+02 1.39543E-10 3.96441E+02-1.33006E-10
 -1      4933-3.34267E-01-3.34267E-01 5.45106E+01 4.48767E-11 4.13508E+02-1.38061E-10
 -1      4934-3.01339E-01-3.24941E-01 5.44979E+01-2.97698E+00 4.14264E+02-1.16674E-01
 -1      4935-3.00394E-01-3.00394E-01 5.43220E+01 1.17125E-10 4.08432E+02-8.20630E-11
 -1      4936-6.12828E-01-5.19603E-01 2.98590E+02 1.86297E-11 4.01116E+02-1.32058E-10
 -1      4937-2.77414E-01-2.77414E-01 5.50954E+01-1.86074E-10 4.22057E+02-1.29475E-10
 -1      4938-2.46591E-01-2.69831E-01 5.50682E+01-4.87944E+00 4.22371E+02-1.61483E-01
 -1      4939-3.23565E-01-3.23565E-01 5.47921E+01-4.34552E-11 4.15074E+02-1.46172E-10
 -1      4940 4.45235E-01-6.95860E-01 3.28488E+02-1.39817E-10 4.09288E+02-1.26134E-10
 -1      4941 1.01208E-01 1.01208E-01 5.58618E+01 1.54051E-11 4.36007E+02-2.04985E-10
 -1      4942 1.02109E-01 9.70531E-02 5.58119E+01-7.55351E+00 4.35677E+02-1.83080E-01
 -1      4943-1.61386E-01-1.61386E-01 5.54253E+01-7.74766E-11 4.26219E+02-1.63461E-10
 -1      4944 3.76482E+00-3.60076E-01 3.60067E+02 3.70535E-11 4.22602E+02-2.07709E-10
 -1      4945 1.19036E+00 1.19036E+00 5.66218E+01 1.23997E-10 4.55205E+02-2.00934E-10
 -1      4946 1.10410E+00 1.15569E+00 5.65458E+01-1.07689E+01 4.54086E+02-1.21003E-01
 -1      4947 4.59979E-01 4.59979E-01 5.61069E+01-7.08545E-11 4.42769E+02-2.17361E-10
 -1      4948 1.22651E+01 2.67780E+00 3.92948E+02 1.20525E-10 4.41317E+02-1.97459E-10
 -1      4949 3.55156E+00 3.55156E+00 5.67858E+01-1.97926E-11 4.71858E+02-1.72320E-10
 -1      4950 3.32253E+00 3.47788E+00 5.67178E+01-1.34938E+01 4.69997E+02 1.27652E-01
 -1      4951 2.01303E+00 2.01303E+00 5.64823E+01 2.19795E-12 4.61436E+02-1.82778E-10
 -1      4952 3.06197E+01 1.39306E+01 4.22917E+02 3.78010E-11 4.59546E+02-1.89342E-10
 -1      4953 7.78514E+00 7.78514E+00 5.54239E+01 5.15516E-11 4.58798E+02-1.67316E-10
 -1      4954 7.39730E+00 7.67004E+00 5.53864E+01-1.36074E+01 4.56502E+02 6.06311E-01
 -1      4955 5.17034E+00 5.17034E+00 5.58441E+01 5.67257E-11 4.65393E+02-1.45981E-10
 -1      4956 6.37075E+01 4.31970E+01 4.37318E+02 8.58246E-11 4.51630E+02-1.59733E-10
 -1      4957 1.39364E+01 1.39364E+01 5.17161E+01-3.83727E-11 3.59471E+02-1.66228E-10
 -1      4958 1.36309E+01 1.38503E+01 5.17086E+01-8.90108E+00 3.57374E+02 1.15089E+00
 -1      4959 1.04077E+01 1.04077E+01 5.33745E+01 5.93014E-11 4.14083E+02-1.71648E-10
 -1      4960 1.13131E+02 1.01650E+02 4.18689E+02 1.32355E-11 3.62449E+02-1.59928E-10
 -1      4961 2.13389E+01 2.13389E+01 4.65757E+01-4.11566E-12 1.25431E+02-1.91081E-10
 -1      4962 2.12911E+01 2.12911E+01 4.64723E+01-2.15411E-04 1.23625E+02 1.35594E+00
 -1      4963 1.74267E+01 1.74267E+01 4.89237E+01-6.03295E-11 2.49497E+02-1.86071E-10
 -1      4964 1.71593E+02 1.71592E+02 3.74537E+02 7.91867E-12 1.30750E+02-1.34347E-10
 -1      4965 2.13056E+01 2.13056E+01 4.65028E+01 4.06960E-04 1.17577E+02 2.76405E+00
 -1      4966 1.35774E+01 1.39620E+01 5.19877E+01-1.89613E+01 3.50932E+02 2.36184E+00
 -1      4967 2.12911E+01 2.12911E+01 4.64723E+01-2.15411E-04 1.23625E+02 1.35594E+00
 -1      4968 1.36309E+01 1.38503E+01 5.17086E+01-8.90108E+00 3.57374E+02 1.15089E+00
 -1      4969-1.28405E+02-1.28405E+02-2.80271E+02-4.21565E-04 1.20229E+02-1.61208E+01
 -1      4970 1.72223E+01 1.74386E+01 4.90736E+01-1.00087E+01 2.41404E+02 2.59712E+00
 -1      4971-8.29133E+01-7.43687E+01-3.15984E+02-1.87212E+01 3.51548E+02-1.27459E+01
 -1      4972 7.22981E+00 7.75083E+00 5.56151E+01-2.83603E+01 4.49685E+02 1.21920E+00
 -1      4973 7.39730E+00 7.67004E+00 5.53864E+01-1.36074E+01 4.56502E+02 6.06311E-01
 -1      4974 9.73261E+00 1.03060E+01 5.35037E+01-2.48632E+01 4.05464E+02 1.77902E+00
 -1      4975-4.47810E+01-2.84488E+01-3.26689E+02-2.77607E+01 4.41356E+02-5.80434E+00
 -1      4976 3.08782E+00 3.45767E+00 5.66829E+01-2.75880E+01 4.64423E+02 2.29797E-01
 -1      4977 3.32253E+00 3.47788E+00 5.67178E+01-1.34938E+01 4.69997E+02 1.27652E-01
 -1      4978 4.60987E+00 5.07289E+00 5.58230E+01-2.88773E+01 4.57107E+02 6.76094E-01
 -1      4979-2.06562E+01-7.23661E+00-3.08221E+02-2.68814E+01 4.51981E+02-4.76992E-01
 -1      4980 9.59011E-01 1.11081E+00 5.63779E+01-2.17693E+01 4.50699E+02-2.68918E-01
 -1      4981 1.10410E+00 1.15569E+00 5.65458E+01-1.07689E+01 4.54086E+02-1.21003E-01
 -1      4982 1.68886E+00 1.93483E+00 5.63074E+01-2.49839E+01 4.55362E+02-4.21025E-02
 -1      4983-8.27140E+00-4.70671E-01-2.78131E+02-2.11699E+01 4.37169E+02 1.97273E+00
 -1      4984 4.42214E-02 5.96932E-02 5.56309E+01-1.51335E+01 4.34615E+02-3.75967E-01
 -1      4985 1.02109E-01 9.70531E-02 5.58119E+01-7.55351E+00 4.35677E+02-1.83080E-01
 -1      4986 3.38177E-01 4.10717E-01 5.58827E+01-1.83748E+01 4.39815E+02-3.24713E-01
 -1      4987-2.88828E+00 4.83689E-01-2.47039E+02-1.47075E+01 4.21619E+02 2.45554E+00
 -1      4988-2.64793E-01-2.97697E-01 5.49224E+01-9.71435E+00 4.23185E+02-3.25271E-01
 -1      4989-2.46591E-01-2.69831E-01 5.50682E+01-4.87944E+00 4.22371E+02-1.61483E-01
 -1      4990-1.72547E-01-1.87553E-01 5.52294E+01-1.22406E+01 4.26118E+02-3.46715E-01
 -1      4991-7.37954E-01 1.34441E-01-2.17369E+02-9.44077E+00 4.10713E+02 2.26567E+00
 -1      4992-3.00415E-01-3.42456E-01 5.43977E+01-5.90202E+00 4.16373E+02-2.32115E-01
 -1      4993-3.01339E-01-3.24941E-01 5.44979E+01-2.97698E+00 4.14264E+02-1.16674E-01
 -1      4994-2.96234E-01-3.36351E-01 5.46521E+01-7.63404E+00 4.17100E+02-2.73187E-01
 -1      4995 2.15084E-02-1.32107E-01-1.88972E+02-5.73521E+00 4.04139E+02 1.91790E+00
 -1      4996-2.42493E-01-2.77601E-01 5.40536E+01-3.43191E+00 4.12589E+02-1.48005E-01
 -1      4997-2.48869E-01-2.67184E-01 5.41170E+01-1.73714E+00 4.09656E+02-7.50097E-02
 -1      4998-2.66707E-01-3.06052E-01 5.42326E+01-4.53555E+00 4.11874E+02-1.85616E-01
 -1      4999 2.19753E-01-2.15540E-01-1.61378E+02-3.33347E+00 4.00455E+02 1.61169E+00
 -1      5000-1.67615E-01-1.92388E-01 5.38479E+01-1.92156E+00 4.10587E+02-8.66191E-02
 -1      5001-1.74357E-01-1.86693E-01 5.38858E+01-9.75394E-01 4.07159E+02-4.42099E-02
 -1      5002-1.95462E-01-2.25381E-01 5.39623E+01-2.58792E+00 4.09025E+02-1.14230E-01
 -1      5003 2.21818E-01-1.89681E-01-1.34192E+02-1.86490E+00 3.98477E+02 1.38921E+00
 -1      5004-1.04852E-01-1.20569E-01 5.37341E+01-1.03820E+00 4.09557E+02-4.68976E-02
 -1      5005-1.10104E-01-1.17671E-01 5.37561E+01-5.28374E-01 4.05845E+02-2.41017E-02
 -1      5006-1.27395E-01-1.47370E-01 5.38023E+01-1.42385E+00 4.07532E+02-6.48510E-02
 -1      5007 1.69561E-01-1.33303E-01-1.07213E+02-1.00634E+00 3.97447E+02 1.24256E+00
 -1      5008-6.04230E-02-6.95961E-02 5.36760E+01-5.41284E-01 4.09041E+02-2.33666E-02
 -1      5009-6.39836E-02-6.82661E-02 5.36889E+01-2.76166E-01 4.05173E+02-1.21056E-02
 -1      5010-7.60899E-02-8.82483E-02 5.37148E+01-7.56139E-01 4.06772E+02-3.40412E-02
 -1      5011 1.14879E-01-8.17283E-02-8.03350E+01-5.23788E-01 3.96927E+02 1.15165E+00
 -1      5012-3.21093E-02-3.70490E-02 5.36491E+01-2.71732E-01 4.08789E+02-1.05056E-02
 -1      5013-3.42999E-02-3.65316E-02 5.36572E+01-1.38996E-01 4.04839E+02-5.50383E-03
 -1      5014-4.19767E-02-4.88073E-02 5.36706E+01-3.87197E-01 4.06396E+02-1.63588E-02
 -1      5015 7.24013E-02-4.51105E-02-5.35074E+01-2.62373E-01 3.96671E+02 1.09781E+00
 -1      5016-1.54724E-02-1.78944E-02 5.36382E+01-1.30593E-01 4.08671E+02-4.08088E-03
 -1      5017-1.67190E-02-1.77661E-02 5.36439E+01-6.69833E-02 4.04677E+02-2.17879E-03
 -1      5018-2.12170E-02-2.47431E-02 5.36504E+01-1.90512E-01 4.06215E+02-7.01139E-03
 -1      5019 4.31296E-02-2.24641E-02-2.67058E+01-1.25737E-01 3.96549E+02 1.06717E+00
 -1      5020-6.45471E-03-7.49722E-03 5.36347E+01-5.88718E-02 4.08617E+02-1.25023E-03
 -1      5021-7.12215E-03-7.53714E-03 5.36394E+01-3.02820E-02 4.04603E+02-6.94699E-04
 -1      5022-9.52462E-03-1.11590E-02 5.36424E+01-8.91515E-02 4.06131E+02-2.54060E-03
 -1      5023 2.38512E-02-9.82048E-03 8.18050E-02-5.64678E-02 3.96495E+02 1.05052E+00
 -1      5024-2.15312E-03-2.53154E-03 5.36339E+01-2.22006E-02 4.08595E+02-2.49220E-04
 -1      5025-2.51703E-03-2.63449E-03 5.36382E+01-1.14472E-02 4.04572E+02-1.52932E-04
 -1      5026-3.52444E-03-4.17384E-03 5.36397E+01-3.79081E-02 4.06094E+02-7.01381E-04
 -1      5027 1.05312E-02-3.49740E-03 2.68621E+01-2.11558E-02 3.96472E+02 1.04235E+00
 -1      5028-8.98602E-04-1.08225E-03 5.36339E+01-1.31228E-11 4.08590E+02 6.40359E-11
 -1      5029-1.16906E-03-1.20048E-03 5.36381E+01-1.43367E-10 4.04564E+02 6.51624E-11
 -1      5030-1.04349E-03-1.28117E-03 5.36391E+01-1.03354E-02 4.06080E+02-1.12541E-04
 -1      5031-8.75857E-04-1.02761E-03 5.36389E+01 1.68617E-04 3.96466E+02 1.03993E+00
 -1      5032-2.15312E-03-2.53154E-03 5.36339E+01 2.22006E-02 4.08595E+02 2.49220E-04
 -1      5033-2.51703E-03-2.63449E-03 5.36382E+01 1.14472E-02 4.04572E+02 1.52932E-04
 -1      5034-1.04349E-03-1.28117E-03 5.36391E+01 1.03354E-02 4.06080E+02 1.12541E-04
 -1      5035-1.47123E-02-1.20443E-03 8.04159E+01 2.15197E-02 3.96472E+02 1.04286E+00
 -1      5036-6.45471E-03-7.49722E-03 5.36347E+01 5.88718E-02 4.08617E+02 1.25023E-03
 -1      5037-7.12215E-03-7.53714E-03 5.36394E+01 3.02820E-02 4.04603E+02 6.94699E-04
 -1      5038-3.52444E-03-4.17384E-03 5.36397E+01 3.79081E-02 4.06094E+02 7.01381E-04
 -1      5039-3.63612E-02-3.94287E-03 1.07198E+02 5.68963E-02 3.96493E+02 1.05305E+00
 -1      5040-1.54724E-02-1.78944E-02 5.36382E+01 1.30593E-01 4.08671E+02 4.08088E-03
 -1      5041-1.67190E-02-1.77661E-02 5.36439E+01 6.69833E-02 4.04677E+02 2.17879E-03
 -1      5042-9.52462E-03-1.11590E-02 5.36424E+01 8.91515E-02 4.06131E+02 2.54060E-03
 -1      5043-7.30967E-02-1.02503E-02 1.33992E+02 1.26211E-01 3.96545E+02 1.07537E+00
 -1      5044-3.21093E-02-3.70490E-02 5.36491E+01 2.71732E-01 4.08789E+02 1.05056E-02
 -1      5045-3.42999E-02-3.65316E-02 5.36572E+01 1.38996E-01 4.04839E+02 5.50383E-03
 -1      5046-2.12170E-02-2.47431E-02 5.36504E+01 1.90512E-01 4.06215E+02 7.01139E-03
 -1      5047-1.34568E-01-2.24687E-02 1.60816E+02 2.62737E-01 3.96660E+02 1.11883E+00
 -1      5048-6.04230E-02-6.95961E-02 5.36760E+01 5.41284E-01 4.09041E+02 2.33666E-02
 -1      5049-6.39836E-02-6.82661E-02 5.36889E+01 2.76166E-01 4.05173E+02 1.21056E-02
 -1      5050-4.19767E-02-4.88073E-02 5.36706E+01 3.87197E-01 4.06396E+02 1.63588E-02
 -1      5051-2.31835E-01-4.50045E-02 1.87696E+02 5.23596E-01 3.96903E+02 1.19831E+00
 -1      5052-1.04852E-01-1.20569E-01 5.37341E+01 1.03820E+00 4.09557E+02 4.68976E-02
 -1      5053-1.10104E-01-1.17671E-01 5.37561E+01 5.28374E-01 4.05845E+02 2.41017E-02
 -1      5054-7.60899E-02-8.82483E-02 5.37148E+01 7.56139E-01 4.06772E+02 3.40412E-02
 -1      5055-3.72468E-01-8.58993E-02 2.14689E+02 1.00459E+00 3.97400E+02 1.33607E+00
 -1      5056-1.67615E-01-1.92388E-01 5.38479E+01 1.92156E+00 4.10587E+02 8.66191E-02
 -1      5057-1.74357E-01-1.86693E-01 5.38858E+01 9.75394E-01 4.07159E+02 4.42099E-02
 -1      5058-1.27395E-01-1.47370E-01 5.38023E+01 1.42385E+00 4.07532E+02 6.48510E-02
 -1      5059-5.46155E-01-1.59530E-01 2.41891E+02 1.85960E+00 3.98390E+02 1.56171E+00
 -1      5060-2.42493E-01-2.77601E-01 5.40536E+01 3.43191E+00 4.12589E+02 1.48005E-01
 -1      5061-2.48869E-01-2.67184E-01 5.41170E+01 1.73714E+00 4.09656E+02 7.50097E-02
 -1      5062-1.95462E-01-2.25381E-01 5.39623E+01 2.58792E+00 4.09025E+02 1.14230E-01
 -1      5063-6.88900E-01-2.87195E-01 2.69478E+02 3.32105E+00 4.00308E+02 1.90612E+00
 -1      5064-3.00415E-01-3.42456E-01 5.43977E+01 5.90202E+00 4.16373E+02 2.32115E-01
 -1      5065-3.01339E-01-3.24941E-01 5.44979E+01 2.97698E+00 4.14264E+02 1.16674E-01
 -1      5066-2.66707E-01-3.06052E-01 5.42326E+01 4.53555E+00 4.11874E+02 1.85616E-01
 -1      5067-6.03116E-01-4.86376E-01 2.97743E+02 5.70996E+00 4.03911E+02 2.37917E+00
 -1      5068-2.64793E-01-2.97697E-01 5.49224E+01 9.71435E+00 4.23185E+02 3.25271E-01
 -1      5069-2.46591E-01-2.69831E-01 5.50682E+01 4.87944E+00 4.22371E+02 1.61483E-01
 -1      5070-2.96234E-01-3.36351E-01 5.46521E+01 7.63404E+00 4.17100E+02 2.73187E-01
 -1      5071 2.25077E-01-6.66599E-01 3.27161E+02 9.39473E+00 4.10399E+02 2.91132E+00
 -1      5072 4.42214E-02 5.96932E-02 5.56309E+01 1.51335E+01 4.34615E+02 3.75967E-01
 -1      5073 1.02109E-01 9.70531E-02 5.58119E+01 7.55351E+00 4.35677E+02 1.83080E-01
 -1      5074-1.72547E-01-1.87553E-01 5.52294E+01 1.22406E+01 4.26118E+02 3.46715E-01
 -1      5075 2.97182E+00-3.58841E-01 3.58204E+02 1.46322E+01 4.21265E+02 3.20067E+00
 -1      5076 9.59011E-01 1.11081E+00 5.63779E+01 2.17693E+01 4.50699E+02 2.68918E-01
 -1      5077 1.10410E+00 1.15569E+00 5.65458E+01 1.07689E+01 4.54086E+02 1.21003E-01
 -1      5078 3.38177E-01 4.10717E-01 5.58827E+01 1.83748E+01 4.39815E+02 3.24713E-01
 -1      5079 1.01263E+01 2.52670E+00 3.90739E+02 2.10614E+01 4.36939E+02 2.50348E+00
 -1      5080 3.08782E+00 3.45767E+00 5.66829E+01 2.75880E+01 4.64423E+02-2.29797E-01
 -1      5081 3.32253E+00 3.47788E+00 5.67178E+01 1.34938E+01 4.69997E+02-1.27652E-01
 -1      5082 1.68886E+00 1.93483E+00 5.63074E+01 2.49839E+01 4.55362E+02 4.21025E-02
 -1      5083 2.66934E+01 1.37043E+01 4.21455E+02 2.67494E+01 4.52242E+02-9.40055E-01
 -1      5084 7.22981E+00 7.75083E+00 5.56151E+01 2.83603E+01 4.49685E+02-1.21920E+00
 -1      5085 7.39730E+00 7.67004E+00 5.53864E+01 1.36074E+01 4.56502E+02-6.06311E-01
 -1      5086 4.60987E+00 5.07289E+00 5.58230E+01 2.88773E+01 4.57107E+02-6.76094E-01
 -1      5087 5.90202E+01 4.31859E+01 4.37846E+02 2.76341E+01 4.42561E+02-8.23879E+00
 -1      5088 1.35774E+01 1.39620E+01 5.19877E+01 1.89613E+01 3.50932E+02-2.36184E+00
 -1      5089 1.36309E+01 1.38503E+01 5.17086E+01 8.90108E+00 3.57374E+02-1.15089E+00
 -1      5090 9.73261E+00 1.03060E+01 5.35037E+01 2.48632E+01 4.05464E+02-1.77902E+00
 -1      5091 1.09903E+02 1.01689E+02 4.19951E+02 1.86390E+01 3.53831E+02-1.74598E+01
 -1      5092 2.13056E+01 2.13056E+01 4.65028E+01-4.06960E-04 1.17577E+02-2.76405E+00
 -1      5093 2.12911E+01 2.12911E+01 4.64723E+01 2.15411E-04 1.23625E+02-1.35594E+00
 -1      5094 1.72223E+01 1.74386E+01 4.90736E+01 1.00087E+01 2.41404E+02-2.59712E+00
 -1      5095 1.70923E+02 1.70923E+02 3.73075E+02 4.19696E-04 1.22916E+02-2.16351E+01
 -1      5096 2.18043E+01 2.18043E+01 4.75914E+01 7.80756E-04 8.80688E+01 6.00675E+00
 -1      5097 1.19305E+01 1.37606E+01 5.26102E+01-3.67631E+01 3.22680E+02 5.05062E+00
 -1      5098 2.14778E+01 2.14778E+01 4.68798E+01-6.20572E-04 1.05898E+02 4.29566E+00
 -1      5099 1.27300E+01 1.38023E+01 5.21537E+01-2.63270E+01 3.39973E+02 3.61137E+00
 -1      5100-1.30062E+02-1.30062E+02-2.83889E+02-8.14298E-04 9.06338E+01-3.51254E+01
 -1      5101 1.66970E+01 1.75446E+01 4.97116E+01-2.03463E+01 2.12799E+02 5.71090E+00
 -1      5102-7.17458E+01-7.23325E+01-3.16537E+02-3.62126E+01 3.23189E+02-2.74870E+01
 -1      5103 4.92565E+00 7.21899E+00 5.56238E+01-5.37765E+01 4.21021E+02 1.80321E+00
 -1      5104 6.19849E+00 7.51102E+00 5.56097E+01-3.94119E+01 4.38194E+02 1.58448E+00
 -1      5105 7.76326E+00 1.00290E+01 5.40708E+01-4.87578E+01 3.76093E+02 3.35790E+00
 -1      5106-3.02405E+01-2.61502E+01-3.23890E+02-5.25325E+01 4.12863E+02-8.12744E+00
 -1      5107 1.83792E+00 3.08361E+00 5.61158E+01-4.97617E+01 4.41733E+02 5.96152E-02
 -1      5108 2.48983E+00 3.29072E+00 5.64640E+01-3.78255E+01 4.54998E+02 1.86759E-01
 -1      5109 2.86192E+00 4.65136E+00 5.55879E+01-5.33765E+01 4.30868E+02 8.80485E-01
 -1      5110-1.24209E+01-6.52011E+00-3.02925E+02-4.83761E+01 4.29664E+02 1.10296E+00
 -1      5111 4.34286E-01 8.36078E-01 5.55166E+01-3.68861E+01 4.38730E+02-6.29123E-01
 -1      5112 7.59167E-01 1.02212E+00 5.60604E+01-2.91643E+01 4.45424E+02-4.14101E-01
 -1      5113 8.58250E-01 1.62296E+00 5.55638E+01-4.35834E+01 4.37888E+02-3.13937E-01
 -1      5114-4.23140E+00-1.95022E-01-2.72222E+02-3.57709E+01 4.25517E+02 4.28394E+00
 -1      5115-6.04116E-02-8.21956E-02 5.49326E+01-2.47178E+01 4.32494E+02-6.87823E-01
 -1      5116 2.14040E-02 1.73039E-02 5.53569E+01-1.99414E+01 4.33410E+02-5.21732E-01
 -1      5117 8.66886E-02 2.36739E-01 5.51491E+01-3.05425E+01 4.32827E+02-6.49142E-01
 -1      5118-1.29160E+00 4.35081E-01-2.42697E+02-2.39657E+01 4.19606E+02 4.39609E+00
 -1      5119-2.04645E-01-3.64700E-01 5.44373E+01-1.54536E+01 4.28389E+02-5.43955E-01
 -1      5120-2.14965E-01-3.11359E-01 5.47323E+01-1.26720E+01 4.25076E+02-4.33575E-01
 -1      5121-1.69285E-01-2.80457E-01 5.46545E+01-1.97289E+01 4.27773E+02-6.03414E-01
 -1      5122-2.21537E-01 3.54547E-02-2.14501E+02-1.49850E+01 4.15836E+02 3.73302E+00
 -1      5123-2.01683E-01-3.69885E-01 5.40977E+01-9.21282E+00 4.26423E+02-3.69579E-01
 -1      5124-2.40756E-01-3.44989E-01 5.42795E+01-7.63755E+00 4.20354E+02-3.03513E-01
 -1      5125-2.08976E-01-3.80956E-01 5.42659E+01-1.20323E+01 4.24826E+02-4.45311E-01
 -1      5126 1.19188E-01-2.13264E-01-1.87216E+02-8.93323E+00 4.13979E+02 3.01953E+00
 -1      5127-1.54436E-01-2.86413E-01 5.38828E+01-5.27735E+00 4.25628E+02-2.27664E-01
 -1      5128-1.93152E-01-2.75893E-01 5.39876E+01-4.41491E+00 4.17874E+02-1.90917E-01
 -1      5129-1.73584E-01-3.25541E-01 5.39976E+01-7.02976E+00 4.23490E+02-2.90646E-01
 -1      5130 1.78932E-01-2.68230E-01-1.60351E+02-5.11437E+00 4.13204E+02 2.46625E+00
 -1      5131-1.03595E-01-1.93391E-01 5.37584E+01-2.91688E+00 4.25379E+02-1.29376E-01
 -1      5132-1.33202E-01-1.89867E-01 5.38151E+01-2.45904E+00 4.16644E+02-1.10510E-01
 -1      5133-1.22098E-01-2.32480E-01 5.38307E+01-3.95592E+00 4.22987E+02-1.73439E-01
 -1      5134 1.53188E-01-2.20243E-01-1.33614E+02-2.82392E+00 4.12932E+02 2.08723E+00
 -1      5135-6.33899E-02-1.18905E-01 5.36913E+01-1.55703E+00 4.25335E+02-6.79819E-02
 -1      5136-8.31830E-02-1.18386E-01 5.37207E+01-1.32219E+00 4.16052E+02-5.91764E-02
 -1      5137-7.74472E-02-1.48955E-01 5.37345E+01-2.14964E+00 4.22846E+02-9.57309E-02
 -1      5138 1.09534E-01-1.49783E-01-1.06899E+02-1.50508E+00 4.12864E+02 1.84577E+00
 -1      5139-3.58195E-02-6.74837E-02 5.36582E+01-8.01986E-01 4.25354E+02-3.26643E-02
 -1      5140-4.78756E-02-6.80409E-02 5.36730E+01-6.85972E-01 4.15775E+02-2.91034E-02
 -1      5141-4.52234E-02-8.77246E-02 5.36832E+01-1.12793E+00 4.22835E+02-4.87334E-02
 -1      5142 7.15258E-02-9.00435E-02-8.01690E+01-7.73618E-01 4.12863E+02 1.69949E+00
 -1      5143-1.86372E-02-3.52804E-02 5.36435E+01-3.97438E-01 4.25382E+02-1.39239E-02
 -1      5144-2.54081E-02-3.60566E-02 5.36513E+01-3.42570E-01 4.15650E+02-1.28444E-02
 -1      5145-2.43974E-02-4.77328E-02 5.36580E+01-5.70439E-01 4.22858E+02-2.25058E-02
 -1      5146 4.40086E-02-4.90198E-02-5.34225E+01-3.82340E-01 4.12879E+02 1.61436E+00
 -1      5147-8.72722E-03-1.66299E-02 5.36379E+01-1.88301E-01 4.25403E+02-4.89955E-03
 -1      5148-1.22227E-02-1.73107E-02 5.36427E+01-1.63685E-01 4.15595E+02-4.82874E-03
 -1      5149-1.20019E-02-2.37303E-02 5.36469E+01-2.76903E-01 4.22883E+02-9.05758E-03
 -1      5150 2.57979E-02-2.41277E-02-2.66638E+01-1.80508E-01 4.12894E+02 1.56657E+00
 -1      5151-3.44523E-03-6.65104E-03 5.36365E+01-8.35964E-02 4.25416E+02-1.16187E-03
 -1      5152-5.08308E-03-7.17215E-03 5.36401E+01-7.33324E-02 4.15572E+02-1.37235E-03
 -1      5153-5.15729E-03-1.03754E-02 5.36428E+01-1.27665E-01 4.22900E+02-2.89160E-03
 -1      5154 1.41536E-02-1.03798E-02 1.02050E-01-7.97574E-02 4.12904E+02 1.54086E+00
 -1      5155-9.61798E-04-1.94357E-03 5.36364E+01-3.10991E-02 4.25423E+02-5.13991E-05
 -1      5156-1.68032E-03-2.34479E-03 5.36397E+01-2.75021E-02 4.15564E+02-2.16718E-04
 -1      5157-1.70755E-03-3.59700E-03 5.36417E+01-5.34788E-02 4.22910E+02-5.61663E-04
 -1      5158 6.32325E-03-3.47123E-03 2.68712E+01-2.94353E-02 4.12909E+02 1.52826E+00
 -1      5159-2.44041E-04-5.80138E-04 5.36364E+01 5.81578E-11 4.25425E+02 5.85360E-11
 -1      5160-6.88457E-04-9.38529E-04 5.36397E+01-1.82049E-11 4.15561E+02 5.19636E-11
 -1      5161-3.01039E-04-8.18023E-04 5.36415E+01-1.44290E-02 4.22915E+02-1.64375E-05
 -1      5162-2.34289E-04-5.42975E-04 5.36414E+01 2.75427E-04 4.12911E+02 1.52436E+00
 -1      5163-9.61798E-04-1.94357E-03 5.36364E+01 3.10991E-02 4.25423E+02 5.13991E-05
 -1      5164-1.68032E-03-2.34479E-03 5.36397E+01 2.75021E-02 4.15564E+02 2.16718E-04
 -1      5165-3.01039E-04-8.18023E-04 5.36415E+01 1.44290E-02 4.22915E+02 1.64376E-05
 -1      5166-8.15049E-03-9.49860E-05 8.04116E+01 3.00351E-02 4.12909E+02 1.52839E+00
 -1      5167-3.44523E-03-6.65104E-03 5.36365E+01 8.35964E-02 4.25416E+02 1.16187E-03
 -1      5168-5.08308E-03-7.17215E-03 5.36401E+01 7.33324E-02 4.15572E+02 1.37235E-03
 -1      5169-1.70755E-03-3.59700E-03 5.36417E+01 5.34788E-02 4.22910E+02 5.61663E-04
 -1      5170-2.06813E-02-1.74737E-03 1.07181E+02 8.04822E-02 4.12902E+02 1.54324E+00
 -1      5171-8.72722E-03-1.66299E-02 5.36379E+01 1.88301E-01 4.25403E+02 4.89955E-03
 -1      5172-1.22227E-02-1.73107E-02 5.36427E+01 1.63685E-01 4.15595E+02 4.82874E-03
 -1      5173-5.15729E-03-1.03754E-02 5.36428E+01 1.27665E-01 4.22900E+02 2.89160E-03
 -1      5174-4.23210E-02-6.13863E-03 1.33950E+02 1.81349E-01 4.12889E+02 1.57643E+00
 -1      5175-1.86372E-02-3.52804E-02 5.36435E+01 3.97438E-01 4.25382E+02 1.39239E-02
 -1      5176-2.54081E-02-3.60566E-02 5.36513E+01 3.42570E-01 4.15650E+02 1.28444E-02
 -1      5177-1.20019E-02-2.37303E-02 5.36469E+01 2.76903E-01 4.22883E+02 9.05758E-03
 -1      5178-7.92811E-02-1.51301E-02 1.60719E+02 3.83079E-01 4.12868E+02 1.64224E+00
 -1      5179-3.58195E-02-6.74837E-02 5.36582E+01 8.01986E-01 4.25354E+02 3.26643E-02
 -1      5180-4.78756E-02-6.80409E-02 5.36730E+01 6.85972E-01 4.15775E+02 2.91034E-02
 -1      5181-2.43974E-02-4.77328E-02 5.36580E+01 5.70439E-01 4.22858E+02 2.25058E-02
 -1      5182-1.39301E-01-3.25815E-02 1.87495E+02 7.73586E-01 4.12839E+02 1.76471E+00
 -1      5183-6.33899E-02-1.18905E-01 5.36913E+01 1.55703E+00 4.25335E+02 6.79819E-02
 -1      5184-8.31830E-02-1.18386E-01 5.37207E+01 1.32219E+00 4.16052E+02 5.91764E-02
 -1      5185-4.52234E-02-8.77246E-02 5.36832E+01 1.12793E+00 4.22835E+02 4.87334E-02
 -1      5186-2.29448E-01-6.61479E-02 2.14289E+02 1.50271E+00 4.12817E+02 1.98127E+00
 -1      5187-1.03595E-01-1.93391E-01 5.37584E+01 2.91688E+00 4.25379E+02 1.29376E-01
 -1      5188-1.33202E-01-1.89867E-01 5.38151E+01 2.45904E+00 4.16644E+02 1.10510E-01
 -1      5189-7.74472E-02-1.48955E-01 5.37345E+01 2.14964E+00 4.22846E+02 9.57309E-02
 -1      5190-3.49154E-01-1.30784E-01 2.41134E+02 2.81606E+00 4.12848E+02 2.34474E+00
 -1      5191-1.54436E-01-2.86413E-01 5.38828E+01 5.27735E+00 4.25628E+02 2.27664E-01
 -1      5192-1.93152E-01-2.75893E-01 5.39876E+01 4.41491E+00 4.17874E+02 1.90917E-01
 -1      5193-1.22098E-01-2.32480E-01 5.38307E+01 3.95592E+00 4.22987E+02 1.73439E-01
 -1      5194-4.71008E-01-2.51244E-01 2.68111E+02 5.09520E+00 4.13063E+02 2.91886E+00
 -1      5195-2.01683E-01-3.69885E-01 5.40977E+01 9.21282E+00 4.26423E+02 3.69579E-01
 -1      5196-2.40756E-01-3.44989E-01 5.42795E+01 7.63755E+00 4.20354E+02 3.03513E-01
 -1      5197-1.73584E-01-3.25541E-01 5.39976E+01 7.02976E+00 4.23490E+02 2.90646E-01
 -1      5198-5.00993E-01-4.57503E-01 2.95390E+02 8.89320E+00 4.13763E+02 3.75346E+00
 -1      5199-2.04645E-01-3.64700E-01 5.44373E+01 1.54536E+01 4.28389E+02 5.43955E-01
 -1      5200-2.14965E-01-3.11359E-01 5.47323E+01 1.26720E+01 4.25076E+02 4.33575E-01
 -1      5201-2.08976E-01-3.80956E-01 5.42659E+01 1.20323E+01 4.24826E+02 4.45311E-01
 -1      5202-1.65854E-01-6.95281E-01 3.23329E+02 1.49103E+01 4.15542E+02 4.81202E+00
 -1      5203-6.04116E-02-8.21956E-02 5.49326E+01 2.47178E+01 4.32494E+02 6.87823E-01
 -1      5204 2.14040E-02 1.73039E-02 5.53569E+01 1.99414E+01 4.33410E+02 5.21732E-01
 -1      5205-1.69285E-01-2.80457E-01 5.46545E+01 1.97289E+01 4.27773E+02 6.03414E-01
 -1      5206 1.17626E+00-5.80183E-01 3.52476E+02 2.38403E+01 4.19281E+02 5.75870E+00
 -1      5207 4.34286E-01 8.36078E-01 5.55166E+01 3.68861E+01 4.38730E+02 6.29123E-01
 -1      5208 7.59167E-01 1.02212E+00 5.60604E+01 2.91643E+01 4.45424E+02 4.14101E-01
 -1      5209 8.66886E-02 2.36739E-01 5.51491E+01 3.05425E+01 4.32827E+02 6.49142E-01
 -1      5210 5.05527E+00 1.72853E+00 3.83122E+02 3.55851E+01 4.25319E+02 5.52753E+00
 -1      5211 1.83792E+00 3.08361E+00 5.61158E+01 4.97617E+01 4.41733E+02-5.96152E-02
 -1      5212 2.48983E+00 3.29072E+00 5.64640E+01 3.78255E+01 4.54998E+02-1.86759E-01
 -1      5213 8.58250E-01 1.62296E+00 5.55638E+01 4.35834E+01 4.37888E+02 3.13937E-01
 -1      5214 1.59836E+01 1.22806E+01 4.15038E+02 4.81441E+01 4.29942E+02 9.75475E-01
 -1      5215 4.92565E+00 7.21899E+00 5.56238E+01 5.37765E+01 4.21021E+02-1.80321E+00
 -1      5216 6.19849E+00 7.51102E+00 5.56097E+01 3.94119E+01 4.38194E+02-1.58448E+00
 -1      5217 2.86192E+00 4.65136E+00 5.55879E+01 5.33765E+01 4.30868E+02-8.80485E-01
 -1      5218 3.98940E+01 3.98682E+01 4.35079E+02 5.23078E+01 4.14051E+02-1.17251E+01
 -1      5219 1.19305E+01 1.37606E+01 5.26102E+01 3.67631E+01 3.22680E+02-5.05062E+00
 -1      5220 1.27300E+01 1.38023E+01 5.21537E+01 2.63270E+01 3.39973E+02-3.61137E+00
 -1      5221 7.76326E+00 1.00290E+01 5.40708E+01 4.87578E+01 3.76093E+02-3.35790E+00
 -1      5222 9.54589E+01 9.92801E+01 4.21762E+02 3.60712E+01 3.25425E+02-3.75683E+01
 -1      5223 2.18043E+01 2.18043E+01 4.75914E+01-7.80756E-04 8.80688E+01-6.00675E+00
 -1      5224 2.14778E+01 2.14778E+01 4.68798E+01 6.20572E-04 1.05898E+02-4.29566E+00
 -1      5225 1.66970E+01 1.75446E+01 4.97116E+01 2.03463E+01 2.12799E+02-5.71090E+00
 -1      5226 1.73588E+02 1.73588E+02 3.78893E+02 8.11372E-04 9.32578E+01-4.71075E+01
 -1      5227 2.14702E+01 2.14700E+01 4.68617E+01 9.14613E-04 2.91436E+01 1.02634E+01
 -1      5228 9.53755E+00 1.44916E+01 5.71076E+01-5.91449E+01 2.49486E+02 7.56228E+00
 -1      5229 2.11501E+01 2.11501E+01 4.61647E+01-9.85729E-04 6.48905E+01 7.84763E+00
 -1      5230 9.24028E+00 1.34041E+01 5.39953E+01-3.94417E+01 2.94135E+02 5.72571E+00
 -1      5231-1.25439E+02-1.25440E+02-2.73801E+02-8.35460E-04 3.20676E+01-6.06369E+01
 -1      5232 1.19761E+01 1.67006E+01 5.16393E+01-2.30517E+01 1.48166E+02 9.07664E+00
 -1      5233-5.54055E+01-7.53679E+01-3.37368E+02-5.86657E+01 2.49688E+02-4.14409E+01
 -1      5234 8.87151E-01 5.61691E+00 5.42074E+01-6.42512E+01 3.66056E+02 1.12872E+00
 -1      5235 3.70309E+00 6.90270E+00 5.55814E+01-5.77294E+01 3.96674E+02 1.75069E+00
 -1      5236 3.30936E+00 8.48015E+00 5.32850E+01-6.51459E+01 3.14636E+02 3.48853E+00
 -1      5237-5.23916E+00-1.78028E+01-3.10634E+02-6.25669E+01 3.58010E+02-3.91509E+00
 -1      5238 4.15325E-01 2.07886E+00 5.39683E+01-5.19762E+01 4.07303E+02-6.22736E-01
 -1      5239 1.16083E+00 2.67891E+00 5.52364E+01-5.02825E+01 4.25667E+02-1.98499E-01
 -1      5240 4.36968E-01 3.52642E+00 5.40427E+01-5.94577E+01 3.84618E+02 2.48703E-01
 -1      5241-2.84459E+00-2.54207E+00-2.87540E+02-5.02708E+01 3.95657E+02 5.07658E+00
 -1      5242 2.08179E-02 2.88065E-01 5.38981E+01-3.52229E+01 4.26650E+02-8.56928E-01
 -1      5243 3.11538E-01 6.69347E-01 5.48976E+01-3.62684E+01 4.31907E+02-7.16554E-01
 -1      5244 1.18345E-01 9.51867E-01 5.38292E+01-4.35736E+01 4.14913E+02-7.17369E-01
 -1      5245-5.18383E-01 1.40436E+00-2.61311E+02-3.39969E+01 4.13787E+02 5.52043E+00
 -1      5246-5.44146E-02-3.62428E-01 5.38508E+01-2.22700E+01 4.36680E+02-7.17401E-01
 -1      5247-4.15377E-02-1.84788E-01 5.44497E+01-2.37158E+01 4.33187E+02-7.01786E-01
 -1      5248-5.96706E-02-1.47634E-01 5.38395E+01-2.83685E+01 4.29112E+02-7.49493E-01
 -1      5249-9.17737E-02 1.06429E+00-2.35674E+02-2.14959E+01 4.23877E+02 4.48223E+00
 -1      5250-7.41018E-02-4.95771E-01 5.37903E+01-1.33812E+01 4.43280E+02-5.03069E-01
 -1      5251-1.35527E-01-4.14707E-01 5.41329E+01-1.46174E+01 4.34165E+02-5.28853E-01
 -1      5252-8.12682E-02-4.76905E-01 5.38056E+01-1.74616E+01 4.37553E+02-5.88677E-01
 -1      5253 5.75557E-02 2.98933E-01-2.10279E+02-1.29221E+01 4.30599E+02 3.38898E+00
 -1      5254-6.17833E-02-4.24390E-01 5.37380E+01-7.74127E+00 4.47840E+02-3.17488E-01
 -1      5255-1.34848E-01-3.93772E-01 5.39190E+01-8.61638E+00 4.35396E+02-3.49747E-01
 -1      5256-7.28823E-02-4.74942E-01 5.37631E+01-1.02878E+01 4.43143E+02-3.95907E-01
 -1      5257 7.82199E-02-9.55032E-02-1.84777E+02-7.47437E+00 4.35128E+02 2.55069E+00
 -1      5258-4.42869E-02-3.04134E-01 5.36990E+01-4.32612E+00 4.50846E+02-1.84558E-01
 -1      5259-1.03479E-01-2.96218E-01 5.37879E+01-4.89233E+00 4.36497E+02-2.11055E-01
 -1      5260-5.27406E-02-3.64893E-01 5.37232E+01-5.84940E+00 4.46913E+02-2.42909E-01
 -1      5261 6.31971E-02-2.09351E-01-1.58991E+02-4.17311E+00 4.38067E+02 1.98103E+00
 -1      5262-2.84257E-02-1.95390E-01 5.36733E+01-2.33848E+00 4.52718E+02-9.93204E-02
 -1      5263-6.95710E-02-1.96548E-01 5.37133E+01-2.68267E+00 4.37325E+02-1.17760E-01
 -1      5264-3.43857E-02-2.45553E-01 5.36929E+01-3.21580E+00 4.49330E+02-1.37531E-01
 -1      5265 4.37628E-02-1.88269E-01-1.32881E+02-2.25195E+00 4.39869E+02 1.61804E+00
 -1      5266-1.68225E-02-1.15436E-01 5.36576E+01-1.22161E+00 4.53816E+02-4.90927E-02
 -1      5267-4.26447E-02-1.19204E-01 5.36738E+01-1.42119E+00 4.37871E+02-6.06673E-02
 -1      5268-2.05553E-02-1.50613E-01 5.36724E+01-1.70983E+00 4.50794E+02-7.20329E-02
 -1      5269 2.78916E-02-1.31135E-01-1.06516E+02-1.17353E+00 4.40914E+02 1.39735E+00
 -1      5270-9.20671E-03-6.30699E-02 5.36487E+01-6.15262E-01 4.54425E+02-2.17140E-02
 -1      5271-2.41386E-02-6.68023E-02 5.36547E+01-7.26310E-01 4.38201E+02-2.84199E-02
 -1      5272-1.13843E-02-8.53620E-02 5.36597E+01-8.77791E-01 4.51633E+02-3.44354E-02
 -1      5273 1.68843E-02-7.88056E-02-7.99761E+01-5.89111E-01 4.41490E+02 1.26814E+00
 -1      5274-4.62012E-03-3.15708E-02 5.36441E+01-2.97455E-01 4.54746E+02-8.02654E-03
 -1      5275-1.25834E-02-3.44359E-02 5.36464E+01-3.56870E-01 4.38386E+02-1.16361E-02
 -1      5276-5.79876E-03-4.46179E-02 5.36524E+01-4.33693E-01 4.52089E+02-1.45108E-02
 -1      5277 9.85040E-03-4.21960E-02-5.33288E+01-2.83593E-01 4.41792E+02 1.19498E+00
 -1      5278-2.05220E-03-1.39688E-02 5.36418E+01-1.36991E-01 4.54907E+02-1.95738E-03
 -1      5279-5.90806E-03-1.59141E-02 5.36435E+01-1.67448E-01 4.38484E+02-3.75725E-03
 -1      5280-2.64290E-03-2.10690E-02 5.36485E+01-2.05057E-01 4.52324E+02-4.90527E-03
 -1      5281 5.56491E-03-2.00273E-02-2.66198E+01-1.29867E-01 4.41943E+02 1.15485E+00
 -1      5282-7.21737E-04-4.86535E-03 5.36409E+01-5.89157E-02 4.54982E+02 1.73510E-04
 -1      5283-2.34468E-03-6.11348E-03 5.36429E+01-7.35465E-02 4.38532E+02-6.42943E-04
 -1      5284-9.84713E-04-8.41883E-03 5.36466E+01-9.17332E-02 4.52440E+02-9.05251E-04
 -1      5285 2.99722E-03-7.94368E-03 1.22177E-01-5.54228E-02 4.42014E+02 1.13364E+00
 -1      5286-1.11882E-04-6.99903E-04 5.36405E+01-2.12822E-02 4.55015E+02 4.45401E-04
 -1      5287-6.67051E-04-1.53495E-03 5.36429E+01-2.70949E-02 4.38554E+02 1.41819E-04
 -1      5288-1.88638E-04-2.20865E-03 5.36458E+01-3.72293E-02 4.52493E+02 2.78717E-04
 -1      5289 1.36727E-03-1.99385E-03 2.68805E+01-1.97746E-02 4.42044E+02 1.12328E+00
 -1      5290 6.15053E-05 4.83013E-04 5.36404E+01 7.37192E-13 4.55024E+02 2.14653E-11
 -1      5291-1.81777E-04-2.17047E-04 5.36430E+01-4.54967E-11 4.38560E+02 3.39506E-11
 -1      5292 1.23140E-04 2.69846E-04 5.36454E+01-9.81611E-03 4.52513E+02 2.09341E-04
 -1      5293 5.61769E-05 4.66693E-04 5.36454E+01 2.51010E-04 4.42052E+02 1.11981E+00
 -1      5294-1.11882E-04-6.99903E-04 5.36405E+01 2.12822E-02 4.55015E+02-4.45400E-04
 -1      5295-6.67051E-04-1.53495E-03 5.36429E+01 2.70949E-02 4.38554E+02-1.41819E-04
 -1      5296 1.23140E-04 2.69846E-04 5.36454E+01 9.81611E-03 4.52513E+02-2.09341E-04
 -1      5297-1.53491E-03 7.94111E-04 8.04105E+01 2.03271E-02 4.42043E+02 1.12242E+00
 -1      5298-7.21736E-04-4.86535E-03 5.36409E+01 5.89157E-02 4.54982E+02-1.73510E-04
 -1      5299-2.34468E-03-6.11348E-03 5.36429E+01 7.35465E-02 4.38532E+02 6.42944E-04
 -1      5300-1.88638E-04-2.20865E-03 5.36458E+01 3.72293E-02 4.52493E+02-2.78717E-04
 -1      5301-4.15081E-03-7.72673E-04 1.07170E+02 5.61097E-02 4.42012E+02 1.13335E+00
 -1      5302-2.05220E-03-1.39688E-02 5.36418E+01 1.36991E-01 4.54907E+02 1.95738E-03
 -1      5303-5.90806E-03-1.59141E-02 5.36435E+01 1.67448E-01 4.38484E+02 3.75725E-03
 -1      5304-9.84713E-04-8.41883E-03 5.36466E+01 9.17332E-02 4.52440E+02 9.05251E-04
 -1      5305-8.87322E-03-5.13377E-03 1.33913E+02 1.30704E-01 4.41938E+02 1.15884E+00
 -1      5306-4.62012E-03-3.15708E-02 5.36441E+01 2.97455E-01 4.54746E+02 8.02654E-03
 -1      5307-1.25834E-02-3.44359E-02 5.36464E+01 3.56870E-01 4.38386E+02 1.16361E-02
 -1      5308-2.64290E-03-2.10690E-02 5.36485E+01 2.05057E-01 4.52324E+02 4.90527E-03
 -1      5309-1.73252E-02-1.47974E-02 1.60626E+02 2.84420E-01 4.41781E+02 1.21108E+00
 -1      5310-9.20671E-03-6.30699E-02 5.36487E+01 6.15262E-01 4.54425E+02 2.17140E-02
 -1      5311-2.41386E-02-6.68023E-02 5.36547E+01 7.26310E-01 4.38201E+02 2.84199E-02
 -1      5312-5.79876E-03-4.46179E-02 5.36524E+01 4.33693E-01 4.52089E+02 1.45108E-02
 -1      5313-3.18162E-02-3.52206E-02 1.87282E+02 5.89380E-01 4.41466E+02 1.31147E+00
 -1      5314-1.68225E-02-1.15436E-01 5.36576E+01 1.22161E+00 4.53816E+02 4.90927E-02
 -1      5315-4.26447E-02-1.19204E-01 5.36738E+01 1.42119E+00 4.37871E+02 6.06673E-02
 -1      5316-1.13843E-02-8.53620E-02 5.36597E+01 8.77791E-01 4.51633E+02 3.44354E-02
 -1      5317-5.52298E-02-7.78210E-02 2.13838E+02 1.17190E+00 4.40867E+02 1.49506E+00
 -1      5318-2.84257E-02-1.95390E-01 5.36733E+01 2.33848E+00 4.52718E+02 9.93204E-02
 -1      5319-6.95710E-02-1.96548E-01 5.37133E+01 2.68267E+00 4.37325E+02 1.17760E-01
 -1      5320-2.05553E-02-1.50613E-01 5.36724E+01 1.70983E+00 4.50794E+02 7.20329E-02
 -1      5321-9.00761E-02-1.65907E-01 2.40230E+02 2.24563E+00 4.39784E+02 1.81539E+00
 -1      5322-4.42869E-02-3.04134E-01 5.36990E+01 4.32612E+00 4.50846E+02 1.84558E-01
 -1      5323-1.03479E-01-2.96218E-01 5.37879E+01 4.89233E+00 4.36497E+02 2.11055E-01
 -1      5324-3.43857E-02-2.45553E-01 5.36929E+01 3.21580E+00 4.49330E+02 1.37531E-01
 -1      5325-1.35537E-01-3.42766E-01 2.66384E+02 4.15681E+00 4.37927E+02 2.34724E+00
 -1      5326-6.17833E-02-4.24390E-01 5.37380E+01 7.74127E+00 4.47840E+02 3.17488E-01
 -1      5327-1.34848E-01-3.93772E-01 5.39190E+01 8.61638E+00 4.35396E+02 3.49747E-01
 -1      5328-5.27406E-02-3.64893E-01 5.37232E+01 5.84940E+00 4.46913E+02 2.42909E-01
 -1      5329-1.79833E-01-6.77258E-01 2.92233E+02 7.43911E+00 4.34915E+02 3.17993E+00
 -1      5330-7.41018E-02-4.95771E-01 5.37903E+01 1.33812E+01 4.43280E+02 5.03069E-01
 -1      5331-1.35527E-01-4.14707E-01 5.41329E+01 1.46174E+01 4.34165E+02 5.28853E-01
 -1      5332-7.28823E-02-4.74942E-01 5.37631E+01 1.02878E+01 4.43143E+02 3.95907E-01
 -1      5333-1.80558E-01-1.20539E+00 3.17820E+02 1.28542E+01 4.30313E+02 4.38505E+00
 -1      5334-5.44146E-02-3.62428E-01 5.38508E+01 2.22700E+01 4.36680E+02 7.17401E-01
 -1      5335-4.15378E-02-1.84788E-01 5.44497E+01 2.37158E+01 4.33187E+02 7.01786E-01
 -1      5336-8.12682E-02-4.76905E-01 5.38056E+01 1.74616E+01 4.37553E+02 5.88677E-01
 -1      5337-8.86811E-04-1.73854E+00 3.43305E+02 2.13784E+01 4.23568E+02 5.90150E+00
 -1      5338 2.08179E-02 2.88065E-01 5.38981E+01 3.52229E+01 4.26650E+02 8.56928E-01
 -1      5339 3.11538E-01 6.69347E-01 5.48976E+01 3.62684E+01 4.31907E+02 7.16554E-01
 -1      5340-5.96706E-02-1.47634E-01 5.38395E+01 2.83685E+01 4.29112E+02 7.49493E-01
 -1      5341 5.40446E-01-9.07678E-01 3.69003E+02 3.38164E+01 4.13610E+02 7.21604E+00
 -1      5342 4.15325E-01 2.07886E+00 5.39683E+01 5.19762E+01 4.07303E+02 6.22736E-01
 -1      5343 1.16083E+00 2.67891E+00 5.52364E+01 5.02825E+01 4.25667E+02 1.98499E-01
 -1      5344 1.18345E-01 9.51867E-01 5.38292E+01 4.35736E+01 4.14913E+02 7.17369E-01
 -1      5345 3.60813E+00 6.38945E+00 3.95405E+02 5.00368E+01 3.95952E+02 6.31228E+00
 -1      5346 8.87151E-01 5.61691E+00 5.42074E+01 6.42512E+01 3.66056E+02-1.12872E+00
 -1      5347 3.70309E+00 6.90270E+00 5.55814E+01 5.77294E+01 3.96674E+02-1.75069E+00
 -1      5348 4.36968E-01 3.52642E+00 5.40427E+01 5.94577E+01 3.84618E+02-2.48703E-01
 -1      5349 6.86928E+00 2.84307E+01 4.19023E+02 6.23368E+01 3.59187E+02-6.15830E+00
 -1      5350 9.53755E+00 1.44916E+01 5.71076E+01 5.91449E+01 2.49486E+02-7.56228E+00
 -1      5351 9.24028E+00 1.34041E+01 5.39953E+01 3.94417E+01 2.94135E+02-5.72571E+00
 -1      5352 3.30936E+00 8.48015E+00 5.32850E+01 6.51459E+01 3.14636E+02-3.48853E+00
 -1      5353 7.43452E+01 1.03848E+02 4.51623E+02 5.85370E+01 2.51888E+02-5.65130E+01
 -1      5354 2.14702E+01 2.14700E+01 4.68617E+01-9.14613E-04 2.91436E+01-1.02634E+01
 -1      5355 2.11501E+01 2.11501E+01 4.61647E+01 9.85729E-04 6.48905E+01-7.84763E+00
 -1      5356 1.19761E+01 1.67006E+01 5.16393E+01 2.30517E+01 1.48166E+02-9.07664E+00
 -1      5357 1.68301E+02 1.68302E+02 3.67357E+02 8.33409E-04 3.46617E+01-8.11505E+01
 -1      5358 3.90551E+01 3.90548E+01 8.52436E+01 6.48999E-04-1.78178E+02 2.59661E+01
 -1      5359-3.58156E+00 7.98577E+00 5.01205E+01-5.40080E+00 1.07389E+02-1.72811E+00
 -1      5360 2.82216E+01 2.82219E+01 6.16004E+01-7.63423E-04-5.61761E+01 1.75979E+01
 -1      5361 4.33125E+00 1.18650E+01 5.41065E+01-3.08087E+01 2.02650E+02 3.60177E+00
 -1      5362-2.22237E+02-2.22239E+02-4.85082E+02-8.94651E-04-1.75254E+02-1.50548E+02
 -1      5363 9.63604E+00 2.00946E+01 6.51230E+01-1.93761E+01-4.06544E+01 1.02058E+01
 -1      5364 2.16687E+01-3.47673E+01-2.85685E+02-5.88297E+00 1.08077E+02 1.05991E+01
 -1      5365 3.65486E-01 2.78967E+00 4.67518E+01-1.06678E+01 2.87019E+02-7.04360E-01
 -1      5366 1.03970E+00 5.08051E+00 5.25680E+01-4.06696E+01 3.25624E+02 3.03039E-01
 -1      5367-4.04036E+00 3.43809E+00 4.54283E+01-1.36274E+01 1.95643E+02-1.19250E+00
 -1      5368-1.17392E+00 1.15085E-01-2.61845E+02-1.06009E+01 2.79317E+02 4.20011E+00
 -1      5369-5.37303E-01 1.87484E-01 4.99987E+01-4.99989E+00 3.85125E+02-2.19486E-01
 -1      5370 2.13392E-01 1.45017E+00 5.24285E+01-2.97340E+01 3.92380E+02-5.07553E-01
 -1      5371 1.34896E-01 1.48043E+00 4.89247E+01-7.87522E+00 3.36035E+02-1.19816E-01
 -1      5372 3.34417E+00 8.77351E+00-2.61680E+02-4.82686E+00 3.73456E+02 1.41445E+00
 -1      5373 4.19561E-02-6.39779E-01 5.18270E+01-3.06721E+00 4.33847E+02-1.48343E-01
 -1      5374 5.59973E-02-8.19342E-02 5.29157E+01-1.99043E+01 4.25981E+02-5.28196E-01
 -1      5375-2.09033E-01-3.67067E-01 5.09754E+01-3.57307E+00 4.08059E+02-1.47889E-01
 -1      5376 2.36905E-02 6.65239E+00-2.47475E+02-2.92895E+00 4.20866E+02 9.28949E-01
 -1      5377-3.96136E-03-8.78642E-01 5.27892E+01-1.65712E+00 4.61112E+02-7.83804E-02
 -1      5378-1.88890E-02-5.82287E-01 5.32905E+01-1.23605E+01 4.45264E+02-4.20229E-01
 -1      5379-6.17526E-03-8.61055E-01 5.22826E+01-2.00852E+00 4.45480E+02-6.71561E-02
 -1      5380 2.36062E-01 3.97387E+00-2.27955E+02-1.56635E+00 4.48151E+02 5.09912E-01
 -1      5381 2.36616E-02-7.43235E-01 5.32983E+01-9.07911E-01 4.77133E+02-4.17737E-02
 -1      5382-3.81470E-02-6.16157E-01 5.34885E+01-7.35583E+00 4.57153E+02-2.83159E-01
 -1      5383 1.77119E-04-8.52109E-01 5.30360E+01-1.01621E+00 4.66991E+02-3.79828E-02
 -1      5384-1.70412E-02 1.80421E+00-2.06125E+02-8.56676E-01 4.64277E+02 2.97321E-01
 -1      5385 1.64741E-02-5.33269E-01 5.35370E+01-4.79224E-01 4.86776E+02-1.98102E-02
 -1      5386-3.56978E-02-4.85197E-01 5.35910E+01-4.21849E+00 4.64705E+02-1.74564E-01
 -1      5387 1.42606E-02-6.51389E-01 5.34157E+01-5.16840E-01 4.79713E+02-1.80785E-02
 -1      5388-2.27762E-02 7.16896E-01-1.82582E+02-4.52359E-01 4.73874E+02 1.63066E-01
 -1      5389 1.25372E-02-3.42240E-01 5.36374E+01-2.50048E-01 4.92402E+02-8.54411E-03
 -1      5390-2.68679E-02-3.31779E-01 5.36359E+01-2.34203E+00 4.69325E+02-9.92881E-02
 -1      5391 1.27270E-02-4.37660E-01 5.35906E+01-2.51183E-01 4.87255E+02-8.05713E-03
 -1      5392-3.52999E-02 2.28703E-01-1.57875E+02-2.33264E-01 4.79421E+02 9.04639E-02
 -1      5393 7.87494E-03-2.02140E-01 5.36702E+01-1.26532E-01 4.95565E+02-2.93256E-03
 -1      5394-1.78293E-02-2.05977E-01 5.36528E+01-1.25813E+00 4.72037E+02-5.22976E-02
 -1      5395 9.96150E-03-2.67951E-01 5.36591E+01-1.18651E-01 4.91582E+02-2.91760E-03
 -1      5396-2.77606E-02 5.09721E-02-1.32336E+02-1.16290E-01 4.82505E+02 5.00758E-02
 -1      5397 4.68345E-03-1.10472E-01 5.36740E+01-6.22874E-02 4.97260E+02-4.81781E-04
 -1      5398-1.08269E-02-1.18096E-01 5.36566E+01-6.53415E-01 4.73552E+02-2.51724E-02
 -1      5399 6.63608E-03-1.51682E-01 5.36779E+01-5.31424E-02 4.93965E+02-6.23873E-04
 -1      5400-1.99464E-02-6.48315E-04-1.06264E+02-5.56586E-02 4.84144E+02 2.85572E-02
 -1      5401 2.54946E-03-5.54819E-02 5.36675E+01-2.94977E-02 4.98124E+02 4.14894E-04
 -1      5402-6.07411E-03-6.25589E-02 5.36553E+01-3.27071E-01 4.74358E+02-1.06996E-02
 -1      5403 4.07486E-03-7.93036E-02 5.36765E+01-2.23311E-02 4.95217E+02 2.59511E-04
 -1      5404-1.28922E-02-8.05041E-03-7.98681E+01-2.53142E-02 4.84973E+02 1.73377E-02
 -1      5405 1.27795E-03-2.48560E-02 5.36594E+01-1.33404E-02 4.98540E+02 5.99976E-04
 -1      5406-3.13528E-03-3.01413E-02 5.36527E+01-1.57052E-01 4.74766E+02-3.64508E-03
 -1      5407 2.30114E-03-3.76485E-02 5.36690E+01-8.43903E-03 4.95841E+02 4.79729E-04
 -1      5408-7.87451E-03-4.37558E-03-5.32871E+01-1.07533E-02 4.85370E+02 1.16725E-02
 -1      5409 5.65406E-04-9.01440E-03 5.36526E+01-5.67657E-03 4.98728E+02 5.09729E-04
 -1      5410-1.45156E-03-1.25375E-02 5.36504E+01-7.17515E-02 4.74961E+02-6.36960E-04
 -1      5411 1.19753E-03-1.53651E-02 5.36613E+01-2.62738E-03 4.96135E+02 4.35367E-04
 -1      5412-4.55708E-03-2.14125E-04-2.66062E+01-4.14796E-03 4.85549E+02 8.89703E-03
 -1      5413 1.97605E-04-1.46982E-03 5.36480E+01-2.22068E-03 4.98807E+02 3.40434E-04
 -1      5414-5.59719E-04-3.69429E-03 5.36487E+01-3.05731E-02 4.75049E+02 3.23852E-04
 -1      5415 5.61307E-04-4.33006E-03 5.36554E+01-4.74682E-04 4.96265E+02 3.10298E-04
 -1      5416-2.46984E-03 2.15333E-03 1.25730E-01-1.38183E-03 4.85623E+02 7.57394E-03
 -1      5417 2.92282E-05 1.70658E-03 5.36454E+01-7.28070E-04 4.98836E+02 1.65780E-04
 -1      5418-1.42708E-04 2.41093E-04 5.36477E+01-1.09458E-02 4.75085E+02 3.40308E-04
 -1      5419 2.28554E-04 6.36273E-04 5.36517E+01 1.09977E-04 4.96316E+02 1.78154E-04
 -1      5420-1.11058E-03 2.90158E-03 2.68824E+01-3.53722E-04 4.85650E+02 6.95198E-03
 -1      5421-1.85569E-05 2.55681E-03 5.36445E+01-3.44012E-11 4.98843E+02-3.66123E-11
 -1      5422-2.26049E-05 1.33781E-03 5.36474E+01 7.55832E-11 4.75094E+02 6.90626E-15
 -1      5423 8.88841E-05 2.46871E-03 5.36499E+01 8.81289E-05 4.96334E+02 5.73875E-05
 -1      5424-3.42245E-05 2.40668E-03 5.36495E+01 1.89476E-05 4.85657E+02 6.67095E-03
 -1      5425 2.92282E-05 1.70658E-03 5.36454E+01 7.28070E-04 4.98836E+02-1.65780E-04
 -1      5426-1.42708E-04 2.41093E-04 5.36477E+01 1.09458E-02 4.75085E+02-3.40308E-04
 -1      5427 8.88841E-05 2.46871E-03 5.36499E+01-8.81289E-05 4.96334E+02-5.73875E-05
 -1      5428 1.20098E-03 4.33470E-04 8.04182E+01 3.95842E-04 4.85650E+02 6.61792E-03
 -1      5429 1.97606E-04-1.46982E-03 5.36480E+01 2.22068E-03 4.98807E+02-3.40434E-04
 -1      5430-5.59719E-04-3.69429E-03 5.36487E+01 3.05731E-02 4.75049E+02-3.23852E-04
 -1      5431 2.28554E-04 6.36273E-04 5.36517E+01-1.09977E-04 4.96316E+02-1.78154E-04
 -1      5432 3.12016E-03-4.37157E-03 1.07180E+02 1.43554E-03 4.85621E+02 6.89815E-03
 -1      5433 5.65406E-04-9.01440E-03 5.36526E+01 5.67657E-03 4.98728E+02-5.09729E-04
 -1      5434-1.45156E-03-1.25375E-02 5.36504E+01 7.17515E-02 4.74961E+02 6.36960E-04
 -1      5435 5.61307E-04-4.33006E-03 5.36554E+01 4.74682E-04 4.96265E+02-3.10298E-04
 -1      5436 6.43192E-03-1.52893E-02 1.33921E+02 4.21610E-03 4.85543E+02 7.91572E-03
 -1      5437 1.27795E-03-2.48560E-02 5.36594E+01 1.33404E-02 4.98540E+02-5.99976E-04
 -1      5438-3.13528E-03-3.01413E-02 5.36527E+01 1.57052E-01 4.74766E+02 3.64509E-03
 -1      5439 1.19753E-03-1.53651E-02 5.36613E+01 2.62738E-03 4.96135E+02-4.35367E-04
 -1      5440 1.21220E-02-3.92050E-02 1.60615E+02 1.08266E-02 4.85357E+02 1.05960E-02
 -1      5441 2.54946E-03-5.54819E-02 5.36675E+01 2.94977E-02 4.98124E+02-4.14894E-04
 -1      5442-6.07411E-03-6.25589E-02 5.36553E+01 3.27071E-01 4.74358E+02 1.06996E-02
 -1      5443 2.30114E-03-3.76485E-02 5.36690E+01 8.43903E-03 4.95841E+02-4.79729E-04
 -1      5444 2.13816E-02-9.01200E-02 1.87211E+02 2.53557E-02 4.84946E+02 1.68152E-02
 -1      5445 4.68345E-03-1.10472E-01 5.36740E+01 6.22874E-02 4.97260E+02 4.81781E-04
 -1      5446-1.08269E-02-1.18096E-01 5.36566E+01 6.53415E-01 4.73552E+02 2.51724E-02
 -1      5447 4.07486E-03-7.93036E-02 5.36765E+01 2.23311E-02 4.95217E+02-2.59512E-04
 -1      5448 3.55343E-02-1.96051E-01 2.13618E+02 5.55730E-02 4.84091E+02 3.01805E-02
 -1      5449 7.87494E-03-2.02140E-01 5.36702E+01 1.26532E-01 4.95565E+02 2.93256E-03
 -1      5450-1.78293E-02-2.05977E-01 5.36528E+01 1.25813E+00 4.72037E+02 5.22976E-02
 -1      5451 6.63608E-03-1.51682E-01 5.36779E+01 5.31424E-02 4.93965E+02 6.23873E-04
 -1      5452 5.40447E-02-4.12884E-01 2.39679E+02 1.15873E-01 4.82409E+02 5.72227E-02
 -1      5453 1.25372E-02-3.42240E-01 5.36374E+01 2.50048E-01 4.92402E+02 8.54411E-03
 -1      5454-2.68679E-02-3.31779E-01 5.36359E+01 2.34203E+00 4.69325E+02 9.92881E-02
 -1      5455 9.96150E-03-2.67951E-01 5.36591E+01 1.18651E-01 4.91582E+02 2.91760E-03
 -1      5456 7.68339E-02-8.44789E-01 2.65144E+02 2.32114E-01 4.79261E+02 1.09822E-01
 -1      5457 1.64741E-02-5.33269E-01 5.35370E+01 4.79224E-01 4.86776E+02 1.98102E-02
 -1      5458-3.56978E-02-4.85197E-01 5.35910E+01 4.21849E+00 4.64705E+02 1.74564E-01
 -1      5459 1.27270E-02-4.37660E-01 5.35906E+01 2.51183E-01 4.87255E+02 8.05713E-03
 -1      5460 7.84941E-02-1.68396E+00 2.89639E+02 4.49796E-01 4.73629E+02 2.06322E-01
 -1      5461 2.36616E-02-7.43235E-01 5.32983E+01 9.07911E-01 4.77133E+02 4.17737E-02
 -1      5462-3.81470E-02-6.16157E-01 5.34885E+01 7.35583E+00 4.57153E+02 2.83159E-01
 -1      5463 1.42606E-02-6.51389E-01 5.34157E+01 5.16840E-01 4.79713E+02 1.80785E-02
 -1      5464 9.16964E-02-3.16454E+00 3.12688E+02 8.51566E-01 4.63942E+02 3.86054E-01
 -1      5465-3.96136E-03-8.78642E-01 5.27892E+01 1.65712E+00 4.61112E+02 7.83804E-02
 -1      5466-1.88890E-02-5.82287E-01 5.32905E+01 1.23605E+01 4.45264E+02 4.20229E-01
 -1      5467 1.77119E-04-8.52109E-01 5.30360E+01 1.01621E+00 4.66991E+02 3.79828E-02
 -1      5468-2.23389E-01-5.61535E+00 3.33480E+02 1.55750E+00 4.47778E+02 6.72140E-01
 -1      5469 4.19561E-02-6.39779E-01 5.18270E+01 3.06721E+00 4.33847E+02 1.48343E-01
 -1      5470 5.59973E-02-8.19342E-02 5.29157E+01 1.99043E+01 4.25981E+02 5.28196E-01
 -1      5471-6.17526E-03-8.61055E-01 5.22826E+01 2.00852E+00 4.45480E+02 6.71561E-02
 -1      5472 5.18598E-02-7.91861E+00 3.51063E+02 2.91546E+00 4.20626E+02 1.22882E+00
 -1      5473-5.37303E-01 1.87484E-01 4.99987E+01 4.99989E+00 3.85125E+02 2.19486E-01
 -1      5474 2.13392E-01 1.45017E+00 5.24285E+01 2.97340E+01 3.92380E+02 5.07553E-01
 -1      5475-2.09033E-01-3.67067E-01 5.09754E+01 3.57307E+00 4.08059E+02 1.47889E-01
 -1      5476-4.46484E+00-8.59830E+00 3.61672E+02 4.81052E+00 3.73725E+02 1.85027E+00
 -1      5477 3.65486E-01 2.78967E+00 4.67518E+01 1.06678E+01 2.87019E+02 7.04360E-01
 -1      5478 1.03970E+00 5.08051E+00 5.25680E+01 4.06696E+01 3.25624E+02-3.03039E-01
 -1      5479 1.34896E-01 1.48043E+00 4.89247E+01 7.87522E+00 3.36035E+02 1.19816E-01
 -1      5480 1.77453E+00 4.95306E+00 3.55416E+02 1.05943E+01 2.80549E+02 5.58938E+00
 -1      5481-3.58156E+00 7.98577E+00 5.01205E+01 5.40080E+00 1.07389E+02 1.72811E+00
 -1      5482 4.33125E+00 1.18650E+01 5.41065E+01 3.08087E+01 2.02650E+02-3.60177E+00
 -1      5483-4.04036E+00 3.43809E+00 4.54283E+01 1.36274E+01 1.95643E+02 1.19250E+00
 -1      5484-2.89483E+01 5.02888E+01 3.85965E+02 5.89522E+00 1.10394E+02 1.40529E+01
 -1      5485 3.90551E+01 3.90548E+01 8.52436E+01-6.48999E-04-1.78178E+02-2.59661E+01
 -1      5486 2.82216E+01 2.82219E+01 6.16004E+01 7.63423E-04-5.61761E+01-1.75979E+01
 -1      5487 9.63604E+00 2.00946E+01 6.51230E+01 1.93761E+01-4.06544E+01-1.02058E+01
 -1      5488 3.00220E+02 3.00222E+02 6.55297E+02 8.93370E-04-1.72573E+02-2.02441E+02
 -1      5489 5.64852E+02 5.64848E+02 1.23287E+03-6.51872E-04-1.56000E+02-3.79100E+02
 -1      5490-5.00596E+01 1.00317E+02 7.31753E+02 4.71153E+00 1.24211E+02 2.65310E+01
 -1      5491 3.18915E+02 3.18913E+02 6.96075E+02-8.98334E-04 5.10424E+01-1.51723E+02
 -1      5492 1.45114E+02 2.02550E+02 8.57383E+02 5.81038E+01 2.64884E+02-1.05175E+02
 -1      5493 3.00220E+02 3.00222E+02 6.55297E+02 8.93370E-04-1.72573E+02-2.02441E+02
 -1      5494 1.40303E+02 2.84373E+02 9.45778E+02 2.09437E+01-2.03996E+01-1.49013E+02
 -1      5495-2.89483E+01 5.02888E+01 3.85965E+02 5.89522E+00 1.10394E+02 1.40529E+01
 -1      5496 4.13566E+02 4.13570E+02 9.02706E+02 7.71383E-04-3.41660E+01-2.58227E+02
 -1      5497 6.71387E+01 1.61086E+02 8.03231E+02 3.00284E+01 2.18067E+02-4.92349E+01
 -1      5498 1.68301E+02 1.68302E+02 3.67357E+02 8.33409E-04 3.46617E+01-8.11505E+01
 -1      5499 1.80907E+02 2.44017E+02 7.73228E+02 2.27429E+01 1.67334E+02-1.30623E+02
 -1      5500 7.43452E+01 1.03848E+02 4.51623E+02 5.85370E+01 2.51888E+02-5.65130E+01
 -1      5501 7.17522E+00 1.25167E+01 6.72101E+02 1.04817E+01 2.79442E+02 1.07453E+01
 -1      5502 1.80456E+01 5.82748E+01 7.92512E+02 6.02493E+01 3.57761E+02-1.11187E+01
 -1      5503-5.99145E+01 1.80154E+01 6.55946E+02 1.33387E+01 1.99265E+02 1.84765E+01
 -1      5504 1.77453E+00 4.95306E+00 3.55416E+02 1.05943E+01 2.80549E+02 5.58938E+00
 -1      5505 1.93324E+01 5.02984E+01 7.63607E+02 3.84634E+01 3.17400E+02-1.25326E+00
 -1      5506 4.91767E+01 9.62646E+01 7.86389E+02 6.25345E+01 3.17022E+02-4.57193E+01
 -1      5507 6.86928E+00 2.84307E+01 4.19023E+02 6.23368E+01 3.59187E+02-6.15830E+00
 -1      5508-7.91891E+00-1.75841E+01 6.75337E+02 4.69900E+00 3.62760E+02 3.40617E+00
 -1      5509 7.65911E+00 1.07187E+01 7.38706E+02 4.77405E+01 3.85132E+02 1.17896E+01
 -1      5510 1.17061E+00-5.63214E+00 6.79127E+02 7.41574E+00 3.19568E+02 2.12060E+00
 -1      5511-4.46484E+00-8.59830E+00 3.61672E+02 4.81052E+00 3.73725E+02 1.85027E+00
 -1      5512 4.26085E+00 2.75947E+00 7.13678E+02 2.73171E+01 3.70401E+02 8.98524E+00
 -1      5513 7.80997E+00 2.67046E+01 7.62101E+02 5.51017E+01 3.67882E+02 1.46756E-01
 -1      5514 3.60813E+00 6.38945E+00 3.95405E+02 5.00368E+01 3.95952E+02 6.31228E+00
 -1      5515-1.43664E-01-1.58134E+01 6.50334E+02 2.81877E+00 4.05762E+02 2.15596E+00
 -1      5516 1.04210E+00-2.64919E+00 6.84104E+02 3.20263E+01 3.99028E+02 1.33265E+01
 -1      5517-3.57264E+00-1.81285E+01 6.63313E+02 3.30780E+00 3.82296E+02 2.16479E+00
 -1      5518 5.18598E-02-7.91861E+00 3.51063E+02 2.91546E+00 4.20626E+02 1.22882E+00
 -1      5519 1.05507E+00-7.00968E+00 6.68199E+02 1.80842E+01 3.98428E+02 8.14177E+00
 -1      5520 2.82261E+00 1.20328E+00 7.09520E+02 3.97915E+01 3.89565E+02 1.20221E+01
 -1      5521 5.40446E-01-9.07678E-01 3.69003E+02 3.38164E+01 4.13610E+02 7.21604E+00
 -1      5522-5.00000E-01-1.02318E+01 6.14020E+02 1.47865E+00 4.32715E+02 1.17373E+00
 -1      5523 8.44815E-02-3.02468E+00 6.32566E+02 2.02405E+01 4.08747E+02 1.09516E+01
 -1      5524-5.29950E-01-1.34995E+01 6.32041E+02 1.83365E+00 4.17291E+02 9.62387E-01
 -1      5525-2.23389E-01-5.61535E+00 3.33480E+02 1.55750E+00 4.47778E+02 6.72140E-01
 -1      5526 1.85512E-01-5.48066E+00 6.23294E+02 1.12041E+01 4.17286E+02 6.37835E+00
 -1      5527 1.93367E-01-3.40558E+00 6.58168E+02 2.57792E+01 4.01406E+02 1.15148E+01
 -1      5528-8.86811E-04-1.73854E+00 3.43305E+02 2.13784E+01 4.23568E+02 5.90150E+00
 -1      5529 6.04709E-02-5.58588E+00 5.71892E+02 8.20900E-01 4.49069E+02 7.13155E-01
 -1      5530-3.28218E-01-1.92680E+00 5.81652E+02 1.21840E+01 4.15637E+02 8.24434E+00
 -1      5531-3.21203E-01-7.95288E+00 5.92957E+02 9.09184E-01 4.38789E+02 5.98540E-01
 -1      5532 9.16964E-02-3.16454E+00 3.12688E+02 8.51566E-01 4.63942E+02 3.86054E-01
 -1      5533-1.13776E-01-3.29402E+00 5.76399E+02 6.68514E+00 4.29376E+02 4.61497E+00
 -1      5534-2.73454E-01-2.56516E+00 6.07061E+02 1.58825E+01 4.09802E+02 9.25769E+00
 -1      5535-1.80558E-01-1.20539E+00 3.17820E+02 1.28542E+01 4.30313E+02 4.38505E+00
 -1      5536 1.14724E-01-2.77492E+00 5.25703E+02 4.33533E-01 4.58914E+02 4.29456E-01
 -1      5537-2.83788E-01-8.74459E-01 5.30688E+02 7.06344E+00 4.20374E+02 6.09820E+00
 -1      5538-5.27850E-03-4.18216E+00 5.48837E+02 4.66388E-01 4.51770E+02 3.56573E-01
 -1      5539 7.84941E-02-1.68396E+00 2.89639E+02 4.49796E-01 4.73629E+02 2.06322E-01
 -1      5540-1.19011E-01-1.62769E+00 5.27858E+02 3.84211E+00 4.37044E+02 3.32807E+00
 -1      5541-3.66469E-01-1.38317E+00 5.56247E+02 9.37676E+00 4.15611E+02 6.94989E+00
 -1      5542-1.79833E-01-6.77258E-01 2.92233E+02 7.43911E+00 4.34915E+02 3.17993E+00
 -1      5543 1.34185E-01-1.30912E+00 4.76642E+02 2.27545E-01 4.64591E+02 2.80616E-01
 -1      5544-2.09097E-01-3.42257E-01 4.79059E+02 3.95272E+00 4.23422E+02 4.61442E+00
 -1      5545 4.13497E-02-2.06852E+00 5.01183E+02 2.26024E-01 4.59423E+02 2.43035E-01
 -1      5546 7.68339E-02-8.44789E-01 2.65144E+02 2.32114E-01 4.79261E+02 1.09822E-01
 -1      5547-9.14194E-02-7.54411E-01 4.77600E+02 2.13640E+00 4.41668E+02 2.46459E+00
 -1      5548-2.99170E-01-6.16622E-01 5.04910E+02 5.34094E+00 4.19474E+02 5.22900E+00
 -1      5549-1.35537E-01-3.42766E-01 2.66384E+02 4.15681E+00 4.37927E+02 2.34724E+00
 -1      5550 1.01863E-01-5.97737E-01 4.25684E+02 1.15428E-01 4.67737E+02 1.98583E-01
 -1      5551-1.34650E-01-1.08294E-01 4.26784E+02 2.13803E+00 4.25271E+02 3.66450E+00
 -1      5552 5.42883E-02-9.88777E-01 4.51166E+02 1.07056E-01 4.63761E+02 1.80195E-01
 -1      5553 5.40447E-02-4.12884E-01 2.39679E+02 1.15873E-01 4.82409E+02 5.72227E-02
 -1      5554-6.01920E-02-3.31299E-01 4.26075E+02 1.14848E+00 4.44335E+02 1.92440E+00
 -1      5555-2.10656E-01-2.45534E-01 4.52947E+02 2.93930E+00 4.21894E+02 4.06697E+00
 -1      5556-9.00761E-02-1.65907E-01 2.40230E+02 2.24563E+00 4.39784E+02 1.81539E+00
 -1      5557 6.92410E-02-2.66970E-01 3.73552E+02 5.68799E-02 4.69401E+02 1.56670E-01
 -1      5558-8.16666E-02-2.34289E-02 3.74009E+02 1.11691E+00 4.26334E+02 3.09033E+00
 -1      5559 4.18661E-02-4.63528E-01 3.99622E+02 4.78929E-02 4.66119E+02 1.48914E-01
 -1      5560 3.55343E-02-1.96051E-01 2.13618E+02 5.55730E-02 4.84091E+02 3.01805E-02
 -1      5561-3.72856E-02-1.42429E-01 3.73690E+02 5.96440E-01 4.45804E+02 1.60299E+00
 -1      5562-1.35164E-01-8.77053E-02 4.00415E+02 1.56336E+00 4.23327E+02 3.33849E+00
 -1      5563-5.52298E-02-7.78210E-02 2.13838E+02 1.17190E+00 4.40867E+02 1.49506E+00
 -1      5564 4.23547E-02-1.16952E-01 3.20738E+02 2.69141E-02 4.70242E+02 1.35914E-01
 -1      5565-4.69918E-02 2.03357E-03 3.20900E+02 5.62270E-01 4.26915E+02 2.75957E+00
 -1      5566 2.84393E-02-2.14074E-01 3.47153E+02 2.00515E-02 4.67345E+02 1.33224E-01
 -1      5567 2.13816E-02-9.01200E-02 1.87211E+02 2.53557E-02 4.84946E+02 1.68152E-02
 -1      5568-2.20877E-02-6.02800E-02 3.20775E+02 2.98372E-01 4.46577E+02 1.42038E+00
 -1      5569-8.12650E-02-2.76549E-02 3.47472E+02 8.02418E-01 4.24135E+02 2.90498E+00
 -1      5570-3.18162E-02-3.52206E-02 1.87282E+02 5.89380E-01 4.41466E+02 1.31147E+00
 -1      5571 2.42292E-02-4.96636E-02 2.67550E+02 1.21443E-02 4.70644E+02 1.26347E-01
 -1      5572-2.57943E-02 6.94226E-03 2.67590E+02 2.71624E-01 4.27218E+02 2.57739E+00
 -1      5573 1.73993E-02-9.69997E-02 2.94156E+02 7.50356E-03 4.67951E+02 1.25886E-01
 -1      5574 1.21220E-02-3.92050E-02 1.60615E+02 1.08266E-02 4.85357E+02 1.05960E-02
 -1      5575-1.25375E-02-2.49008E-02 2.67553E+02 1.43125E-01 4.46965E+02 1.32107E+00
 -1      5576-4.62245E-02-6.72948E-03 2.94263E+02 3.96202E-01 4.24568E+02 2.65888E+00
 -1      5577-1.73252E-02-1.47974E-02 1.60626E+02 2.84420E-01 4.41781E+02 1.21108E+00
 -1      5578 1.29579E-02-1.97075E-02 2.14170E+02 5.15361E-03 4.70825E+02 1.22275E-01
 -1      5579-1.34146E-02 6.22987E-03 2.14166E+02 1.25000E-01 4.27368E+02 2.48159E+00
 -1      5580 9.93592E-03-4.23550E-02 2.40873E+02 2.27969E-03 4.68235E+02 1.22643E-01
 -1      5581 6.43192E-03-1.52893E-02 1.33921E+02 4.21610E-03 4.85543E+02 7.91572E-03
 -1      5582-6.76638E-03-9.47268E-03 2.14165E+02 6.53204E-02 4.47149E+02 1.26950E+00
 -1      5583-2.49256E-02-6.10321E-05 2.40894E+02 1.87173E-01 4.24790E+02 2.52525E+00
 -1      5584-8.87322E-03-5.13377E-03 1.33913E+02 1.30704E-01 4.41938E+02 1.15884E+00
 -1      5585 6.37838E-03-6.40563E-03 1.60695E+02 2.01949E-03 4.70901E+02 1.20756E-01
 -1      5586-6.41348E-03 4.57308E-03 1.60682E+02 5.37990E-02 4.27438E+02 2.43406E+00
 -1      5587 5.26715E-03-1.69666E-02 1.87445E+02 3.72126E-04 4.68359E+02 1.21354E-01
 -1      5588 3.12016E-03-4.37157E-03 1.07180E+02 1.43554E-03 4.85621E+02 6.89815E-03
 -1      5589-3.35729E-03-2.61933E-03 1.60692E+02 2.78487E-02 4.47232E+02 1.24425E+00
 -1      5590-1.25915E-02 1.82577E-03 1.87438E+02 8.37028E-02 4.24897E+02 2.45622E+00
 -1      5591-4.15081E-03-7.72673E-04 1.07170E+02 5.61097E-02 4.42012E+02 1.13335E+00
 -1      5592 2.54546E-03-4.39509E-04 1.07178E+02 6.86473E-04 4.70928E+02 1.20327E-01
 -1      5593-2.43459E-03 2.87105E-03 1.07167E+02 1.96424E-02 4.27468E+02 2.41306E+00
 -1      5594 2.47498E-03-5.13522E-03 1.33946E+02-1.15916E-04 4.68409E+02 1.20928E-01
 -1      5595 1.20098E-03 4.33471E-04 8.04182E+01 3.95842E-04 4.85650E+02 6.61792E-03
 -1      5596-1.32526E-03 3.88349E-04 1.07178E+02 1.00885E-02 4.47265E+02 1.23325E+00
 -1      5597-5.60690E-03 2.08553E-03 1.33935E+02 3.40884E-02 4.24946E+02 2.42314E+00
 -1      5598-1.53491E-03 7.94111E-04 8.04105E+01 2.03271E-02 4.42043E+02 1.12242E+00
 -1      5599-2.84606E-06 2.37921E-03 5.36451E+01 5.87913E-05 4.70935E+02 1.20348E-01
 -1      5600 1.01307E-04 5.95175E-04 5.36410E+01 5.17491E-04 4.27476E+02 2.40756E+00
 -1      5601 7.39316E-04 6.32525E-04 8.04180E+01-5.36637E-05 4.68426E+02 1.20864E-01
 -1      5602-3.42242E-05 2.40669E-03 5.36495E+01 1.89474E-05 4.85657E+02 6.67095E-03
 -1      5603 1.03166E-05 1.33474E-03 5.36479E+01 2.98824E-04 4.47274E+02 1.23046E+00
 -1      5604-1.43755E-03 1.42293E-03 8.04111E+01 9.31584E-03 4.24965E+02 2.41033E+00
 -1      5605 5.61770E-05 4.66693E-04 5.36454E+01 2.51010E-04 4.42052E+02 1.11981E+00
 -1      5606-2.42991E-03 3.86967E-03 1.13970E-01-5.61960E-04 4.70929E+02 1.20647E-01
 -1      5607 2.31700E-03-3.65484E-03 1.14636E-01-1.85024E-02 4.27469E+02 2.41385E+00
 -1      5608-5.80668E-04 3.98826E-03 2.68827E+01 1.53403E-04 4.68426E+02 1.20974E-01
 -1      5609-1.11058E-03 2.90159E-03 2.68824E+01-3.53723E-04 4.85650E+02 6.95198E-03
 -1      5610 1.13226E-03 4.69640E-04 1.18453E-01-9.43106E-03 4.47266E+02 1.23387E+00
 -1      5611 1.70802E-03-6.14878E-04 2.68809E+01-8.24840E-03 4.24965E+02 2.41069E+00
 -1      5612 1.36727E-03-1.99385E-03 2.68805E+01-1.97746E-02 4.42044E+02 1.12328E+00
 -1      5613-5.83919E-03 4.81046E-03-5.33992E+01-1.88057E-03 4.70904E+02 1.21410E-01
 -1      5614 5.16230E-03-1.23402E-02-5.33999E+01-5.23791E-02 4.27442E+02 2.43421E+00
 -1      5615-2.02322E-03 6.85035E-03-2.66426E+01 2.27699E-04 4.68411E+02 1.21271E-01
 -1      5616-2.46984E-03 2.15333E-03 1.25730E-01-1.38183E-03 4.85623E+02 7.57394E-03
 -1      5617 2.41750E-03-3.06090E-03-5.33947E+01-2.70323E-02 4.47235E+02 1.24478E+00
 -1      5618 5.26749E-03-5.44574E-03-2.66432E+01-3.28213E-02 4.24948E+02 2.42356E+00
 -1      5619 2.99722E-03-7.94368E-03 1.22177E-01-5.54228E-02 4.42014E+02 1.13364E+00
 -1      5620-1.15047E-02 5.97975E-03-1.06868E+02-5.01616E-03 4.70835E+02 1.23250E-01
 -1      5621 9.66605E-03-2.93639E-02-1.06885E+02-1.23265E-01 4.27377E+02 2.47744E+00
 -1      5622-4.11245E-03 1.06902E-02-8.01357E+01-2.46922E-04 4.68366E+02 1.21953E-01
 -1      5623-4.55708E-03-2.14125E-04-2.66062E+01-4.14796E-03 4.85549E+02 8.89703E-03
 -1      5624 4.21260E-03-1.10227E-02-1.06867E+02-6.43276E-02 4.47159E+02 1.26808E+00
 -1      5625 1.06901E-02-1.56886E-02-8.01458E+01-8.21169E-02 4.24903E+02 2.45421E+00
 -1      5626 5.56491E-03-2.00273E-02-2.66198E+01-1.29867E-01 4.41943E+02 1.15485E+00
 -1      5627-2.10303E-02 1.00836E-02-1.60240E+02-1.20784E-02 4.70668E+02 1.27483E-01
 -1      5628 1.71750E-02-6.00076E-02-1.60310E+02-2.69895E-01 4.27240E+02 2.56123E+00
 -1      5629-7.42547E-03 1.80569E-02-1.33557E+02-2.16824E-03 4.68251E+02 1.23491E-01
 -1      5630-7.87451E-03-4.37558E-03-5.32871E+01-1.07533E-02 4.85370E+02 1.16725E-02
 -1      5631 6.90073E-03-2.53366E-02-1.60256E+02-1.42147E-01 4.46988E+02 1.31369E+00
 -1      5632 1.97588E-02-3.53393E-02-1.33602E+02-1.85382E-01 4.24805E+02 2.51530E+00
 -1      5633 9.85040E-03-4.21960E-02-5.33288E+01-2.83593E-01 4.41792E+02 1.19498E+00
 -1      5634-3.60828E-02 2.67573E-02-2.13423E+02-2.71011E-02 4.70294E+02 1.36666E-01
 -1      5635 2.95800E-02-1.09061E-01-2.13621E+02-5.61670E-01 4.26962E+02 2.71653E+00
 -1      5636-1.25128E-02 3.58488E-02-1.86833E+02-7.49575E-03 4.67988E+02 1.26837E-01
 -1      5637-1.28922E-02-8.05041E-03-7.98681E+01-2.53142E-02 4.84973E+02 1.73377E-02
 -1      5638 1.10020E-02-4.51717E-02-2.13483E+02-2.98066E-01 4.46626E+02 1.39916E+00
 -1      5639 3.48214E-02-6.90372E-02-1.86971E+02-3.94870E-01 4.24602E+02 2.63006E+00
 -1      5640 1.68843E-02-7.88056E-02-7.99761E+01-5.89111E-01 4.41490E+02 1.26814E+00
 -1      5641-5.79004E-02 8.48219E-02-2.66244E+02-5.77099E-02 4.69504E+02 1.55646E-01
 -1      5642 4.94879E-02-1.74037E-01-2.66731E+02-1.12019E+00 4.26426E+02 2.99385E+00
 -1      5643-1.96900E-02 8.32632E-02-2.39831E+02-2.03620E-02 4.67419E+02 1.33788E-01
 -1      5644-1.99464E-02-6.48315E-04-1.06264E+02-5.56586E-02 4.84144E+02 2.85572E-02
 -1      5645 1.72618E-02-5.84047E-02-2.66415E+02-5.98408E-01 4.45900E+02 1.55353E+00
 -1      5646 5.87865E-02-1.18446E-01-2.40181E+02-8.03377E-01 4.24202E+02 2.83725E+00
 -1      5647 2.78916E-02-1.31135E-01-1.06516E+02-1.17353E+00 4.40914E+02 1.39735E+00
 -1      5648-8.30722E-02 2.60368E-01-3.18419E+02-1.17659E-01 4.67922E+02 1.92760E-01
 -1      5649 7.96435E-02-2.28662E-01-3.19508E+02-2.15095E+00 4.25437E+02 3.47039E+00
 -1      5650-2.74435E-02 2.10351E-01-2.92325E+02-4.89684E-02 4.66259E+02 1.47846E-01
 -1      5651-2.77606E-02 5.09721E-02-1.32336E+02-1.16290E-01 4.82505E+02 5.00758E-02
 -1      5652 2.67431E-02-2.19547E-02-3.18841E+02-1.15607E+00 4.44508E+02 1.82226E+00
 -1      5653 9.44293E-02-1.71950E-01-2.93125E+02-1.57070E+00 4.23452E+02 3.19766E+00
 -1      5654 4.37628E-02-1.88269E-01-1.32881E+02-2.25195E+00 4.39869E+02 1.61804E+00
 -1      5655-1.04928E-01 7.30722E-01-3.69496E+02-2.32505E-01 4.64904E+02 2.63864E-01
 -1      5656 1.22225E-01-1.87408E-01-3.71784E+02-3.98615E+00 4.23698E+02 4.25530E+00
 -1      5657-3.23322E-02 5.36516E-01-3.43951E+02-1.09730E-01 4.64004E+02 1.74834E-01
 -1      5658-3.52999E-02 2.28703E-01-1.57875E+02-2.33264E-01 4.79421E+02 9.04639E-02
 -1      5659 4.01017E-02 1.79859E-01-3.70452E+02-2.15592E+00 4.41955E+02 2.27154E+00
 -1      5660 1.42252E-01-1.81199E-01-3.45659E+02-2.96110E+00 4.22109E+02 3.79929E+00
 -1      5661 6.31971E-02-2.09351E-01-1.58991E+02-4.17311E+00 4.38067E+02 1.98103E+00
 -1      5662-7.70644E-02 1.85970E+00-4.18833E+02-4.43424E-01 4.59397E+02 3.90915E-01
 -1      5663 1.60172E-01 1.24738E-01-4.23412E+02-7.13600E+00 4.20796E+02 5.48266E+00
 -1      5664-1.25798E-02 1.32054E+00-3.94168E+02-2.31769E-01 4.59812E+02 2.27953E-01
 -1      5665-2.27762E-02 7.16896E-01-1.82582E+02-4.52359E-01 4.73874E+02 1.63066E-01
 -1      5666 4.88389E-02 7.76381E-01-4.20876E+02-3.88441E+00 4.37484E+02 2.98991E+00
 -1      5667 1.93725E-01-2.42163E-02-3.97625E+02-5.39169E+00 4.19815E+02 4.75791E+00
 -1      5668 7.82199E-02-9.55032E-02-1.84777E+02-7.47437E+00 4.35128E+02 2.55069E+00
 -1      5669-1.00012E-02 4.28058E+00-4.65585E+02-8.38545E-01 4.49736E+02 6.32075E-01
 -1      5670 1.74617E-01 1.02620E+00-4.74367E+02-1.23241E+01 4.16210E+02 7.27186E+00
 -1      5671 3.87678E-02 3.04982E+00-4.42249E+02-4.77395E-01 4.52335E+02 3.22520E-01
 -1      5672-1.70412E-02 1.80421E+00-2.06125E+02-8.56676E-01 4.64277E+02 2.97321E-01
 -1      5673 3.42073E-02 2.18755E+00-4.69713E+02-6.76661E+00 4.29974E+02 4.06798E+00
 -1      5674 2.19660E-01 5.34298E-01-4.48965E+02-9.47986E+00 4.16098E+02 6.18434E+00
 -1      5675 5.75557E-02 2.98933E-01-2.10279E+02-1.29221E+01 4.30599E+02 3.38898E+00
 -1      5676 4.91323E-01 8.62642E+00-5.08786E+02-1.50800E+00 4.33472E+02 1.02259E+00
 -1      5677-2.08185E-01 2.30945E+00-5.25242E+02-2.04840E+01 4.09380E+02 9.56757E+00
 -1      5678 3.27481E-01 6.43096E+00-4.87195E+02-9.28813E-01 4.39494E+02 5.26114E-01
 -1      5679 2.36062E-01 3.97387E+00-2.27955E+02-1.56635E+00 4.48151E+02 5.09912E-01
 -1      5680-2.35321E-01 4.38184E+00-5.17075E+02-1.13459E+01 4.17950E+02 5.56798E+00
 -1      5681 1.06716E-01 1.67886E+00-4.99779E+02-1.60707E+01 4.10397E+02 8.12173E+00
 -1      5682-9.17737E-02 1.06429E+00-2.35674E+02-2.14959E+01 4.23877E+02 4.48223E+00
 -1      5683 2.09741E-01 1.44787E+01-5.46965E+02-2.85948E+00 4.06287E+02 1.86799E+00
 -1      5684-1.04144E+00 2.97790E+00-5.76684E+02-3.24025E+01 3.99426E+02 1.16715E+01
 -1      5685 5.23992E-01 1.18638E+01-5.27771E+02-1.86500E+00 4.17939E+02 8.33817E-01
 -1      5686 2.36905E-02 6.65239E+00-2.47475E+02-2.92895E+00 4.20866E+02 9.28949E-01
 -1      5687-9.80625E-01 6.67475E+00-5.62713E+02-1.83025E+01 3.98854E+02 7.12148E+00
 -1      5688-3.22739E-01 3.02983E+00-5.50843E+02-2.60875E+01 4.01926E+02 1.00694E+01
 -1      5689-5.18383E-01 1.40436E+00-2.61311E+02-3.39969E+01 4.13787E+02 5.52043E+00
 -1      5690 6.84545E+00 1.75472E+01-5.75271E+02-4.74463E+00 3.62270E+02 2.97564E+00
 -1      5691-6.85655E+00-7.18875E+00-6.30869E+02-4.82284E+01 3.84589E+02 1.05756E+01
 -1      5692 3.15897E+00 1.72077E+01-5.61479E+02-3.35218E+00 3.82361E+02 1.87583E+00
 -1      5693 3.34417E+00 8.77351E+00-2.61680E+02-4.82686E+00 3.73456E+02 1.41445E+00
 -1      5694-3.85370E+00-3.81841E-01-6.08858E+02-2.75985E+01 3.69863E+02 7.99099E+00
 -1      5695-2.60496E+00 3.06782E-01-6.02101E+02-4.02292E+01 3.89533E+02 1.06334E+01
 -1      5696-2.84459E+00-2.54207E+00-2.87540E+02-5.02708E+01 3.95657E+02 5.07658E+00
 -1      5697-6.37843E+00-7.58645E+00-5.77958E+02-1.05138E+01 2.76970E+02 9.34903E+00
 -1      5698-1.61947E+01-4.78475E+01-6.83666E+02-6.07296E+01 3.55404E+02-8.90824E+00
 -1      5699-9.23914E-01 7.97493E+00-5.81053E+02-7.47341E+00 3.18185E+02 1.87437E+00
 -1      5700-1.17392E+00 1.15085E-01-2.61845E+02-1.06009E+01 2.79317E+02 4.20011E+00
 -1      5701-1.71879E+01-4.08533E+01-6.57971E+02-3.87349E+01 3.15015E+02-6.67297E-01
 -1      5702-6.95884E+00-2.04439E+01-6.53955E+02-5.56046E+01 3.66522E+02 6.40222E-01
 -1      5703-5.23916E+00-1.78028E+01-3.10634E+02-6.25669E+01 3.58010E+02-3.91509E+00
 -1      5704 4.29252E+01-8.48471E+01-6.30950E+02-4.75080E+00 1.19474E+02 2.30415E+01
 -1      5705-1.25974E+02-1.74117E+02-7.42542E+02-5.83588E+01 2.60379E+02-9.02031E+01
 -1      5706 5.18087E+01-1.20581E+01-5.64585E+02-1.34008E+01 1.95669E+02 1.60705E+01
 -1      5707 2.16687E+01-3.47673E+01-2.85685E+02-5.88297E+00 1.08077E+02 1.05991E+01
 -1      5708-5.84424E+01-1.37862E+02-6.94414E+02-3.01745E+01 2.13531E+02-4.21362E+01
 -1      5709-4.26253E+01-8.03611E+01-6.79461E+02-6.29208E+01 3.13621E+02-3.88327E+01
 -1      5710-5.54055E+01-7.53679E+01-3.37368E+02-5.86657E+01 2.49688E+02-4.14409E+01
 -1      5711-4.86892E+02-4.86889E+02-1.06272E+03 6.54021E-04-1.61443E+02-3.27306E+02
 -1      5712-2.75981E+02-2.75979E+02-6.02366E+02 9.02878E-04 4.57647E+01-1.31289E+02
 -1      5713-1.21032E+02-2.44502E+02-8.15325E+02-2.08925E+01-2.55605E+01-1.28644E+02
 -1      5714-2.22237E+02-2.22239E+02-4.85082E+02-8.94651E-04-1.75254E+02-1.50548E+02
 -1      5715-3.57161E+02-3.57164E+02-7.79589E+02-7.73636E-04-3.94910E+01-2.23146E+02
 -1      5716-1.56900E+02-2.10893E+02-6.69550E+02-2.28658E+01 1.62383E+02-1.12601E+02
 -1      5717-1.25439E+02-1.25440E+02-2.73801E+02-8.35460E-04 3.20676E+01-6.06369E+01
 -1      5718 3.29169E+02 3.29169E+02 7.18464E+02-7.51298E-04 1.09629E+02-8.79996E+01
 -1      5719 1.87011E+02 1.96597E+02 8.03761E+02 3.48799E+01 3.39306E+02-6.98563E+01
 -1      5720 3.17419E+02 3.17420E+02 6.92838E+02 9.49854E-04 8.65297E+01-1.15655E+02
 -1      5721 1.45728E+02 1.89843E+02 8.19342E+02 3.76805E+01 3.10087E+02-7.91477E+01
 -1      5722 1.73588E+02 1.73588E+02 3.78893E+02 8.11372E-04 9.32578E+01-4.71075E+01
 -1      5723 2.55511E+02 2.61785E+02 7.57164E+02 1.97151E+01 2.32579E+02-8.16940E+01
 -1      5724 9.54589E+01 9.92801E+01 4.21762E+02 3.60712E+01 3.25425E+02-3.75683E+01
 -1      5725 8.13561E+01 8.10816E+01 8.24349E+02 4.99881E+01 4.13078E+02-2.16195E+01
 -1      5726 6.17768E+01 7.69556E+01 8.18746E+02 5.37774E+01 3.88551E+02-2.05493E+01
 -1      5727 1.18514E+02 1.19467E+02 8.08782E+02 4.58667E+01 3.79001E+02-4.44859E+01
 -1      5728 3.98940E+01 3.98682E+01 4.35079E+02 5.23078E+01 4.14051E+02-1.17251E+01
 -1      5729 3.15372E+01 2.17084E+01 7.76044E+02 4.56587E+01 4.18735E+02 1.79592E+00
 -1      5730 2.03544E+01 1.77714E+01 7.60494E+02 4.60340E+01 4.03122E+02 5.57969E+00
 -1      5731 4.62826E+01 4.00007E+01 7.92362E+02 4.92586E+01 4.13664E+02-9.25636E+00
 -1      5732 1.59836E+01 1.22806E+01 4.15038E+02 4.81441E+01 4.29942E+02 9.75475E-01
 -1      5733 9.77853E+00 1.82216E+00 7.10422E+02 3.36120E+01 4.10162E+02 1.01800E+01
 -1      5734 6.74245E+00 1.22852E+00 7.00206E+02 3.29686E+01 4.03859E+02 1.13776E+01
 -1      5735 1.65490E+01 7.31808E+00 7.39060E+02 3.98193E+01 4.11576E+02 6.26157E+00
 -1      5736 5.05527E+00 1.72853E+00 3.83122E+02 3.55851E+01 4.25319E+02 5.52753E+00
 -1      5737 2.52959E+00-1.08860E+00 6.49535E+02 2.25278E+01 4.04122E+02 1.06909E+01
 -1      5738 1.65987E+00-1.40963E+00 6.42099E+02 2.15529E+01 4.05078E+02 1.08039E+01
 -1      5739 5.10227E+00-4.93887E-01 6.79290E+02 2.78259E+01 4.04459E+02 1.02005E+01
 -1      5740 1.17626E+00-5.80183E-01 3.52476E+02 2.38403E+01 4.19281E+02 5.75870E+00
 -1      5741-1.34926E-01-1.13243E+00 5.91796E+02 1.41103E+01 4.00776E+02 9.06549E+00
 -1      5742-5.99223E-02-1.19742E+00 5.87203E+02 1.33120E+01 4.06559E+02 8.72434E+00
 -1      5743 8.76045E-01-1.18484E+00 6.20498E+02 1.79956E+01 3.99834E+02 9.66178E+00
 -1      5744-1.65854E-01-6.95281E-01 3.23329E+02 1.49103E+01 4.15542E+02 4.81202E+00
 -1      5745-7.54716E-01-5.31771E-01 5.36509E+02 8.43052E+00 3.99317E+02 7.21259E+00
 -1      5746-4.64177E-01-5.54329E-01 5.33782E+02 7.86413E+00 4.08117E+02 6.74580E+00
 -1      5747-4.74613E-01-7.09445E-01 5.64282E+02 1.09984E+01 3.97505E+02 7.96574E+00
 -1      5748-5.00993E-01-4.57503E-01 2.95390E+02 8.89320E+00 4.13763E+02 3.75346E+00
 -1      5749-7.51074E-01-2.01896E-01 4.82252E+02 4.83704E+00 3.98769E+02 5.74361E+00
 -1      5750-4.64945E-01-2.05186E-01 4.80727E+02 4.47243E+00 4.09352E+02 5.26331E+00
 -1      5751-7.43215E-01-2.84925E-01 5.09479E+02 6.43817E+00 3.96523E+02 6.36515E+00
 -1      5752-4.71008E-01-2.51244E-01 2.68111E+02 5.09520E+00 4.13063E+02 2.91886E+00
 -1      5753-5.65011E-01-5.21893E-02 4.28466E+02 2.67632E+00 3.98616E+02 4.72849E+00
 -1      5754-3.50377E-01-5.22822E-02 4.27654E+02 2.45474E+00 4.10211E+02 4.27000E+00
 -1      5755-6.38873E-01-8.21896E-02 4.55437E+02 3.62791E+00 3.96182E+02 5.16594E+00
 -1      5756-3.49154E-01-1.30784E-01 2.41134E+02 2.81606E+00 4.12848E+02 2.34474E+00
 -1      5757-3.76159E-01-2.89062E-03 3.74855E+02 1.42934E+00 3.98602E+02 4.08315E+00
 -1      5758-2.33678E-01-2.51071E-03 3.74447E+02 1.30091E+00 4.10750E+02 3.65042E+00
 -1      5759-4.55501E-01-7.76289E-03 4.01715E+02 1.97295E+00 3.96100E+02 4.36513E+00
 -1      5760-2.29448E-01-6.61479E-02 2.14289E+02 1.50271E+00 4.12817E+02 1.98127E+00
 -1      5761-2.31088E-01 8.69843E-03 3.21305E+02 7.36296E-01 3.98627E+02 3.69671E+00
 -1      5762-1.43895E-01 8.69726E-03 3.21115E+02 6.64792E-01 4.11066E+02 3.28465E+00
 -1      5763-2.92762E-01 1.10697E-02 3.48120E+02 1.03554E+00 3.96105E+02 3.86737E+00
 -1      5764-1.39301E-01-3.25815E-02 1.87495E+02 7.73586E-01 4.12839E+02 1.76471E+00
 -1      5765-1.33349E-01 8.56288E-03 2.67771E+02 3.64831E-01 3.98654E+02 3.47674E+00
 -1      5766-8.32629E-02 8.29981E-03 2.67693E+02 3.26528E-01 4.11240E+02 3.07887E+00
 -1      5767-1.74982E-01 1.17712E-02 2.94569E+02 5.23702E-01 3.96131E+02 3.57487E+00
 -1      5768-7.92811E-02-1.51301E-02 1.60719E+02 3.83079E-01 4.12868E+02 1.64224E+00
 -1      5769-7.23866E-02 6.25889E-03 2.14240E+02 1.72836E-01 3.98673E+02 3.35747E+00
 -1      5770-4.53263E-02 5.93575E-03 2.14215E+02 1.53161E-01 4.11331E+02 2.96847E+00
 -1      5771-9.82805E-02 8.59299E-03 2.41030E+02 2.54174E-01 3.96154E+02 3.41123E+00
 -1      5772-4.23210E-02-6.13863E-03 1.33950E+02 1.81349E-01 4.12889E+02 1.57643E+00
 -1      5773-3.61199E-02 4.16608E-03 1.60708E+02 7.68138E-02 3.98685E+02 3.29651E+00
 -1      5774-2.26718E-02 3.94951E-03 1.60705E+02 6.73353E-02 4.11376E+02 2.91261E+00
 -1      5775-5.15293E-02 5.66893E-03 1.87492E+02 1.17215E-01 3.96169E+02 3.32430E+00
 -1      5776-2.06813E-02-1.74737E-03 1.07181E+02 8.04822E-02 4.12902E+02 1.54324E+00
 -1      5777-1.45451E-02 2.27194E-03 1.07173E+02 2.88135E-02 3.98691E+02 3.26870E+00
 -1      5778-9.14318E-03 2.27397E-03 1.07178E+02 2.50308E-02 4.11395E+02 2.88740E+00
 -1      5779-2.38782E-02 3.45222E-03 1.33953E+02 4.92539E-02 3.96178E+02 3.28148E+00
 -1      5780-8.15049E-03-9.49860E-05 8.04116E+01 3.00351E-02 4.12909E+02 1.52839E+00
 -1      5781-1.56733E-04-3.26075E-04 5.36372E+01 5.55018E-04 3.98693E+02 3.26090E+00
 -1      5782-1.11239E-04-1.80675E-05 5.36437E+01 5.38221E-04 4.11401E+02 2.88047E+00
 -1      5783-6.76746E-03 1.22828E-03 8.04127E+01 1.36449E-02 3.96181E+02 3.26432E+00
 -1      5784-2.34288E-04-5.42975E-04 5.36414E+01 2.75427E-04 4.12911E+02 1.52436E+00
 -1      5785 1.28322E-02-5.23116E-03 1.00712E-01-2.76033E-02 3.98692E+02 3.26849E+00
 -1      5786 7.98541E-03-4.53615E-03 1.09070E-01-2.38512E-02 4.11396E+02 2.88757E+00
 -1      5787 6.28438E-03-2.30416E-03 2.68715E+01-1.25068E-02 3.96182E+02 3.26423E+00
 -1      5788 6.32325E-03-3.47123E-03 2.68712E+01-2.94353E-02 4.12909E+02 1.52826E+00
 -1      5789 2.95515E-02-1.51181E-02-5.34345E+01-7.53466E-02 3.98688E+02 3.29399E+00
 -1      5790 1.82701E-02-1.39725E-02-5.34188E+01-6.58855E-02 4.11379E+02 2.91113E+00
 -1      5791 2.06084E-02-9.24728E-03-2.66692E+01-4.79281E-02 3.96179E+02 3.28021E+00
 -1      5792 1.41536E-02-1.03798E-02 1.02050E-01-7.97574E-02 4.12904E+02 1.54086E+00
 -1      5793 5.54461E-02-3.42458E-02-1.06966E+02-1.71123E-01 3.98682E+02 3.34745E+00
 -1      5794 3.39990E-02-3.26629E-02-1.06930E+02-1.51428E-01 4.11340E+02 2.96073E+00
 -1      5795 4.14058E-02-2.30266E-02-8.02074E+01-1.15611E-01 3.96174E+02 3.31831E+00
 -1      5796 2.57979E-02-2.41277E-02-2.66638E+01-1.80508E-01 4.12894E+02 1.56657E+00
 -1      5797 9.68527E-02-6.85858E-02-1.60491E+02-3.63301E-01 3.98675E+02 3.44881E+00
 -1      5798 5.88853E-02-6.67902E-02-1.60407E+02-3.24887E-01 4.11262E+02 3.05550E+00
 -1      5799 7.45122E-02-4.88623E-02-1.33740E+02-2.52477E-01 3.96168E+02 3.39298E+00
 -1      5800 4.40086E-02-4.90198E-02-5.34225E+01-3.82340E-01 4.12879E+02 1.61436E+00
 -1      5801 1.60502E-01-1.24410E-01-2.14005E+02-7.36284E-01 3.98674E+02 3.63184E+00
 -1      5802 9.67832E-02-1.23057E-01-2.13822E+02-6.64475E-01 4.11113E+02 3.22823E+00
 -1      5803 1.26412E-01-9.34753E-02-1.87265E+02-5.22725E-01 3.96163E+02 3.53006E+00
 -1      5804 7.15258E-02-9.00435E-02-8.01690E+01-7.73618E-01 4.12863E+02 1.69949E+00
 -1      5805 2.50528E-01-2.02453E-01-2.67508E+02-1.43397E+00 3.98693E+02 3.94900E+00
 -1      5806 1.49883E-01-2.02986E-01-2.67136E+02-1.30486E+00 4.10841E+02 3.53083E+00
 -1      5807 2.02352E-01-1.62291E-01-2.40781E+02-1.03739E+00 3.96172E+02 3.77105E+00
 -1      5808 1.09534E-01-1.49783E-01-1.06899E+02-1.50508E+00 4.12864E+02 1.84577E+00
 -1      5809 3.58413E-01-2.84404E-01-3.21020E+02-2.69196E+00 3.98781E+02 4.47442E+00
 -1      5810 2.12656E-01-2.89080E-01-3.20297E+02-2.46903E+00 4.10375E+02 4.03909E+00
 -1      5811 3.00027E-01-2.50814E-01-2.94300E+02-1.98218E+00 3.96224E+02 4.17690E+00
 -1      5812 1.53188E-01-2.20243E-01-1.33614E+02-2.82392E+00 4.12932E+02 2.08723E+00
 -1      5813 4.40535E-01-3.01843E-01-3.74613E+02-4.87536E+00 3.99047E+02 5.29838E+00
 -1      5814 2.58092E-01-3.14263E-01-3.73276E+02-4.50837E+00 4.09627E+02 4.85125E+00
 -1      5815 3.92545E-01-3.24803E-01-3.47875E+02-3.65329E+00 3.96397E+02 4.82639E+00
 -1      5816 1.78932E-01-2.68230E-01-1.60351E+02-5.11437E+00 4.13204E+02 2.46625E+00
 -1      5817 3.43686E-01-1.29890E-01-4.28525E+02-8.51089E+00 3.99747E+02 6.49261E+00
 -1      5818 1.90307E-01-1.46645E-01-4.26149E+02-7.94076E+00 4.08538E+02 6.06562E+00
 -1      5819 3.90551E-01-2.91948E-01-4.01652E+02-6.49497E+00 3.96868E+02 5.79835E+00
 -1      5820 1.19188E-01-2.13264E-01-1.87216E+02-8.93323E+00 4.13979E+02 3.01953E+00
 -1      5821-2.95787E-01 4.51489E-01-4.83242E+02-1.42610E+01 4.01367E+02 8.00979E+00
 -1      5822-2.26027E-01 4.33426E-01-4.79246E+02-1.34576E+01 4.07135E+02 7.69955E+00
 -1      5823 4.42455E-02 1.79882E-02-4.56011E+02-1.11104E+01 3.98005E+02 7.10060E+00
 -1      5824-2.21537E-01 3.54547E-02-2.14501E+02-1.49850E+01 4.15836E+02 3.73302E+00
 -1      5825-2.69562E+00 8.56855E-01-5.40093E+02-2.27818E+01 4.04790E+02 9.36161E+00
 -1      5826-1.77654E+00 1.00354E+00-5.33602E+02-2.18018E+01 4.05719E+02 9.44872E+00
 -1      5827-1.23987E+00 6.34638E-01-5.11549E+02-1.81944E+01 4.00457E+02 8.49397E+00
 -1      5828-1.29160E+00 4.35081E-01-2.42697E+02-2.39657E+01 4.19606E+02 4.39609E+00
 -1      5829-9.00354E+00-5.30497E-01-5.99831E+02-3.39906E+01 4.10609E+02 8.97250E+00
 -1      5830-6.19448E+00-2.16915E-01-5.90828E+02-3.33456E+01 4.04273E+02 9.99894E+00
 -1      5831-4.97718E+00 7.85842E-01-5.69398E+02-2.81413E+01 4.05020E+02 8.95109E+00
 -1      5832-4.23140E+00-1.95022E-01-2.72222E+02-3.57709E+01 4.25517E+02 4.28394E+00
 -1      5833-2.79552E+01-1.63483E+01-6.63983E+02-4.61351E+01 4.18228E+02 1.94155E+00
 -1      5834-1.81011E+01-1.31468E+01-6.50168E+02-4.65153E+01 4.02594E+02 5.21233E+00
 -1      5835-1.49077E+01-4.61809E+00-6.28240E+02-4.02536E+01 4.11588E+02 5.67307E+00
 -1      5836-1.24209E+01-6.52011E+00-3.02925E+02-4.83761E+01 4.29664E+02 1.10296E+00
 -1      5837-7.14773E+01-6.76219E+01-7.12686E+02-5.04535E+01 4.10693E+02-1.80467E+01
 -1      5838-5.43265E+01-6.40629E+01-7.07172E+02-5.42484E+01 3.86184E+02-1.70875E+01
 -1      5839-4.06536E+01-3.16861E+01-6.81192E+02-4.97461E+01 4.12313E+02-7.49830E+00
 -1      5840-3.02405E+01-2.61502E+01-3.23890E+02-5.25325E+01 4.12863E+02-8.12744E+00
 -1      5841-1.63032E+02-1.69686E+02-6.97940E+02-3.51764E+01 3.34716E+02-5.98365E+01
 -1      5842-1.27120E+02-1.63611E+02-7.10724E+02-3.79655E+01 3.05552E+02-6.78042E+01
 -1      5843-1.03110E+02-1.00634E+02-7.00340E+02-4.62646E+01 3.75545E+02-3.78352E+01
 -1      5844-7.17458E+01-7.23325E+01-3.16537E+02-3.62126E+01 3.23189E+02-2.74870E+01
 -1      5845-2.85591E+02-2.85591E+02-6.23346E+02 7.57129E-04 1.04281E+02-7.60934E+01
 -1      5846-2.75134E+02-2.75135E+02-6.00542E+02-9.56601E-04 8.12310E+01-1.00062E+02
 -1      5847-2.22070E+02-2.27054E+02-6.57383E+02-1.98732E+01 2.27541E+02-7.03638E+01
 -1      5848-1.30062E+02-1.30062E+02-2.83889E+02-8.14298E-04 9.06338E+01-3.51254E+01
 -1      5849 3.24382E+02 3.24383E+02 7.08017E+02-3.91839E-04 1.39739E+02-4.04041E+01
 -1      5850 2.14036E+02 2.00609E+02 8.00702E+02 1.80828E+01 3.68258E+02-3.24615E+01
 -1      5851 3.25890E+02 3.25890E+02 7.11324E+02 5.96975E-04 1.27801E+02-6.28546E+01
 -1      5852 2.00321E+02 1.97783E+02 8.00599E+02 2.50377E+01 3.56977E+02-4.97720E+01
 -1      5853 1.70923E+02 1.70923E+02 3.73075E+02 4.19696E-04 1.22916E+02-2.16351E+01
 -1      5854 2.66825E+02 2.63156E+02 7.54107E+02 9.63782E+00 2.61715E+02-3.69490E+01
 -1      5855 1.09903E+02 1.01689E+02 4.19951E+02 1.86390E+01 3.53831E+02-1.74598E+01
 -1      5856 1.17295E+02 8.71756E+01 8.30075E+02 2.64317E+01 4.41822E+02-1.52719E+01
 -1      5857 1.01134E+02 8.41851E+01 8.27432E+02 3.66362E+01 4.30274E+02-1.95336E+01
 -1      5858 1.49807E+02 1.22884E+02 8.06475E+02 2.34148E+01 4.08896E+02-2.36136E+01
 -1      5859 5.90202E+01 4.31859E+01 4.37846E+02 2.76341E+01 4.42561E+02-8.23879E+00
 -1      5860 5.16121E+01 2.38916E+01 7.88145E+02 2.53856E+01 4.40675E+02-1.76951E+00
 -1      5861 4.19470E+01 2.27098E+01 7.83241E+02 3.47008E+01 4.31564E+02-5.86125E-01
 -1      5862 7.37178E+01 4.33008E+01 8.00490E+02 2.67120E+01 4.39480E+02-7.84533E+00
 -1      5863 2.66934E+01 1.37043E+01 4.21455E+02 2.67494E+01 4.52242E+02-9.40055E-01
 -1      5864 1.93734E+01 2.91233E+00 7.24513E+02 1.99303E+01 4.21258E+02 4.60466E+00
 -1      5865 1.54831E+01 2.79664E+00 7.19200E+02 2.66076E+01 4.16366E+02 6.89897E+00
 -1      5866 3.05430E+01 8.64282E+00 7.52482E+02 2.29143E+01 4.28198E+02 1.65958E+00
 -1      5867 1.01263E+01 2.52670E+00 3.90739E+02 2.10614E+01 4.36939E+02 2.50348E+00
 -1      5868 6.00355E+00-9.50675E-01 6.60002E+02 1.38502E+01 4.05770E+02 5.95031E+00
 -1      5869 4.68675E+00-7.87621E-01 6.55870E+02 1.81915E+01 4.04779E+02 8.17078E+00
 -1      5870 1.08035E+01-3.11901E-01 6.90917E+02 1.68138E+01 4.10779E+02 5.25114E+00
 -1      5871 2.97182E+00-3.58841E-01 3.58204E+02 1.46322E+01 4.21265E+02 3.20067E+00
 -1      5872 7.07456E-01-1.24241E+00 5.98761E+02 8.90539E+00 3.95528E+02 5.49181E+00
 -1      5873 5.72353E-01-1.00638E+00 5.96028E+02 1.15829E+01 3.97445E+02 7.25270E+00
 -1      5874 2.73781E+00-1.24759E+00 6.29021E+02 1.12110E+01 3.97937E+02 5.64116E+00
 -1      5875 2.25077E-01-6.66599E-01 3.27161E+02 9.39473E+00 4.10399E+02 2.91132E+00
 -1      5876-8.55953E-01-6.75187E-01 5.40779E+02 5.42136E+00 3.89540E+02 4.57451E+00
 -1      5877-6.49902E-01-4.96988E-01 5.39092E+02 6.99609E+00 3.93407E+02 5.92256E+00
 -1      5878-1.81299E-01-8.10479E-01 5.69849E+02 7.00532E+00 3.89907E+02 4.95061E+00
 -1      5879-6.03116E-01-4.86376E-01 2.97743E+02 5.70996E+00 4.03911E+02 2.37917E+00
 -1      5880-1.09359E+00-3.14394E-01 4.84736E+02 3.15759E+00 3.86205E+02 3.74827E+00
 -1      5881-8.35229E-01-1.94183E-01 4.83763E+02 4.05105E+00 3.91286E+02 4.78812E+00
 -1      5882-9.55955E-01-3.61341E-01 5.12868E+02 4.16982E+00 3.85290E+02 4.10133E+00
 -1      5883-6.88900E-01-2.87195E-01 2.69478E+02 3.32105E+00 4.00308E+02 1.90612E+00
 -1      5884-8.90866E-01-1.27739E-01 4.29845E+02 1.76997E+00 3.84418E+02 3.14276E+00
 -1      5885-6.82276E-01-5.40211E-02 4.29315E+02 2.25892E+00 3.90217E+02 3.97800E+00
 -1      5886-9.42629E-01-1.31182E-01 4.57394E+02 2.38259E+00 3.82760E+02 3.40584E+00
 -1      5887-5.46155E-01-1.59530E-01 2.41891E+02 1.85960E+00 3.98390E+02 1.56171E+00
 -1      5888-6.17798E-01-4.95440E-02 3.75588E+02 9.56929E-01 3.83486E+02 2.74408E+00
 -1      5889-4.73715E-01-6.57048E-03 3.75318E+02 1.21534E+00 3.89693E+02 3.45206E+00
 -1      5890-7.10167E-01-3.66608E-02 4.02794E+02 1.31206E+00 3.81417E+02 2.91930E+00
 -1      5891-3.72468E-01-8.58993E-02 2.14689E+02 1.00459E+00 3.97400E+02 1.33607E+00
 -1      5892-3.89657E-01-1.84750E-02 3.21677E+02 4.99055E-01 3.83013E+02 2.49942E+00
 -1      5893-2.99133E-01 5.39186E-03 3.21551E+02 6.30678E-01 3.89442E+02 3.13248E+00
 -1      5894-4.71157E-01-5.02243E-03 3.48690E+02 6.97111E-01 3.80725E+02 2.60786E+00
 -1      5895-2.31835E-01-4.50045E-02 1.87696E+02 5.23596E-01 3.96903E+02 1.19831E+00
 -1      5896-2.29286E-01-6.49620E-03 2.67952E+02 2.50547E-01 3.82780E+02 2.35739E+00
 -1      5897-1.76176E-01 6.19560E-03 2.67900E+02 3.14948E-01 3.89326E+02 2.94837E+00
 -1      5898-2.87838E-01 3.24799E-03 2.94856E+02 3.57033E-01 3.80378E+02 2.42083E+00
 -1      5899-1.34568E-01-2.24687E-02 1.60816E+02 2.62737E-01 3.96660E+02 1.11883E+00
 -1      5900-1.26514E-01-1.69599E-03 2.14322E+02 1.20424E-01 3.82669E+02 2.27906E+00
 -1      5901-9.72762E-02 4.73603E-03 2.14307E+02 1.50488E-01 3.89274E+02 2.84750E+00
 -1      5902-1.64495E-01 4.29623E-03 2.41167E+02 1.75678E-01 3.80209E+02 2.31431E+00
 -1      5903-7.30967E-02-1.02503E-02 1.33992E+02 1.26211E-01 3.96545E+02 1.07537E+00
 -1      5904-6.41013E-02 1.93475E-04 1.60742E+02 5.43487E-02 3.82618E+02 2.23837E+00
 -1      5905-4.93008E-02 3.24712E-03 1.60742E+02 6.74925E-02 3.89252E+02 2.79542E+00
 -1      5906-8.75691E-02 3.59204E-03 1.87554E+02 8.22434E-02 3.80130E+02 2.25683E+00
 -1      5907-3.63612E-02-3.94287E-03 1.07198E+02 5.68963E-02 3.96493E+02 1.05305E+00
 -1      5908-2.63114E-02 4.95082E-04 1.07184E+02 2.06436E-02 3.82597E+02 2.21951E+00
 -1      5909-2.02251E-02 1.73047E-03 1.07189E+02 2.55050E-02 3.89243E+02 2.77142E+00
 -1      5910-4.12162E-02 2.45574E-03 1.33977E+02 3.50707E-02 3.80095E+02 2.22808E+00
 -1      5911-1.47123E-02-1.20443E-03 8.04159E+01 2.15197E-02 3.96472E+02 1.04286E+00
 -1      5912-7.70292E-04-7.70292E-04 5.36347E+01 3.37968E-04 3.82592E+02 2.21404E+00
 -1      5913-5.75813E-04-6.47943E-04 5.36405E+01 4.46236E-04 3.89241E+02 2.76454E+00
 -1      5914-1.20989E-02 7.10950E-04 8.04174E+01 9.78010E-03 3.80082E+02 2.21635E+00
 -1      5915-8.75857E-04-1.02761E-03 5.36389E+01 1.68617E-04 3.96466E+02 1.03993E+00
 -1      5916 2.23077E-02-4.49884E-03 8.54487E-02-1.99135E-02 3.82598E+02 2.21895E+00
 -1      5917 1.71320E-02-5.40932E-03 9.19380E-02-2.45361E-02 3.89244E+02 2.77090E+00
 -1      5918 1.02190E-02-2.59085E-03 2.68623E+01-9.08904E-03 3.80082E+02 2.21610E+00
 -1      5919 1.05312E-02-3.49740E-03 2.68621E+01-2.11558E-02 3.96472E+02 1.04235E+00
 -1      5920 5.16333E-02-1.26615E-02-5.34717E+01-5.34859E-02 3.82621E+02 2.23577E+00
 -1      5921 3.95310E-02-1.51305E-02-5.34608E+01-6.63315E-02 3.89255E+02 2.79252E+00
 -1      5922 3.44195E-02-9.25244E-03-2.66969E+01-3.42797E-02 3.80097E+02 2.22660E+00
 -1      5923 2.38512E-02-9.82048E-03 8.18050E-02-5.64678E-02 3.96495E+02 1.05052E+00
 -1      5924 9.62395E-02-2.85785E-02-1.07047E+02-1.19463E-01 3.82677E+02 2.27078E+00
 -1      5925 7.34427E-02-3.39333E-02-1.07023E+02-1.49161E-01 3.89283E+02 2.83767E+00
 -1      5926 6.88502E-02-2.23109E-02-8.02696E+01-8.13187E-02 3.80135E+02 2.25164E+00
 -1      5927 4.31296E-02-2.24641E-02-2.67058E+01-1.25737E-01 3.96549E+02 1.06717E+00
 -1      5928 1.66024E-01-5.67661E-02-1.60660E+02-2.49795E-01 3.82801E+02 2.33636E+00
 -1      5929 1.26250E-01-6.75853E-02-1.60603E+02-3.13827E-01 3.89347E+02 2.92264E+00
 -1      5930 1.22465E-01-4.63260E-02-1.33871E+02-1.74767E-01 3.80223E+02 2.30023E+00
 -1      5931 7.24013E-02-4.51105E-02-5.35074E+01-2.62373E-01 3.96671E+02 1.09781E+00
 -1      5932 2.69991E-01-1.01191E-01-2.14342E+02-4.99396E-01 3.83060E+02 2.45299E+00
 -1      5933 2.04518E-01-1.22052E-01-2.14221E+02-6.30880E-01 3.89488E+02 3.07466E+00
 -1      5934 2.04264E-01-8.68227E-02-1.87527E+02-3.56687E-01 3.80410E+02 2.38825E+00
 -1      5935 1.14879E-01-8.17283E-02-8.03350E+01-5.23788E-01 3.96927E+02 1.15165E+00
 -1      5936 4.09113E-01-1.59140E-01-2.68156E+02-9.60364E-01 3.83579E+02 2.65139E+00
 -1      5937 3.08429E-01-1.97749E-01-2.67912E+02-1.21944E+00 3.89784E+02 3.33517E+00
 -1      5938 3.19015E-01-1.47119E-01-2.41288E+02-6.98699E-01 3.80792E+02 2.54047E+00
 -1      5939 1.69561E-01-1.33303E-01-1.07213E+02-1.00634E+00 3.97447E+02 1.24256E+00
 -1      5940 5.55363E-01-2.07763E-01-3.22222E+02-1.78048E+00 3.84589E+02 2.97230E+00
 -1      5941 4.15955E-01-2.76102E-01-3.21756E+02-2.27209E+00 3.90385E+02 3.76070E+00
 -1      5942 4.54313E-01-2.19193E-01-2.95245E+02-1.31846E+00 3.81545E+02 2.79151E+00
 -1      5943 2.21818E-01-1.89681E-01-1.34192E+02-1.86490E+00 3.98477E+02 1.38921E+00
 -1      5944 6.04338E-01-1.74858E-01-3.76761E+02-3.18230E+00 3.86495E+02 3.45813E+00
 -1      5945 4.45711E-01-2.90475E-01-3.75918E+02-4.08269E+00 3.91570E+02 4.41422E+00
 -1      5946 5.47897E-01-2.63550E-01-3.49572E+02-2.39920E+00 3.82984E+02 3.18164E+00
 -1      5947 2.19753E-01-2.15540E-01-1.61378E+02-3.33347E+00 4.00455E+02 1.61169E+00
 -1      5948 2.41087E-01 6.03208E-02-4.32206E+02-5.47180E+00 3.89993E+02 4.12120E+00
 -1      5949 1.56953E-01-1.19846E-01-4.30750E+02-7.06158E+00 3.93849E+02 5.33045E+00
 -1      5950 4.12734E-01-1.81880E-01-4.04579E+02-4.20587E+00 3.85653E+02 3.73839E+00
 -1      5951 2.15084E-02-1.32107E-01-1.88972E+02-5.73521E+00 4.04139E+02 1.91790E+00
 -1      5952-1.27219E+00 6.77676E-01-4.89256E+02-8.99769E+00 3.96160E+02 4.85913E+00
 -1      5953-1.03177E+00 4.21254E-01-4.86894E+02-1.17042E+01 3.98058E+02 6.41029E+00
 -1      5954-4.33122E-01 1.96059E-01-4.60819E+02-7.07471E+00 3.90439E+02 4.41850E+00
 -1      5955-7.37954E-01 1.34441E-01-2.17369E+02-9.44077E+00 4.10713E+02 2.26567E+00
 -1      5956-5.98738E+00 9.66841E-01-5.49192E+02-1.40019E+01 4.06497E+02 5.22301E+00
 -1      5957-4.70480E+00 7.33253E-01-5.45595E+02-1.83935E+01 4.05479E+02 7.16224E+00
 -1      5958-3.12770E+00 8.57705E-01-5.18946E+02-1.13312E+01 3.98609E+02 4.96896E+00
 -1      5959-2.88828E+00 4.83689E-01-2.47039E+02-1.47075E+01 4.21619E+02 2.45554E+00
 -1      5960-1.75956E+01-1.13448E+00-6.12235E+02-2.01500E+01 4.21770E+02 4.09221E+00
 -1      5961-1.40849E+01-1.17092E+00-6.07542E+02-2.69042E+01 4.16849E+02 6.10792E+00
 -1      5962-1.02111E+01 9.04371E-01-5.79589E+02-1.69996E+01 4.11404E+02 4.62705E+00
 -1      5963-8.27140E+00-4.70671E-01-2.78131E+02-2.11699E+01 4.37169E+02 1.97273E+00
 -1      5964-4.55978E+01-1.78773E+01-6.74977E+02-2.56544E+01 4.40203E+02-1.29798E+00
 -1      5965-3.71012E+01-1.69934E+01-6.70502E+02-3.50684E+01 4.31077E+02-1.93761E-01
 -1      5966-2.72985E+01-5.39830E+00-6.40207E+02-2.31629E+01 4.28262E+02 1.59488E+00
 -1      5967-2.06562E+01-7.23661E+00-3.08221E+02-2.68814E+01 4.51981E+02-4.76992E-01
 -1      5968-1.02876E+02-7.27568E+01-7.18459E+02-2.66909E+01 4.39399E+02-1.28486E+01
 -1      5969-8.87513E+01-7.02074E+01-7.15817E+02-3.69919E+01 4.27868E+02-1.63881E+01
 -1      5970-6.46618E+01-3.42448E+01-6.88876E+02-2.69848E+01 4.38129E+02-6.49456E+00
 -1      5971-4.47810E+01-2.84488E+01-3.26689E+02-2.77607E+01 4.41356E+02-5.80434E+00
 -1      5972-1.86815E+02-1.73388E+02-6.96169E+02-1.82495E+01 3.63574E+02-2.77771E+01
 -1      5973-1.74783E+02-1.70848E+02-6.95721E+02-2.52648E+01 3.52335E+02-4.26100E+01
 -1      5974-1.30520E+02-1.03597E+02-6.99197E+02-2.36367E+01 4.05365E+02-2.00831E+01
 -1      5975-8.29133E+01-7.43687E+01-3.15984E+02-1.87212E+01 3.51548E+02-1.27459E+01
 -1      5976-2.81830E+02-2.81830E+02-6.15140E+02 3.95299E-04 1.34260E+02-3.49252E+01
 -1      5977-2.82980E+02-2.82980E+02-6.17665E+02-6.02287E-04 1.22383E+02-5.43419E+01
 -1      5978-2.32340E+02-2.28671E+02-6.55643E+02-9.73099E+00 2.56567E+02-3.18006E+01
 -1      5979-1.28405E+02-1.28405E+02-2.80271E+02-4.21565E-04 1.20229E+02-1.61208E+01
 -1      5980 3.25715E+02 3.25715E+02 7.10925E+02-8.92224E-13 1.47653E+02 8.62595E-12
 -1      5981 2.20273E+02 2.00825E+02 7.98641E+02-1.82340E-12 3.77114E+02 2.28857E-11
 -1      5982 3.24799E+02 3.24799E+02 7.08943E+02 2.08370E-04 1.45878E+02-1.98114E+01
 -1      5983 2.15524E+02 1.99435E+02 7.98070E+02 8.45723E+00 3.74900E+02-1.57996E+01
 -1      5984 1.71593E+02 1.71592E+02 3.74537E+02-1.00087E-13 1.30750E+02 1.49673E-11
 -1      5985 2.70836E+02 2.63915E+02 7.53904E+02-1.87273E-12 2.70036E+02 1.54894E-11
 -1      5986 1.13131E+02 1.01650E+02 4.18689E+02-2.32497E-12 3.62449E+02 2.74081E-11
 -1      5987 1.26107E+02 8.71891E+01 8.29278E+02-3.92950E-12 4.50970E+02 2.69140E-11
 -1      5988 1.20148E+02 8.55392E+01 8.28113E+02 1.26736E+01 4.48640E+02-7.58870E+00
 -1      5989 1.60434E+02 1.24296E+02 8.06508E+02-2.04196E-12 4.17639E+02 2.55975E-11
 -1      5990 6.37075E+01 4.31970E+01 4.37318E+02-2.52276E-12 4.51630E+02 3.29798E-11
 -1      5991 5.89566E+01 2.41816E+01 7.90923E+02-1.36402E-11 4.47855E+02 3.03270E-11
 -1      5992 5.52845E+01 2.32850E+01 7.89513E+02 1.24105E+01 4.46046E+02-1.06350E+00
 -1      5993 8.24191E+01 4.37590E+01 8.02328E+02-7.77718E-12 4.47622E+02 2.79673E-11
 -1      5994 3.06197E+01 1.39306E+01 4.22917E+02-1.07467E-11 4.59546E+02 3.47587E-11
 -1      5995 2.33796E+01 3.04995E+00 7.28577E+02-1.91377E-12 4.25452E+02 3.24951E-11
 -1      5996 2.17199E+01 2.71256E+00 7.27252E+02 9.85423E+00 4.24413E+02 2.11267E+00
 -1      5997 3.58604E+01 8.67650E+00 7.55881E+02-8.97823E-14 4.33964E+02 2.95852E-11
 -1      5998 1.22651E+01 2.67780E+00 3.92948E+02-2.93376E-12 4.41317E+02 3.73673E-11
 -1      5999 7.51943E+00-1.04407E+00 6.63393E+02-1.85866E-11 4.06983E+02 2.72135E-11
 -1      6000 7.10296E+00-1.02039E+00 6.62571E+02 6.91023E+00 4.06701E+02 2.90407E+00
 -1      6001 1.32635E+01-4.43039E-01 6.94443E+02-1.04318E-11 4.13489E+02 2.83053E-11
 -1      6002 3.76482E+00-3.60076E-01 3.60067E+02-9.69161E-12 4.22602E+02 3.31256E-11
 -1      6003 1.15337E+00-1.35641E+00 6.01159E+02-6.47419E-12 3.94376E+02 3.42139E-11
 -1      6004 1.21697E+00-1.22797E+00 6.00701E+02 4.47171E+00 3.94697E+02 2.72439E+00
 -1      6005 3.58941E+00-1.38844E+00 6.31845E+02-6.61978E-12 3.97941E+02 3.04155E-11
 -1      6006 4.45235E-01-6.95860E-01 3.28488E+02-1.00208E-11 4.09288E+02 3.63572E-11
 -1      6007-8.42506E-01-7.69120E-01 5.42310E+02-3.18231E-11 3.86773E+02 2.72916E-11
 -1      6008-6.62755E-01-6.47449E-01 5.42071E+02 2.73374E+00 3.87505E+02 2.29055E+00
 -1      6009 4.16722E-03-9.13221E-01 5.71786E+02-1.83113E-11 3.87923E+02 2.75217E-11
 -1      6010-6.12828E-01-5.19603E-01 2.98590E+02-1.81988E-11 4.01116E+02 2.86125E-11
 -1      6011-1.20349E+00-3.78973E-01 4.85651E+02 9.92501E-12 3.82412E+02 4.81412E-11
 -1      6012-1.03066E+00-2.86365E-01 4.85543E+02 1.59790E+00 3.83405E+02 1.88501E+00
 -1      6013-1.00872E+00-4.25396E-01 5.14091E+02-7.61479E-12 3.81989E+02 3.94663E-11
 -1      6014-7.60281E-01-3.12615E-01 2.69985E+02-3.02688E-11 3.96441E+02 4.42846E-11
 -1      6015-1.00869E+00-1.68211E-01 4.30366E+02-2.93146E-11 3.80010E+02 2.92401E-11
 -1      6016-8.81156E-01-1.07177E-01 4.30327E+02 8.98263E-01 3.81159E+02 1.58354E+00
 -1      6017-1.04867E+00-1.68465E-01 4.58119E+02-4.73356E-12 3.78644E+02 2.36087E-11
 -1      6018-6.17759E-01-1.76674E-01 2.42178E+02-1.51616E-11 3.93880E+02 3.57512E-11
 -1      6019-7.08938E-01-7.35869E-02 3.75871E+02-5.34190E-11 3.78725E+02 3.76574E-11
 -1      6020-6.24883E-01-3.59750E-02 3.75868E+02 4.86931E-01 3.79963E+02 1.38327E+00
 -1      6021-8.05273E-01-5.74273E-02 4.03203E+02-1.16553E-11 3.76823E+02 4.14129E-11
 -1      6022-4.26521E-01-9.66026E-02 2.14844E+02-6.66015E-11 3.92521E+02 3.89146E-11
 -1      6023-4.50880E-01-3.21210E-02 3.21825E+02-2.54991E-11 3.78057E+02 2.37785E-11
 -1      6024-3.99727E-01-1.03076E-02 3.21836E+02 2.54586E-01 3.79345E+02 1.25965E+00
 -1      6025-5.39766E-01-1.61911E-02 3.48911E+02-1.95246E-11 3.75860E+02 2.59311E-11
 -1      6026-2.67620E-01-5.13422E-02 1.87777E+02-3.55173E-11 3.91820E+02 2.86761E-11
 -1      6027-2.66924E-01-1.39409E-02 2.68025E+02-5.18822E-11 3.77720E+02 3.77877E-11
 -1      6028-2.37612E-01-1.88846E-03 2.68042E+02 1.28145E-01 3.79034E+02 1.18755E+00
 -1      6029-3.32038E-01-2.55177E-03 2.94970E+02-2.92156E-11 3.75366E+02 3.80480E-11
 -1      6030-1.56294E-01-2.60545E-02 1.60855E+02-2.38945E-11 3.91469E+02 4.57677E-11
 -1      6031-1.48019E-01-5.58735E-03 2.14357E+02-5.07180E-11 3.77556E+02 4.70495E-11
 -1      6032-1.32192E-01 7.30081E-04 2.14373E+02 6.17610E-02 3.78884E+02 1.14762E+00
 -1      6033-1.90772E-01 1.39611E-03 2.41224E+02-3.66001E-11 3.75121E+02 3.78190E-11
 -1      6034-8.53533E-02-1.21927E-02 1.34011E+02-4.80121E-11 3.91299E+02 5.34223E-11
 -1      6035-7.53435E-02-1.72678E-03 1.60756E+02-3.28749E-11 3.77480E+02 5.40993E-11
 -1      6036-6.74625E-02 1.34676E-03 1.60770E+02 2.79516E-02 3.78814E+02 1.12681E+00
 -1      6037-1.02030E-01 2.20249E-03 1.87580E+02-6.25719E-11 3.75003E+02 5.26601E-11
 -1      6038-4.26873E-02-4.94276E-03 1.07205E+02-4.49389E-11 3.91220E+02 5.04148E-11
 -1      6039-3.11011E-02-3.27948E-04 1.07189E+02-3.62020E-11 3.77447E+02 7.39507E-11
 -1      6040-2.79141E-02 8.97812E-04 1.07198E+02 1.06405E-02 3.78784E+02 1.11712E+00
 -1      6041-4.82478E-02 1.82738E-03 1.33988E+02-7.25883E-11 3.74950E+02 4.86947E-11
 -1      6042-1.74100E-02-1.67189E-03 8.04181E+01-6.95705E-11 3.91187E+02 5.70386E-11
 -1      6043-1.08225E-03-8.98602E-04 5.36339E+01-4.15210E-11 3.77438E+02 5.23960E-11
 -1      6044-1.02761E-03-8.75856E-04 5.36389E+01 1.68617E-04 3.78776E+02 1.11429E+00
 -1      6045-1.43083E-02 4.74191E-04 8.04197E+01-6.78598E-11 3.74930E+02 8.28684E-11
 -1      6046-1.20048E-03-1.16906E-03 5.36381E+01-4.86245E-11 3.91178E+02 5.69227E-11
 -1      6047 2.60380E-02-3.97830E-03 7.90958E-02-1.20253E-10 3.77448E+02 8.37602E-12
 -1      6048 2.32123E-02-5.07888E-03 7.96435E-02-1.02767E-02 3.78785E+02 1.11679E+00
 -1      6049 1.17460E-02-2.56118E-03 2.68585E+01-6.51295E-11 3.74930E+02 1.33173E-11
 -1      6050 1.21410E-02-3.36216E-03 2.68584E+01-1.10797E-10 3.91187E+02 4.70125E-11
 -1      6051 6.03491E-02-1.11826E-02-5.34871E+01-2.06924E-11 3.77482E+02 4.32752E-11
 -1      6052 5.36992E-02-1.38567E-02-5.34906E+01-2.75231E-02 3.78816E+02 1.12537E+00
 -1      6053 3.99001E-02-8.87626E-03-2.67083E+01-6.14251E-11 3.74951E+02 4.98370E-12
 -1      6054 2.76130E-02-9.30155E-03 7.35927E-02 4.51202E-11 3.91222E+02 2.05368E-11
 -1      6055 1.12230E-01-2.53574E-02-1.07080E+02-3.26081E-11 3.77564E+02 6.26150E-11
 -1      6056 9.94776E-02-3.06971E-02-1.07087E+02-6.12868E-02 3.78892E+02 1.14321E+00
 -1      6057 7.97119E-02-2.12517E-02-8.02949E+01-2.45593E-11 3.75008E+02 6.99136E-11
 -1      6058 4.98210E-02-2.12453E-02-2.67226E+01-5.85994E-11 3.91303E+02 3.81547E-11
 -1      6059 1.92826E-01-5.02777E-02-1.60727E+02 2.39476E-11 3.77741E+02 5.25914E-11
 -1      6060 1.70033E-01-6.02783E-02-1.60733E+02-1.27782E-01 3.79055E+02 1.17653E+00
 -1      6061 1.41286E-01-4.38301E-02-1.33923E+02-3.61056E-11 3.75135E+02 4.81813E-11
 -1      6062 8.32312E-02-4.25452E-02-5.35406E+01 6.42584E-11 3.91480E+02 3.09641E-11
 -1      6063 3.11688E-01-8.87250E-02-2.14473E+02 4.18764E-11 3.78104E+02-4.09231E-11
 -1      6064 2.72994E-01-1.06648E-01-2.14475E+02-2.54778E-01 3.79392E+02 1.23559E+00
 -1      6065 2.34423E-01-8.14016E-02-1.87629E+02 1.97747E-12 3.75399E+02-2.04541E-11
 -1      6066 1.31088E-01-7.66249E-02-8.03989E+01 1.26661E-10 3.91844E+02-3.30289E-11
 -1      6067 4.67800E-01-1.36118E-01-2.68403E+02 6.14724E-11 3.78818E+02-6.29113E-12
 -1      6068 4.05680E-01-1.66932E-01-2.68392E+02-4.88684E-01 3.80057E+02 1.33562E+00
 -1      6069 3.63269E-01-1.35989E-01-2.41481E+02 5.64025E-11 3.75928E+02-1.55841E-11
 -1      6070 1.91178E-01-1.23604E-01-1.07332E+02 1.35589E-10 3.92569E+02-2.82420E-11
 -1      6071 6.23918E-01-1.67019E-01-3.22670E+02-1.50263E-11 3.80183E+02-6.11704E-11
 -1      6072 5.31945E-01-2.17159E-01-3.22629E+02-9.03567E-01 3.81331E+02 1.49650E+00
 -1      6073 5.10533E-01-1.97363E-01-2.95599E+02 2.46970E-11 3.76952E+02-3.86823E-11
 -1      6074 2.44374E-01-1.72040E-01-1.34407E+02 1.32612E-10 3.93968E+02-5.62782E-11
 -1      6075 6.48287E-01-1.06013E-01-3.77544E+02 3.36167E-10 3.82708E+02-3.61545E-11
 -1      6076 5.27928E-01-1.82781E-01-3.77443E+02-1.61032E+00 3.83699E+02 1.73790E+00
 -1      6077 5.97908E-01-2.22459E-01-3.50194E+02 1.17681E-10 3.78873E+02-1.33476E-11
 -1      6078 2.25912E-01-1.85124E-01-1.61751E+02 2.23062E-10 3.96591E+02-7.16989E-11
 -1      6079 1.57593E-01 1.68290E-01-4.33515E+02-3.98088E-11 3.87237E+02-6.25700E-11
 -1      6080 4.42712E-02 6.58413E-02-4.33299E+02-2.75899E+00 3.87966E+02 2.06260E+00
 -1      6081 3.96620E-01-1.08017E-01-4.05625E+02 1.93275E-10 3.82360E+02-8.66630E-11
 -1      6082-3.70544E-02-8.30747E-02-1.89595E+02 8.90908E-11 4.01350E+02-1.06390E-10
 -1      6083-1.74877E+00 8.26826E-01-4.91314E+02-1.28965E-10 3.95027E+02-1.50357E-10
 -1      6084-1.74913E+00 7.15092E-01-4.90909E+02-4.51775E+00 3.95343E+02 2.41021E+00
 -1      6085-6.76869E-01 3.20752E-01-4.62482E+02-1.02214E-10 3.88469E+02-7.89149E-11
 -1      6086-9.84897E-01 2.02677E-01-2.18351E+02-1.68878E-10 4.09611E+02-1.25655E-10
 -1      6087-7.40005E+00 1.13251E+00-5.52131E+02-4.54636E-11 4.07735E+02-1.47800E-10
 -1      6088-6.97811E+00 1.10393E+00-5.51406E+02-6.98557E+00 4.07446E+02 2.54996E+00
 -1      6089-3.96451E+00 1.04335E+00-5.21387E+02-9.39131E-11 3.98635E+02-1.86239E-10
 -1      6090-3.57071E+00 5.64294E-01-2.48444E+02-6.09165E-11 4.22968E+02-1.58865E-10
 -1      6091-2.11580E+01-1.13193E+00-6.15821E+02 3.44007E-11 4.25990E+02-1.84062E-10
 -1      6092-1.96639E+01-8.57688E-01-6.14644E+02-9.96275E+00 4.24944E+02 1.88306E+00
 -1      6093-1.24421E+01 1.11939E+00-5.82678E+02 3.69666E-12 4.14138E+02-1.08731E-10
 -1      6094-9.95372E+00-4.69600E-01-2.79856E+02 3.49791E-11 4.41559E+02-1.88552E-10
 -1      6095-5.20412E+01-1.80060E+01-6.77557E+02-7.95903E-11 4.47395E+02-1.92921E-10
 -1      6096-4.88168E+01-1.72478E+01-6.76279E+02-1.25425E+01 4.45583E+02-8.02400E-01
 -1      6097-3.19907E+01-5.29879E+00-6.43266E+02-2.54796E-11 4.34049E+02-2.16571E-10
 -1      6098-2.36639E+01-7.28550E+00-3.09481E+02-5.80674E-11 4.59290E+02-1.89112E-10
 -1      6099-1.10605E+02-7.27295E+01-7.18048E+02 4.82108E-11 4.48531E+02-1.66919E-10
 -1      6100-1.05411E+02-7.12999E+01-7.16956E+02-1.28003E+01 4.46206E+02-6.38329E+00
 -1      6101-7.22733E+01-3.45393E+01-6.90682E+02 1.92372E-11 4.46269E+02-1.71101E-10
 -1      6102-4.83674E+01-2.84024E+01-3.26545E+02 7.90776E-11 4.50417E+02-1.62816E-10
 -1      6103-1.92349E+02-1.73670E+02-6.94666E+02-3.40975E-11 3.72391E+02-1.77998E-10
 -1      6104-1.88204E+02-1.72445E+02-6.94103E+02-8.53934E+00 3.70186E+02-1.35165E+01
 -1      6105-1.39822E+02-1.04831E+02-6.99501E+02 1.00596E-11 4.14081E+02-1.90319E-10
 -1      6106-8.54307E+01-7.43885E+01-3.15272E+02 9.50062E-12 3.60147E+02-1.84673E-10
 -1      6107-2.83104E+02-2.83104E+02-6.17920E+02-3.85941E-11 1.42125E+02-2.14071E-10
 -1      6108-2.82281E+02-2.82281E+02-6.16139E+02-2.10240E-04 1.40363E+02-1.71239E+01
 -1      6109-2.35959E+02-2.29470E+02-6.55757E+02 6.80318E-11 2.64842E+02-1.99717E-10
 -1      6110-1.29010E+02-1.29010E+02-2.81592E+02-8.30168E-11 1.28038E+02-1.99127E-10
 -1      6111 3.24382E+02 3.24383E+02 7.08017E+02 3.91839E-04 1.39739E+02 4.04041E+01
 -1      6112 2.14036E+02 2.00609E+02 8.00702E+02-1.80828E+01 3.68258E+02 3.24615E+01
 -1      6113 3.24799E+02 3.24799E+02 7.08943E+02-2.08370E-04 1.45878E+02 1.98114E+01
 -1      6114 2.15524E+02 1.99435E+02 7.98070E+02-8.45723E+00 3.74900E+02 1.57996E+01
 -1      6115 1.70923E+02 1.70923E+02 3.73075E+02-4.19696E-04 1.22916E+02 2.16351E+01
 -1      6116 2.66825E+02 2.63156E+02 7.54107E+02-9.63782E+00 2.61715E+02 3.69490E+01
 -1      6117 1.09903E+02 1.01689E+02 4.19951E+02-1.86390E+01 3.53831E+02 1.74598E+01
 -1      6118 1.17295E+02 8.71756E+01 8.30075E+02-2.64317E+01 4.41822E+02 1.52719E+01
 -1      6119 1.20148E+02 8.55392E+01 8.28113E+02-1.26736E+01 4.48640E+02 7.58870E+00
 -1      6120 1.49807E+02 1.22884E+02 8.06475E+02-2.34148E+01 4.08896E+02 2.36136E+01
 -1      6121 5.90202E+01 4.31859E+01 4.37846E+02-2.76341E+01 4.42561E+02 8.23879E+00
 -1      6122 5.16121E+01 2.38916E+01 7.88145E+02-2.53856E+01 4.40675E+02 1.76951E+00
 -1      6123 5.52845E+01 2.32850E+01 7.89513E+02-1.24105E+01 4.46046E+02 1.06350E+00
 -1      6124 7.37178E+01 4.33008E+01 8.00490E+02-2.67120E+01 4.39480E+02 7.84533E+00
 -1      6125 2.66934E+01 1.37043E+01 4.21455E+02-2.67494E+01 4.52242E+02 9.40055E-01
 -1      6126 1.93734E+01 2.91233E+00 7.24513E+02-1.99303E+01 4.21258E+02-4.60466E+00
 -1      6127 2.17199E+01 2.71256E+00 7.27252E+02-9.85423E+00 4.24413E+02-2.11267E+00
 -1      6128 3.05430E+01 8.64282E+00 7.52482E+02-2.29143E+01 4.28198E+02-1.65958E+00
 -1      6129 1.01263E+01 2.52670E+00 3.90739E+02-2.10614E+01 4.36939E+02-2.50348E+00
 -1      6130 6.00355E+00-9.50675E-01 6.60002E+02-1.38502E+01 4.05770E+02-5.95031E+00
 -1      6131 7.10296E+00-1.02039E+00 6.62571E+02-6.91023E+00 4.06701E+02-2.90407E+00
 -1      6132 1.08035E+01-3.11901E-01 6.90917E+02-1.68138E+01 4.10779E+02-5.25114E+00
 -1      6133 2.97182E+00-3.58841E-01 3.58204E+02-1.46322E+01 4.21265E+02-3.20067E+00
 -1      6134 7.07456E-01-1.24241E+00 5.98761E+02-8.90539E+00 3.95528E+02-5.49181E+00
 -1      6135 1.21697E+00-1.22797E+00 6.00701E+02-4.47171E+00 3.94697E+02-2.72439E+00
 -1      6136 2.73781E+00-1.24759E+00 6.29021E+02-1.12110E+01 3.97937E+02-5.64116E+00
 -1      6137 2.25077E-01-6.66599E-01 3.27161E+02-9.39473E+00 4.10399E+02-2.91132E+00
 -1      6138-8.55953E-01-6.75187E-01 5.40779E+02-5.42136E+00 3.89540E+02-4.57451E+00
 -1      6139-6.62755E-01-6.47449E-01 5.42071E+02-2.73374E+00 3.87505E+02-2.29055E+00
 -1      6140-1.81299E-01-8.10479E-01 5.69849E+02-7.00532E+00 3.89907E+02-4.95061E+00
 -1      6141-6.03116E-01-4.86376E-01 2.97743E+02-5.70996E+00 4.03911E+02-2.37917E+00
 -1      6142-1.09359E+00-3.14394E-01 4.84736E+02-3.15759E+00 3.86205E+02-3.74827E+00
 -1      6143-1.03066E+00-2.86365E-01 4.85543E+02-1.59790E+00 3.83405E+02-1.88501E+00
 -1      6144-9.55955E-01-3.61341E-01 5.12868E+02-4.16982E+00 3.85290E+02-4.10133E+00
 -1      6145-6.88900E-01-2.87195E-01 2.69478E+02-3.32105E+00 4.00308E+02-1.90612E+00
 -1      6146-8.90866E-01-1.27739E-01 4.29845E+02-1.76997E+00 3.84418E+02-3.14276E+00
 -1      6147-8.81156E-01-1.07177E-01 4.30327E+02-8.98263E-01 3.81159E+02-1.58354E+00
 -1      6148-9.42629E-01-1.31182E-01 4.57394E+02-2.38259E+00 3.82760E+02-3.40584E+00
 -1      6149-5.46155E-01-1.59530E-01 2.41891E+02-1.85960E+00 3.98390E+02-1.56171E+00
 -1      6150-6.17798E-01-4.95440E-02 3.75588E+02-9.56929E-01 3.83486E+02-2.74408E+00
 -1      6151-6.24883E-01-3.59750E-02 3.75868E+02-4.86931E-01 3.79963E+02-1.38327E+00
 -1      6152-7.10167E-01-3.66608E-02 4.02794E+02-1.31206E+00 3.81417E+02-2.91930E+00
 -1      6153-3.72468E-01-8.58993E-02 2.14689E+02-1.00459E+00 3.97400E+02-1.33607E+00
 -1      6154-3.89657E-01-1.84750E-02 3.21677E+02-4.99055E-01 3.83013E+02-2.49942E+00
 -1      6155-3.99727E-01-1.03076E-02 3.21836E+02-2.54586E-01 3.79345E+02-1.25965E+00
 -1      6156-4.71157E-01-5.02243E-03 3.48690E+02-6.97111E-01 3.80725E+02-2.60786E+00
 -1      6157-2.31835E-01-4.50045E-02 1.87696E+02-5.23596E-01 3.96903E+02-1.19831E+00
 -1      6158-2.29286E-01-6.49620E-03 2.67952E+02-2.50547E-01 3.82780E+02-2.35739E+00
 -1      6159-2.37612E-01-1.88846E-03 2.68042E+02-1.28145E-01 3.79034E+02-1.18755E+00
 -1      6160-2.87838E-01 3.24799E-03 2.94856E+02-3.57033E-01 3.80378E+02-2.42083E+00
 -1      6161-1.34568E-01-2.24687E-02 1.60816E+02-2.62737E-01 3.96660E+02-1.11883E+00
 -1      6162-1.26514E-01-1.69599E-03 2.14322E+02-1.20424E-01 3.82669E+02-2.27906E+00
 -1      6163-1.32192E-01 7.30081E-04 2.14373E+02-6.17610E-02 3.78884E+02-1.14762E+00
 -1      6164-1.64495E-01 4.29623E-03 2.41167E+02-1.75678E-01 3.80209E+02-2.31431E+00
 -1      6165-7.30967E-02-1.02503E-02 1.33992E+02-1.26211E-01 3.96545E+02-1.07537E+00
 -1      6166-6.41013E-02 1.93475E-04 1.60742E+02-5.43487E-02 3.82618E+02-2.23837E+00
 -1      6167-6.74625E-02 1.34676E-03 1.60770E+02-2.79516E-02 3.78814E+02-1.12681E+00
 -1      6168-8.75691E-02 3.59204E-03 1.87554E+02-8.22434E-02 3.80130E+02-2.25683E+00
 -1      6169-3.63612E-02-3.94287E-03 1.07198E+02-5.68963E-02 3.96493E+02-1.05305E+00
 -1      6170-2.63114E-02 4.95082E-04 1.07184E+02-2.06436E-02 3.82597E+02-2.21951E+00
 -1      6171-2.79141E-02 8.97812E-04 1.07198E+02-1.06405E-02 3.78784E+02-1.11712E+00
 -1      6172-4.12162E-02 2.45574E-03 1.33977E+02-3.50707E-02 3.80095E+02-2.22808E+00
 -1      6173-1.47123E-02-1.20443E-03 8.04159E+01-2.15197E-02 3.96472E+02-1.04286E+00
 -1      6174-7.70292E-04-7.70293E-04 5.36347E+01-3.37968E-04 3.82592E+02-2.21404E+00
 -1      6175-1.02761E-03-8.75857E-04 5.36389E+01-1.68617E-04 3.78776E+02-1.11429E+00
 -1      6176-1.20989E-02 7.10950E-04 8.04174E+01-9.78010E-03 3.80082E+02-2.21635E+00
 -1      6177-8.75856E-04-1.02761E-03 5.36389E+01-1.68617E-04 3.96466E+02-1.03993E+00
 -1      6178 2.23077E-02-4.49883E-03 8.54487E-02 1.99135E-02 3.82598E+02-2.21895E+00
 -1      6179 2.32123E-02-5.07888E-03 7.96435E-02 1.02767E-02 3.78785E+02-1.11679E+00
 -1      6180 1.02190E-02-2.59085E-03 2.68623E+01 9.08904E-03 3.80082E+02-2.21610E+00
 -1      6181 1.05312E-02-3.49740E-03 2.68621E+01 2.11558E-02 3.96472E+02-1.04235E+00
 -1      6182 5.16333E-02-1.26615E-02-5.34717E+01 5.34859E-02 3.82621E+02-2.23577E+00
 -1      6183 5.36992E-02-1.38567E-02-5.34906E+01 2.75231E-02 3.78816E+02-1.12537E+00
 -1      6184 3.44195E-02-9.25244E-03-2.66969E+01 3.42797E-02 3.80097E+02-2.22660E+00
 -1      6185 2.38512E-02-9.82048E-03 8.18050E-02 5.64678E-02 3.96495E+02-1.05052E+00
 -1      6186 9.62395E-02-2.85785E-02-1.07047E+02 1.19463E-01 3.82677E+02-2.27078E+00
 -1      6187 9.94776E-02-3.06971E-02-1.07087E+02 6.12868E-02 3.78892E+02-1.14321E+00
 -1      6188 6.88502E-02-2.23109E-02-8.02696E+01 8.13187E-02 3.80135E+02-2.25164E+00
 -1      6189 4.31296E-02-2.24641E-02-2.67058E+01 1.25737E-01 3.96549E+02-1.06717E+00
 -1      6190 1.66024E-01-5.67661E-02-1.60660E+02 2.49795E-01 3.82801E+02-2.33636E+00
 -1      6191 1.70033E-01-6.02783E-02-1.60733E+02 1.27782E-01 3.79055E+02-1.17653E+00
 -1      6192 1.22465E-01-4.63260E-02-1.33871E+02 1.74767E-01 3.80223E+02-2.30023E+00
 -1      6193 7.24013E-02-4.51105E-02-5.35074E+01 2.62373E-01 3.96671E+02-1.09781E+00
 -1      6194 2.69991E-01-1.01191E-01-2.14342E+02 4.99396E-01 3.83060E+02-2.45299E+00
 -1      6195 2.72994E-01-1.06648E-01-2.14475E+02 2.54778E-01 3.79392E+02-1.23559E+00
 -1      6196 2.04264E-01-8.68227E-02-1.87527E+02 3.56687E-01 3.80410E+02-2.38825E+00
 -1      6197 1.14879E-01-8.17283E-02-8.03350E+01 5.23788E-01 3.96927E+02-1.15165E+00
 -1      6198 4.09113E-01-1.59140E-01-2.68156E+02 9.60364E-01 3.83579E+02-2.65139E+00
 -1      6199 4.05680E-01-1.66932E-01-2.68392E+02 4.88684E-01 3.80057E+02-1.33562E+00
 -1      6200 3.19015E-01-1.47119E-01-2.41288E+02 6.98699E-01 3.80792E+02-2.54047E+00
 -1      6201 1.69561E-01-1.33303E-01-1.07213E+02 1.00634E+00 3.97447E+02-1.24256E+00
 -1      6202 5.55363E-01-2.07763E-01-3.22222E+02 1.78048E+00 3.84589E+02-2.97230E+00
 -1      6203 5.31945E-01-2.17159E-01-3.22629E+02 9.03567E-01 3.81331E+02-1.49650E+00
 -1      6204 4.54313E-01-2.19193E-01-2.95245E+02 1.31846E+00 3.81545E+02-2.79151E+00
 -1      6205 2.21818E-01-1.89681E-01-1.34192E+02 1.86490E+00 3.98477E+02-1.38921E+00
 -1      6206 6.04338E-01-1.74858E-01-3.76761E+02 3.18230E+00 3.86495E+02-3.45813E+00
 -1      6207 5.27928E-01-1.82781E-01-3.77443E+02 1.61032E+00 3.83699E+02-1.73790E+00
 -1      6208 5.47897E-01-2.63550E-01-3.49572E+02 2.39920E+00 3.82984E+02-3.18164E+00
 -1      6209 2.19753E-01-2.15540E-01-1.61378E+02 3.33347E+00 4.00455E+02-1.61169E+00
 -1      6210 2.41087E-01 6.03208E-02-4.32206E+02 5.47180E+00 3.89993E+02-4.12120E+00
 -1      6211 4.42712E-02 6.58413E-02-4.33299E+02 2.75899E+00 3.87966E+02-2.06260E+00
 -1      6212 4.12734E-01-1.81880E-01-4.04579E+02 4.20587E+00 3.85653E+02-3.73839E+00
 -1      6213 2.15084E-02-1.32107E-01-1.88972E+02 5.73521E+00 4.04139E+02-1.91790E+00
 -1      6214-1.27219E+00 6.77676E-01-4.89256E+02 8.99769E+00 3.96160E+02-4.85913E+00
 -1      6215-1.74913E+00 7.15092E-01-4.90909E+02 4.51775E+00 3.95343E+02-2.41021E+00
 -1      6216-4.33122E-01 1.96059E-01-4.60819E+02 7.07471E+00 3.90439E+02-4.41850E+00
 -1      6217-7.37954E-01 1.34441E-01-2.17369E+02 9.44077E+00 4.10713E+02-2.26567E+00
 -1      6218-5.98738E+00 9.66841E-01-5.49192E+02 1.40019E+01 4.06497E+02-5.22301E+00
 -1      6219-6.97811E+00 1.10393E+00-5.51406E+02 6.98557E+00 4.07446E+02-2.54996E+00
 -1      6220-3.12770E+00 8.57705E-01-5.18946E+02 1.13312E+01 3.98609E+02-4.96896E+00
 -1      6221-2.88828E+00 4.83689E-01-2.47039E+02 1.47075E+01 4.21619E+02-2.45554E+00
 -1      6222-1.75956E+01-1.13448E+00-6.12235E+02 2.01500E+01 4.21770E+02-4.09221E+00
 -1      6223-1.96639E+01-8.57688E-01-6.14644E+02 9.96275E+00 4.24944E+02-1.88306E+00
 -1      6224-1.02111E+01 9.04371E-01-5.79589E+02 1.69996E+01 4.11404E+02-4.62705E+00
 -1      6225-8.27140E+00-4.70671E-01-2.78131E+02 2.11699E+01 4.37169E+02-1.97273E+00
 -1      6226-4.55978E+01-1.78773E+01-6.74977E+02 2.56544E+01 4.40203E+02 1.29798E+00
 -1      6227-4.88168E+01-1.72478E+01-6.76279E+02 1.25425E+01 4.45583E+02 8.02400E-01
 -1      6228-2.72985E+01-5.39830E+00-6.40207E+02 2.31629E+01 4.28262E+02-1.59488E+00
 -1      6229-2.06562E+01-7.23661E+00-3.08221E+02 2.68814E+01 4.51981E+02 4.76992E-01
 -1      6230-1.02876E+02-7.27568E+01-7.18459E+02 2.66909E+01 4.39399E+02 1.28486E+01
 -1      6231-1.05411E+02-7.12999E+01-7.16956E+02 1.28003E+01 4.46206E+02 6.38329E+00
 -1      6232-6.46618E+01-3.42448E+01-6.88876E+02 2.69848E+01 4.38129E+02 6.49456E+00
 -1      6233-4.47810E+01-2.84488E+01-3.26689E+02 2.77607E+01 4.41356E+02 5.80434E+00
 -1      6234-1.86815E+02-1.73388E+02-6.96169E+02 1.82495E+01 3.63574E+02 2.77771E+01
 -1      6235-1.88204E+02-1.72445E+02-6.94103E+02 8.53934E+00 3.70186E+02 1.35165E+01
 -1      6236-1.30520E+02-1.03597E+02-6.99197E+02 2.36367E+01 4.05365E+02 2.00831E+01
 -1      6237-8.29133E+01-7.43687E+01-3.15984E+02 1.87212E+01 3.51548E+02 1.27459E+01
 -1      6238-2.81830E+02-2.81830E+02-6.15140E+02-3.95300E-04 1.34260E+02 3.49252E+01
 -1      6239-2.82281E+02-2.82281E+02-6.16139E+02 2.10240E-04 1.40363E+02 1.71239E+01
 -1      6240-2.32340E+02-2.28671E+02-6.55643E+02 9.73099E+00 2.56567E+02 3.18006E+01
 -1      6241-1.28405E+02-1.28405E+02-2.80271E+02 4.21565E-04 1.20229E+02 1.61208E+01
 -1      6242 3.29169E+02 3.29169E+02 7.18464E+02 7.51298E-04 1.09629E+02 8.79996E+01
 -1      6243 1.87011E+02 1.96597E+02 8.03761E+02-3.48799E+01 3.39306E+02 6.98563E+01
 -1      6244 3.25890E+02 3.25890E+02 7.11324E+02-5.96975E-04 1.27801E+02 6.28546E+01
 -1      6245 2.00321E+02 1.97783E+02 8.00599E+02-2.50377E+01 3.56977E+02 4.97720E+01
 -1      6246 1.73588E+02 1.73588E+02 3.78893E+02-8.11372E-04 9.32578E+01 4.71075E+01
 -1      6247 2.55511E+02 2.61785E+02 7.57164E+02-1.97151E+01 2.32579E+02 8.16940E+01
 -1      6248 9.54589E+01 9.92801E+01 4.21762E+02-3.60712E+01 3.25425E+02 3.75683E+01
 -1      6249 8.13561E+01 8.10816E+01 8.24349E+02-4.99881E+01 4.13078E+02 2.16195E+01
 -1      6250 1.01134E+02 8.41851E+01 8.27432E+02-3.66362E+01 4.30274E+02 1.95336E+01
 -1      6251 1.18514E+02 1.19467E+02 8.08782E+02-4.58667E+01 3.79001E+02 4.44859E+01
 -1      6252 3.98940E+01 3.98682E+01 4.35079E+02-5.23078E+01 4.14051E+02 1.17251E+01
 -1      6253 3.15372E+01 2.17084E+01 7.76044E+02-4.56587E+01 4.18735E+02-1.79592E+00
 -1      6254 4.19470E+01 2.27098E+01 7.83241E+02-3.47008E+01 4.31564E+02 5.86125E-01
 -1      6255 4.62826E+01 4.00007E+01 7.92362E+02-4.92586E+01 4.13664E+02 9.25636E+00
 -1      6256 1.59836E+01 1.22806E+01 4.15038E+02-4.81441E+01 4.29942E+02-9.75475E-01
 -1      6257 9.77853E+00 1.82216E+00 7.10422E+02-3.36120E+01 4.10162E+02-1.01800E+01
 -1      6258 1.54831E+01 2.79664E+00 7.19200E+02-2.66076E+01 4.16366E+02-6.89897E+00
 -1      6259 1.65490E+01 7.31808E+00 7.39060E+02-3.98193E+01 4.11576E+02-6.26157E+00
 -1      6260 5.05527E+00 1.72853E+00 3.83122E+02-3.55851E+01 4.25319E+02-5.52753E+00
 -1      6261 2.52959E+00-1.08860E+00 6.49535E+02-2.25278E+01 4.04122E+02-1.06909E+01
 -1      6262 4.68675E+00-7.87621E-01 6.55870E+02-1.81915E+01 4.04779E+02-8.17078E+00
 -1      6263 5.10227E+00-4.93887E-01 6.79290E+02-2.78259E+01 4.04459E+02-1.02005E+01
 -1      6264 1.17626E+00-5.80183E-01 3.52476E+02-2.38403E+01 4.19281E+02-5.75870E+00
 -1      6265-1.34926E-01-1.13243E+00 5.91796E+02-1.41103E+01 4.00776E+02-9.06549E+00
 -1      6266 5.72353E-01-1.00638E+00 5.96028E+02-1.15829E+01 3.97445E+02-7.25270E+00
 -1      6267 8.76045E-01-1.18484E+00 6.20498E+02-1.79956E+01 3.99834E+02-9.66178E+00
 -1      6268-1.65854E-01-6.95281E-01 3.23329E+02-1.49103E+01 4.15542E+02-4.81202E+00
 -1      6269-7.54716E-01-5.31771E-01 5.36509E+02-8.43052E+00 3.99317E+02-7.21259E+00
 -1      6270-6.49902E-01-4.96988E-01 5.39092E+02-6.99609E+00 3.93407E+02-5.92256E+00
 -1      6271-4.74613E-01-7.09445E-01 5.64282E+02-1.09984E+01 3.97505E+02-7.96574E+00
 -1      6272-5.00993E-01-4.57503E-01 2.95390E+02-8.89320E+00 4.13763E+02-3.75346E+00
 -1      6273-7.51074E-01-2.01896E-01 4.82252E+02-4.83704E+00 3.98769E+02-5.74361E+00
 -1      6274-8.35229E-01-1.94183E-01 4.83763E+02-4.05105E+00 3.91286E+02-4.78812E+00
 -1      6275-7.43215E-01-2.84925E-01 5.09479E+02-6.43817E+00 3.96523E+02-6.36515E+00
 -1      6276-4.71008E-01-2.51244E-01 2.68111E+02-5.09520E+00 4.13063E+02-2.91886E+00
 -1      6277-5.65011E-01-5.21893E-02 4.28466E+02-2.67632E+00 3.98616E+02-4.72849E+00
 -1      6278-6.82276E-01-5.40211E-02 4.29315E+02-2.25892E+00 3.90217E+02-3.97800E+00
 -1      6279-6.38873E-01-8.21896E-02 4.55437E+02-3.62791E+00 3.96182E+02-5.16594E+00
 -1      6280-3.49154E-01-1.30784E-01 2.41134E+02-2.81606E+00 4.12848E+02-2.34474E+00
 -1      6281-3.76159E-01-2.89062E-03 3.74855E+02-1.42934E+00 3.98602E+02-4.08315E+00
 -1      6282-4.73715E-01-6.57048E-03 3.75318E+02-1.21534E+00 3.89693E+02-3.45206E+00
 -1      6283-4.55501E-01-7.76289E-03 4.01715E+02-1.97295E+00 3.96100E+02-4.36513E+00
 -1      6284-2.29448E-01-6.61479E-02 2.14289E+02-1.50271E+00 4.12817E+02-1.98127E+00
 -1      6285-2.31088E-01 8.69843E-03 3.21305E+02-7.36296E-01 3.98627E+02-3.69671E+00
 -1      6286-2.99133E-01 5.39186E-03 3.21551E+02-6.30678E-01 3.89442E+02-3.13248E+00
 -1      6287-2.92762E-01 1.10697E-02 3.48120E+02-1.03554E+00 3.96105E+02-3.86737E+00
 -1      6288-1.39301E-01-3.25815E-02 1.87495E+02-7.73586E-01 4.12839E+02-1.76471E+00
 -1      6289-1.33349E-01 8.56288E-03 2.67771E+02-3.64831E-01 3.98654E+02-3.47674E+00
 -1      6290-1.76176E-01 6.19560E-03 2.67900E+02-3.14948E-01 3.89326E+02-2.94837E+00
 -1      6291-1.74982E-01 1.17712E-02 2.94569E+02-5.23702E-01 3.96131E+02-3.57487E+00
 -1      6292-7.92811E-02-1.51301E-02 1.60719E+02-3.83079E-01 4.12868E+02-1.64224E+00
 -1      6293-7.23866E-02 6.25889E-03 2.14240E+02-1.72836E-01 3.98673E+02-3.35747E+00
 -1      6294-9.72762E-02 4.73603E-03 2.14307E+02-1.50488E-01 3.89274E+02-2.84750E+00
 -1      6295-9.82805E-02 8.59299E-03 2.41030E+02-2.54174E-01 3.96154E+02-3.41123E+00
 -1      6296-4.23210E-02-6.13863E-03 1.33950E+02-1.81349E-01 4.12889E+02-1.57643E+00
 -1      6297-3.61199E-02 4.16608E-03 1.60708E+02-7.68138E-02 3.98685E+02-3.29651E+00
 -1      6298-4.93008E-02 3.24712E-03 1.60742E+02-6.74925E-02 3.89252E+02-2.79542E+00
 -1      6299-5.15293E-02 5.66893E-03 1.87492E+02-1.17215E-01 3.96169E+02-3.32430E+00
 -1      6300-2.06813E-02-1.74737E-03 1.07181E+02-8.04822E-02 4.12902E+02-1.54324E+00
 -1      6301-1.45451E-02 2.27194E-03 1.07173E+02-2.88135E-02 3.98691E+02-3.26870E+00
 -1      6302-2.02251E-02 1.73047E-03 1.07189E+02-2.55050E-02 3.89243E+02-2.77142E+00
 -1      6303-2.38782E-02 3.45222E-03 1.33953E+02-4.92539E-02 3.96178E+02-3.28148E+00
 -1      6304-8.15049E-03-9.49857E-05 8.04116E+01-3.00351E-02 4.12909E+02-1.52839E+00
 -1      6305-1.56733E-04-3.26075E-04 5.36372E+01-5.55018E-04 3.98693E+02-3.26090E+00
 -1      6306-5.75813E-04-6.47943E-04 5.36405E+01-4.46236E-04 3.89241E+02-2.76454E+00
 -1      6307-6.76746E-03 1.22827E-03 8.04127E+01-1.36449E-02 3.96181E+02-3.26432E+00
 -1      6308-2.34288E-04-5.42976E-04 5.36414E+01-2.75427E-04 4.12911E+02-1.52436E+00
 -1      6309 1.28322E-02-5.23116E-03 1.00712E-01 2.76033E-02 3.98692E+02-3.26849E+00
 -1      6310 1.71320E-02-5.40932E-03 9.19380E-02 2.45361E-02 3.89244E+02-2.77090E+00
 -1      6311 6.28438E-03-2.30416E-03 2.68715E+01 1.25068E-02 3.96182E+02-3.26423E+00
 -1      6312 6.32325E-03-3.47123E-03 2.68712E+01 2.94353E-02 4.12909E+02-1.52826E+00
 -1      6313 2.95515E-02-1.51181E-02-5.34345E+01 7.53466E-02 3.98688E+02-3.29399E+00
 -1      6314 3.95310E-02-1.51305E-02-5.34608E+01 6.63315E-02 3.89255E+02-2.79252E+00
 -1      6315 2.06084E-02-9.24728E-03-2.66692E+01 4.79281E-02 3.96179E+02-3.28021E+00
 -1      6316 1.41536E-02-1.03798E-02 1.02050E-01 7.97574E-02 4.12904E+02-1.54086E+00
 -1      6317 5.54461E-02-3.42458E-02-1.06966E+02 1.71123E-01 3.98682E+02-3.34745E+00
 -1      6318 7.34427E-02-3.39333E-02-1.07023E+02 1.49161E-01 3.89283E+02-2.83767E+00
 -1      6319 4.14058E-02-2.30266E-02-8.02074E+01 1.15611E-01 3.96174E+02-3.31831E+00
 -1      6320 2.57979E-02-2.41277E-02-2.66638E+01 1.80508E-01 4.12894E+02-1.56657E+00
 -1      6321 9.68527E-02-6.85858E-02-1.60491E+02 3.63301E-01 3.98675E+02-3.44881E+00
 -1      6322 1.26250E-01-6.75853E-02-1.60603E+02 3.13827E-01 3.89347E+02-2.92264E+00
 -1      6323 7.45122E-02-4.88623E-02-1.33740E+02 2.52477E-01 3.96168E+02-3.39298E+00
 -1      6324 4.40086E-02-4.90198E-02-5.34225E+01 3.82340E-01 4.12879E+02-1.61436E+00
 -1      6325 1.60502E-01-1.24410E-01-2.14005E+02 7.36284E-01 3.98674E+02-3.63184E+00
 -1      6326 2.04518E-01-1.22052E-01-2.14221E+02 6.30880E-01 3.89488E+02-3.07466E+00
 -1      6327 1.26412E-01-9.34753E-02-1.87265E+02 5.22725E-01 3.96163E+02-3.53006E+00
 -1      6328 7.15258E-02-9.00435E-02-8.01690E+01 7.73618E-01 4.12863E+02-1.69949E+00
 -1      6329 2.50528E-01-2.02453E-01-2.67508E+02 1.43397E+00 3.98693E+02-3.94900E+00
 -1      6330 3.08429E-01-1.97749E-01-2.67912E+02 1.21944E+00 3.89784E+02-3.33517E+00
 -1      6331 2.02352E-01-1.62291E-01-2.40781E+02 1.03739E+00 3.96172E+02-3.77105E+00
 -1      6332 1.09534E-01-1.49783E-01-1.06899E+02 1.50508E+00 4.12864E+02-1.84577E+00
 -1      6333 3.58413E-01-2.84404E-01-3.21020E+02 2.69196E+00 3.98781E+02-4.47442E+00
 -1      6334 4.15955E-01-2.76102E-01-3.21756E+02 2.27209E+00 3.90385E+02-3.76070E+00
 -1      6335 3.00027E-01-2.50814E-01-2.94300E+02 1.98218E+00 3.96224E+02-4.17690E+00
 -1      6336 1.53188E-01-2.20243E-01-1.33614E+02 2.82392E+00 4.12932E+02-2.08723E+00
 -1      6337 4.40535E-01-3.01843E-01-3.74613E+02 4.87536E+00 3.99047E+02-5.29838E+00
 -1      6338 4.45711E-01-2.90475E-01-3.75918E+02 4.08269E+00 3.91570E+02-4.41422E+00
 -1      6339 3.92545E-01-3.24803E-01-3.47875E+02 3.65329E+00 3.96397E+02-4.82639E+00
 -1      6340 1.78932E-01-2.68230E-01-1.60351E+02 5.11437E+00 4.13204E+02-2.46625E+00
 -1      6341 3.43686E-01-1.29890E-01-4.28525E+02 8.51089E+00 3.99747E+02-6.49261E+00
 -1      6342 1.56953E-01-1.19846E-01-4.30750E+02 7.06158E+00 3.93849E+02-5.33045E+00
 -1      6343 3.90551E-01-2.91948E-01-4.01652E+02 6.49497E+00 3.96868E+02-5.79835E+00
 -1      6344 1.19188E-01-2.13264E-01-1.87216E+02 8.93323E+00 4.13979E+02-3.01953E+00
 -1      6345-2.95787E-01 4.51489E-01-4.83242E+02 1.42610E+01 4.01367E+02-8.00979E+00
 -1      6346-1.03177E+00 4.21254E-01-4.86894E+02 1.17042E+01 3.98058E+02-6.41029E+00
 -1      6347 4.42455E-02 1.79882E-02-4.56011E+02 1.11104E+01 3.98005E+02-7.10060E+00
 -1      6348-2.21537E-01 3.54547E-02-2.14501E+02 1.49850E+01 4.15836E+02-3.73302E+00
 -1      6349-2.69562E+00 8.56855E-01-5.40093E+02 2.27818E+01 4.04790E+02-9.36161E+00
 -1      6350-4.70480E+00 7.33253E-01-5.45595E+02 1.83935E+01 4.05479E+02-7.16224E+00
 -1      6351-1.23987E+00 6.34638E-01-5.11549E+02 1.81944E+01 4.00457E+02-8.49397E+00
 -1      6352-1.29160E+00 4.35081E-01-2.42697E+02 2.39657E+01 4.19606E+02-4.39609E+00
 -1      6353-9.00354E+00-5.30497E-01-5.99831E+02 3.39906E+01 4.10609E+02-8.97250E+00
 -1      6354-1.40849E+01-1.17092E+00-6.07542E+02 2.69042E+01 4.16849E+02-6.10792E+00
 -1      6355-4.97718E+00 7.85842E-01-5.69398E+02 2.81413E+01 4.05020E+02-8.95109E+00
 -1      6356-4.23140E+00-1.95022E-01-2.72222E+02 3.57709E+01 4.25517E+02-4.28394E+00
 -1      6357-2.79552E+01-1.63483E+01-6.63983E+02 4.61351E+01 4.18228E+02-1.94155E+00
 -1      6358-3.71012E+01-1.69934E+01-6.70502E+02 3.50684E+01 4.31077E+02 1.93761E-01
 -1      6359-1.49077E+01-4.61809E+00-6.28240E+02 4.02536E+01 4.11588E+02-5.67307E+00
 -1      6360-1.24209E+01-6.52011E+00-3.02925E+02 4.83761E+01 4.29664E+02-1.10296E+00
 -1      6361-7.14773E+01-6.76219E+01-7.12686E+02 5.04535E+01 4.10693E+02 1.80467E+01
 -1      6362-8.87513E+01-7.02074E+01-7.15817E+02 3.69919E+01 4.27868E+02 1.63881E+01
 -1      6363-4.06536E+01-3.16861E+01-6.81192E+02 4.97461E+01 4.12313E+02 7.49830E+00
 -1      6364-3.02405E+01-2.61502E+01-3.23890E+02 5.25325E+01 4.12863E+02 8.12744E+00
 -1      6365-1.63032E+02-1.69686E+02-6.97940E+02 3.51764E+01 3.34716E+02 5.98365E+01
 -1      6366-1.74783E+02-1.70848E+02-6.95721E+02 2.52648E+01 3.52335E+02 4.26100E+01
 -1      6367-1.03110E+02-1.00634E+02-7.00340E+02 4.62646E+01 3.75545E+02 3.78352E+01
 -1      6368-7.17458E+01-7.23325E+01-3.16537E+02 3.62126E+01 3.23189E+02 2.74870E+01
 -1      6369-2.85591E+02-2.85591E+02-6.23346E+02-7.57129E-04 1.04281E+02 7.60934E+01
 -1      6370-2.82980E+02-2.82980E+02-6.17665E+02 6.02287E-04 1.22383E+02 5.43419E+01
 -1      6371-2.22070E+02-2.27054E+02-6.57383E+02 1.98732E+01 2.27541E+02 7.03638E+01
 -1      6372-1.30062E+02-1.30062E+02-2.83889E+02 8.14298E-04 9.06338E+01 3.51254E+01
 -1      6373 3.18915E+02 3.18913E+02 6.96075E+02 8.98334E-04 5.10424E+01 1.51723E+02
 -1      6374 1.45114E+02 2.02550E+02 8.57383E+02-5.81038E+01 2.64884E+02 1.05175E+02
 -1      6375 3.17419E+02 3.17420E+02 6.92838E+02-9.49854E-04 8.65297E+01 1.15655E+02
 -1      6376 1.45728E+02 1.89843E+02 8.19342E+02-3.76805E+01 3.10087E+02 7.91477E+01
 -1      6377 1.68301E+02 1.68302E+02 3.67357E+02-8.33409E-04 3.46617E+01 8.11505E+01
 -1      6378 1.80907E+02 2.44017E+02 7.73228E+02-2.27429E+01 1.67334E+02 1.30623E+02
 -1      6379 7.43452E+01 1.03848E+02 4.51623E+02-5.85370E+01 2.51888E+02 5.65130E+01
 -1      6380 1.80456E+01 5.82748E+01 7.92512E+02-6.02493E+01 3.57761E+02 1.11187E+01
 -1      6381 6.17768E+01 7.69556E+01 8.18746E+02-5.37774E+01 3.88551E+02 2.05493E+01
 -1      6382 4.91767E+01 9.62646E+01 7.86389E+02-6.25345E+01 3.17022E+02 4.57193E+01
 -1      6383 6.86928E+00 2.84307E+01 4.19023E+02-6.23368E+01 3.59187E+02 6.15830E+00
 -1      6384 7.65911E+00 1.07187E+01 7.38706E+02-4.77405E+01 3.85132E+02-1.17896E+01
 -1      6385 2.03544E+01 1.77714E+01 7.60494E+02-4.60340E+01 4.03122E+02-5.57969E+00
 -1      6386 7.80997E+00 2.67046E+01 7.62101E+02-5.51017E+01 3.67882E+02-1.46756E-01
 -1      6387 3.60813E+00 6.38945E+00 3.95405E+02-5.00368E+01 3.95952E+02-6.31228E+00
 -1      6388 1.04210E+00-2.64919E+00 6.84104E+02-3.20263E+01 3.99028E+02-1.33265E+01
 -1      6389 6.74245E+00 1.22852E+00 7.00206E+02-3.29686E+01 4.03859E+02-1.13776E+01
 -1      6390 2.82261E+00 1.20328E+00 7.09520E+02-3.97915E+01 3.89565E+02-1.20221E+01
 -1      6391 5.40446E-01-9.07678E-01 3.69003E+02-3.38164E+01 4.13610E+02-7.21604E+00
 -1      6392 8.44815E-02-3.02468E+00 6.32566E+02-2.02405E+01 4.08747E+02-1.09516E+01
 -1      6393 1.65987E+00-1.40963E+00 6.42099E+02-2.15529E+01 4.05078E+02-1.08039E+01
 -1      6394 1.93367E-01-3.40558E+00 6.58168E+02-2.57792E+01 4.01406E+02-1.15148E+01
 -1      6395-8.86811E-04-1.73854E+00 3.43305E+02-2.13784E+01 4.23568E+02-5.90150E+00
 -1      6396-3.28218E-01-1.92680E+00 5.81652E+02-1.21840E+01 4.15637E+02-8.24434E+00
 -1      6397-5.99223E-02-1.19742E+00 5.87203E+02-1.33120E+01 4.06559E+02-8.72434E+00
 -1      6398-2.73454E-01-2.56516E+00 6.07061E+02-1.58825E+01 4.09802E+02-9.25769E+00
 -1      6399-1.80558E-01-1.20539E+00 3.17820E+02-1.28542E+01 4.30313E+02-4.38505E+00
 -1      6400-2.83788E-01-8.74459E-01 5.30688E+02-7.06344E+00 4.20374E+02-6.09820E+00
 -1      6401-4.64177E-01-5.54329E-01 5.33782E+02-7.86413E+00 4.08117E+02-6.74580E+00
 -1      6402-3.66469E-01-1.38317E+00 5.56247E+02-9.37676E+00 4.15611E+02-6.94989E+00
 -1      6403-1.79833E-01-6.77258E-01 2.92233E+02-7.43911E+00 4.34915E+02-3.17993E+00
 -1      6404-2.09097E-01-3.42257E-01 4.79059E+02-3.95272E+00 4.23422E+02-4.61442E+00
 -1      6405-4.64945E-01-2.05186E-01 4.80727E+02-4.47243E+00 4.09352E+02-5.26331E+00
 -1      6406-2.99170E-01-6.16622E-01 5.04910E+02-5.34094E+00 4.19474E+02-5.22900E+00
 -1      6407-1.35537E-01-3.42766E-01 2.66384E+02-4.15681E+00 4.37927E+02-2.34724E+00
 -1      6408-1.34650E-01-1.08294E-01 4.26784E+02-2.13803E+00 4.25271E+02-3.66450E+00
 -1      6409-3.50377E-01-5.22822E-02 4.27654E+02-2.45474E+00 4.10211E+02-4.27000E+00
 -1      6410-2.10656E-01-2.45534E-01 4.52947E+02-2.93930E+00 4.21894E+02-4.06697E+00
 -1      6411-9.00761E-02-1.65907E-01 2.40230E+02-2.24563E+00 4.39784E+02-1.81539E+00
 -1      6412-8.16666E-02-2.34289E-02 3.74009E+02-1.11691E+00 4.26334E+02-3.09033E+00
 -1      6413-2.33678E-01-2.51071E-03 3.74447E+02-1.30091E+00 4.10750E+02-3.65042E+00
 -1      6414-1.35164E-01-8.77053E-02 4.00415E+02-1.56336E+00 4.23327E+02-3.33849E+00
 -1      6415-5.52298E-02-7.78210E-02 2.13838E+02-1.17190E+00 4.40867E+02-1.49506E+00
 -1      6416-4.69918E-02 2.03357E-03 3.20900E+02-5.62270E-01 4.26915E+02-2.75957E+00
 -1      6417-1.43895E-01 8.69726E-03 3.21115E+02-6.64792E-01 4.11066E+02-3.28465E+00
 -1      6418-8.12650E-02-2.76549E-02 3.47472E+02-8.02418E-01 4.24135E+02-2.90498E+00
 -1      6419-3.18162E-02-3.52206E-02 1.87282E+02-5.89380E-01 4.41466E+02-1.31147E+00
 -1      6420-2.57943E-02 6.94226E-03 2.67590E+02-2.71624E-01 4.27218E+02-2.57739E+00
 -1      6421-8.32629E-02 8.29981E-03 2.67693E+02-3.26528E-01 4.11240E+02-3.07887E+00
 -1      6422-4.62245E-02-6.72948E-03 2.94263E+02-3.96202E-01 4.24568E+02-2.65888E+00
 -1      6423-1.73252E-02-1.47974E-02 1.60626E+02-2.84420E-01 4.41781E+02-1.21108E+00
 -1      6424-1.34146E-02 6.22987E-03 2.14166E+02-1.25000E-01 4.27368E+02-2.48159E+00
 -1      6425-4.53263E-02 5.93575E-03 2.14215E+02-1.53161E-01 4.11331E+02-2.96847E+00
 -1      6426-2.49256E-02-6.10323E-05 2.40894E+02-1.87173E-01 4.24790E+02-2.52525E+00
 -1      6427-8.87322E-03-5.13377E-03 1.33913E+02-1.30704E-01 4.41938E+02-1.15884E+00
 -1      6428-6.41348E-03 4.57308E-03 1.60682E+02-5.37990E-02 4.27438E+02-2.43406E+00
 -1      6429-2.26718E-02 3.94951E-03 1.60705E+02-6.73353E-02 4.11376E+02-2.91261E+00
 -1      6430-1.25915E-02 1.82577E-03 1.87438E+02-8.37028E-02 4.24897E+02-2.45622E+00
 -1      6431-4.15081E-03-7.72673E-04 1.07170E+02-5.61097E-02 4.42012E+02-1.13335E+00
 -1      6432-2.43459E-03 2.87105E-03 1.07167E+02-1.96424E-02 4.27468E+02-2.41306E+00
 -1      6433-9.14318E-03 2.27397E-03 1.07178E+02-2.50308E-02 4.11395E+02-2.88740E+00
 -1      6434-5.60690E-03 2.08553E-03 1.33935E+02-3.40884E-02 4.24946E+02-2.42314E+00
 -1      6435-1.53491E-03 7.94111E-04 8.04105E+01-2.03271E-02 4.42043E+02-1.12242E+00
 -1      6436 1.01307E-04 5.95175E-04 5.36410E+01-5.17491E-04 4.27476E+02-2.40756E+00
 -1      6437-1.11239E-04-1.80676E-05 5.36437E+01-5.38221E-04 4.11401E+02-2.88047E+00
 -1      6438-1.43755E-03 1.42293E-03 8.04111E+01-9.31584E-03 4.24965E+02-2.41033E+00
 -1      6439 5.61772E-05 4.66694E-04 5.36454E+01-2.51010E-04 4.42052E+02-1.11981E+00
 -1      6440 2.31700E-03-3.65484E-03 1.14636E-01 1.85024E-02 4.27469E+02-2.41385E+00
 -1      6441 7.98541E-03-4.53615E-03 1.09070E-01 2.38512E-02 4.11396E+02-2.88757E+00
 -1      6442 1.70802E-03-6.14878E-04 2.68809E+01 8.24840E-03 4.24965E+02-2.41069E+00
 -1      6443 1.36727E-03-1.99385E-03 2.68805E+01 1.97746E-02 4.42044E+02-1.12328E+00
 -1      6444 5.16230E-03-1.23402E-02-5.33999E+01 5.23791E-02 4.27442E+02-2.43421E+00
 -1      6445 1.82701E-02-1.39725E-02-5.34188E+01 6.58855E-02 4.11379E+02-2.91113E+00
 -1      6446 5.26749E-03-5.44574E-03-2.66432E+01 3.28213E-02 4.24948E+02-2.42356E+00
 -1      6447 2.99722E-03-7.94368E-03 1.22177E-01 5.54228E-02 4.42014E+02-1.13364E+00
 -1      6448 9.66605E-03-2.93639E-02-1.06885E+02 1.23265E-01 4.27377E+02-2.47744E+00
 -1      6449 3.39990E-02-3.26629E-02-1.06930E+02 1.51428E-01 4.11340E+02-2.96073E+00
 -1      6450 1.06901E-02-1.56886E-02-8.01458E+01 8.21169E-02 4.24903E+02-2.45421E+00
 -1      6451 5.56491E-03-2.00273E-02-2.66198E+01 1.29867E-01 4.41943E+02-1.15485E+00
 -1      6452 1.71750E-02-6.00076E-02-1.60310E+02 2.69895E-01 4.27240E+02-2.56123E+00
 -1      6453 5.88853E-02-6.67902E-02-1.60407E+02 3.24887E-01 4.11262E+02-3.05550E+00
 -1      6454 1.97588E-02-3.53393E-02-1.33602E+02 1.85382E-01 4.24805E+02-2.51530E+00
 -1      6455 9.85040E-03-4.21960E-02-5.33288E+01 2.83593E-01 4.41792E+02-1.19498E+00
 -1      6456 2.95800E-02-1.09061E-01-2.13621E+02 5.61670E-01 4.26962E+02-2.71653E+00
 -1      6457 9.67832E-02-1.23057E-01-2.13822E+02 6.64475E-01 4.11113E+02-3.22823E+00
 -1      6458 3.48214E-02-6.90372E-02-1.86971E+02 3.94870E-01 4.24602E+02-2.63006E+00
 -1      6459 1.68843E-02-7.88056E-02-7.99761E+01 5.89111E-01 4.41490E+02-1.26814E+00
 -1      6460 4.94879E-02-1.74037E-01-2.66731E+02 1.12019E+00 4.26426E+02-2.99385E+00
 -1      6461 1.49883E-01-2.02986E-01-2.67136E+02 1.30486E+00 4.10841E+02-3.53083E+00
 -1      6462 5.87865E-02-1.18446E-01-2.40181E+02 8.03377E-01 4.24202E+02-2.83725E+00
 -1      6463 2.78916E-02-1.31135E-01-1.06516E+02 1.17353E+00 4.40914E+02-1.39735E+00
 -1      6464 7.96435E-02-2.28662E-01-3.19508E+02 2.15095E+00 4.25437E+02-3.47039E+00
 -1      6465 2.12656E-01-2.89080E-01-3.20297E+02 2.46903E+00 4.10375E+02-4.03909E+00
 -1      6466 9.44293E-02-1.71950E-01-2.93125E+02 1.57070E+00 4.23452E+02-3.19766E+00
 -1      6467 4.37628E-02-1.88269E-01-1.32881E+02 2.25195E+00 4.39869E+02-1.61804E+00
 -1      6468 1.22225E-01-1.87408E-01-3.71784E+02 3.98615E+00 4.23698E+02-4.25530E+00
 -1      6469 2.58092E-01-3.14263E-01-3.73276E+02 4.50837E+00 4.09627E+02-4.85125E+00
 -1      6470 1.42252E-01-1.81199E-01-3.45659E+02 2.96110E+00 4.22109E+02-3.79929E+00
 -1      6471 6.31971E-02-2.09351E-01-1.58991E+02 4.17311E+00 4.38067E+02-1.98103E+00
 -1      6472 1.60172E-01 1.24738E-01-4.23412E+02 7.13600E+00 4.20796E+02-5.48266E+00
 -1      6473 1.90307E-01-1.46645E-01-4.26149E+02 7.94076E+00 4.08538E+02-6.06562E+00
 -1      6474 1.93725E-01-2.42163E-02-3.97625E+02 5.39169E+00 4.19815E+02-4.75791E+00
 -1      6475 7.82199E-02-9.55032E-02-1.84777E+02 7.47437E+00 4.35128E+02-2.55069E+00
 -1      6476 1.74617E-01 1.02620E+00-4.74367E+02 1.23241E+01 4.16210E+02-7.27186E+00
 -1      6477-2.26027E-01 4.33426E-01-4.79246E+02 1.34576E+01 4.07135E+02-7.69955E+00
 -1      6478 2.19660E-01 5.34298E-01-4.48965E+02 9.47986E+00 4.16098E+02-6.18434E+00
 -1      6479 5.75557E-02 2.98933E-01-2.10279E+02 1.29221E+01 4.30599E+02-3.38898E+00
 -1      6480-2.08185E-01 2.30945E+00-5.25242E+02 2.04840E+01 4.09380E+02-9.56757E+00
 -1      6481-1.77654E+00 1.00354E+00-5.33602E+02 2.18018E+01 4.05719E+02-9.44872E+00
 -1      6482 1.06716E-01 1.67886E+00-4.99779E+02 1.60707E+01 4.10397E+02-8.12173E+00
 -1      6483-9.17737E-02 1.06429E+00-2.35674E+02 2.14959E+01 4.23877E+02-4.48223E+00
 -1      6484-1.04144E+00 2.97790E+00-5.76684E+02 3.24025E+01 3.99426E+02-1.16715E+01
 -1      6485-6.19448E+00-2.16915E-01-5.90828E+02 3.33456E+01 4.04273E+02-9.99894E+00
 -1      6486-3.22739E-01 3.02983E+00-5.50843E+02 2.60875E+01 4.01926E+02-1.00694E+01
 -1      6487-5.18383E-01 1.40436E+00-2.61311E+02 3.39969E+01 4.13787E+02-5.52043E+00
 -1      6488-6.85655E+00-7.18875E+00-6.30869E+02 4.82284E+01 3.84589E+02-1.05756E+01
 -1      6489-1.81011E+01-1.31468E+01-6.50168E+02 4.65153E+01 4.02594E+02-5.21233E+00
 -1      6490-2.60496E+00 3.06782E-01-6.02101E+02 4.02292E+01 3.89533E+02-1.06334E+01
 -1      6491-2.84459E+00-2.54207E+00-2.87540E+02 5.02708E+01 3.95657E+02-5.07658E+00
 -1      6492-1.61947E+01-4.78475E+01-6.83666E+02 6.07296E+01 3.55404E+02 8.90824E+00
 -1      6493-5.43265E+01-6.40629E+01-7.07172E+02 5.42484E+01 3.86184E+02 1.70875E+01
 -1      6494-6.95884E+00-2.04439E+01-6.53955E+02 5.56046E+01 3.66522E+02-6.40222E-01
 -1      6495-5.23916E+00-1.78028E+01-3.10634E+02 6.25669E+01 3.58010E+02 3.91509E+00
 -1      6496-1.25974E+02-1.74117E+02-7.42542E+02 5.83588E+01 2.60379E+02 9.02031E+01
 -1      6497-1.27120E+02-1.63611E+02-7.10724E+02 3.79655E+01 3.05552E+02 6.78042E+01
 -1      6498-4.26253E+01-8.03611E+01-6.79461E+02 6.29208E+01 3.13621E+02 3.88327E+01
 -1      6499-5.54055E+01-7.53679E+01-3.37368E+02 5.86657E+01 2.49688E+02 4.14409E+01
 -1      6500-2.75981E+02-2.75979E+02-6.02366E+02-9.02878E-04 4.57647E+01 1.31289E+02
 -1      6501-2.75134E+02-2.75135E+02-6.00542E+02 9.56601E-04 8.12310E+01 1.00062E+02
 -1      6502-1.56900E+02-2.10893E+02-6.69550E+02 2.28658E+01 1.62383E+02 1.12601E+02
 -1      6503-1.25439E+02-1.25440E+02-2.73801E+02 8.35460E-04 3.20676E+01 6.06369E+01
 -1      6504 5.64852E+02 5.64848E+02 1.23287E+03 6.51872E-04-1.56000E+02 3.79100E+02
 -1      6505-5.00596E+01 1.00317E+02 7.31753E+02-4.71153E+00 1.24211E+02-2.65310E+01
 -1      6506 4.13566E+02 4.13570E+02 9.02706E+02-7.71383E-04-3.41660E+01 2.58227E+02
 -1      6507 6.71387E+01 1.61086E+02 8.03231E+02-3.00284E+01 2.18067E+02 4.92349E+01
 -1      6508 3.00220E+02 3.00222E+02 6.55297E+02-8.93370E-04-1.72573E+02 2.02441E+02
 -1      6509 1.40303E+02 2.84373E+02 9.45778E+02-2.09437E+01-2.03996E+01 1.49013E+02
 -1      6510-2.89483E+01 5.02888E+01 3.85965E+02-5.89522E+00 1.10394E+02-1.40529E+01
 -1      6511 7.17522E+00 1.25167E+01 6.72101E+02-1.04817E+01 2.79442E+02-1.07453E+01
 -1      6512 1.93324E+01 5.02984E+01 7.63607E+02-3.84634E+01 3.17400E+02 1.25326E+00
 -1      6513-5.99145E+01 1.80154E+01 6.55946E+02-1.33387E+01 1.99265E+02-1.84765E+01
 -1      6514 1.77453E+00 4.95306E+00 3.55416E+02-1.05943E+01 2.80549E+02-5.58938E+00
 -1      6515-7.91891E+00-1.75841E+01 6.75337E+02-4.69900E+00 3.62760E+02-3.40617E+00
 -1      6516 4.26085E+00 2.75947E+00 7.13678E+02-2.73171E+01 3.70401E+02-8.98524E+00
 -1      6517 1.17061E+00-5.63214E+00 6.79127E+02-7.41574E+00 3.19568E+02-2.12060E+00
 -1      6518-4.46484E+00-8.59830E+00 3.61672E+02-4.81052E+00 3.73725E+02-1.85027E+00
 -1      6519-1.43664E-01-1.58134E+01 6.50334E+02-2.81877E+00 4.05762E+02-2.15596E+00
 -1      6520 1.05507E+00-7.00968E+00 6.68199E+02-1.80842E+01 3.98428E+02-8.14177E+00
 -1      6521-3.57264E+00-1.81285E+01 6.63313E+02-3.30780E+00 3.82296E+02-2.16479E+00
 -1      6522 5.18598E-02-7.91861E+00 3.51063E+02-2.91546E+00 4.20626E+02-1.22882E+00
 -1      6523-5.00000E-01-1.02318E+01 6.14020E+02-1.47865E+00 4.32715E+02-1.17373E+00
 -1      6524 1.85512E-01-5.48066E+00 6.23294E+02-1.12041E+01 4.17286E+02-6.37835E+00
 -1      6525-5.29950E-01-1.34995E+01 6.32041E+02-1.83365E+00 4.17291E+02-9.62387E-01
 -1      6526-2.23389E-01-5.61535E+00 3.33480E+02-1.55750E+00 4.47778E+02-6.72140E-01
 -1      6527 6.04709E-02-5.58588E+00 5.71892E+02-8.20900E-01 4.49069E+02-7.13155E-01
 -1      6528-1.13776E-01-3.29402E+00 5.76399E+02-6.68514E+00 4.29376E+02-4.61497E+00
 -1      6529-3.21203E-01-7.95288E+00 5.92957E+02-9.09184E-01 4.38789E+02-5.98540E-01
 -1      6530 9.16964E-02-3.16454E+00 3.12688E+02-8.51566E-01 4.63942E+02-3.86054E-01
 -1      6531 1.14724E-01-2.77492E+00 5.25703E+02-4.33533E-01 4.58914E+02-4.29456E-01
 -1      6532-1.19011E-01-1.62769E+00 5.27858E+02-3.84211E+00 4.37044E+02-3.32807E+00
 -1      6533-5.27850E-03-4.18216E+00 5.48837E+02-4.66388E-01 4.51770E+02-3.56573E-01
 -1      6534 7.84941E-02-1.68396E+00 2.89639E+02-4.49796E-01 4.73629E+02-2.06322E-01
 -1      6535 1.34185E-01-1.30912E+00 4.76642E+02-2.27545E-01 4.64591E+02-2.80616E-01
 -1      6536-9.14194E-02-7.54411E-01 4.77600E+02-2.13640E+00 4.41668E+02-2.46459E+00
 -1      6537 4.13497E-02-2.06852E+00 5.01183E+02-2.26024E-01 4.59423E+02-2.43035E-01
 -1      6538 7.68339E-02-8.44789E-01 2.65144E+02-2.32114E-01 4.79261E+02-1.09822E-01
 -1      6539 1.01863E-01-5.97737E-01 4.25684E+02-1.15428E-01 4.67737E+02-1.98583E-01
 -1      6540-6.01920E-02-3.31299E-01 4.26075E+02-1.14848E+00 4.44335E+02-1.92440E+00
 -1      6541 5.42883E-02-9.88777E-01 4.51166E+02-1.07056E-01 4.63761E+02-1.80195E-01
 -1      6542 5.40447E-02-4.12884E-01 2.39679E+02-1.15873E-01 4.82409E+02-5.72227E-02
 -1      6543 6.92410E-02-2.66970E-01 3.73552E+02-5.68799E-02 4.69401E+02-1.56670E-01
 -1      6544-3.72856E-02-1.42429E-01 3.73690E+02-5.96440E-01 4.45804E+02-1.60299E+00
 -1      6545 4.18661E-02-4.63528E-01 3.99622E+02-4.78929E-02 4.66119E+02-1.48914E-01
 -1      6546 3.55343E-02-1.96051E-01 2.13618E+02-5.55730E-02 4.84091E+02-3.01805E-02
 -1      6547 4.23547E-02-1.16952E-01 3.20738E+02-2.69141E-02 4.70242E+02-1.35914E-01
 -1      6548-2.20877E-02-6.02800E-02 3.20775E+02-2.98372E-01 4.46577E+02-1.42038E+00
 -1      6549 2.84393E-02-2.14074E-01 3.47153E+02-2.00515E-02 4.67345E+02-1.33224E-01
 -1      6550 2.13816E-02-9.01200E-02 1.87211E+02-2.53557E-02 4.84946E+02-1.68152E-02
 -1      6551 2.42292E-02-4.96636E-02 2.67550E+02-1.21443E-02 4.70644E+02-1.26347E-01
 -1      6552-1.25375E-02-2.49008E-02 2.67553E+02-1.43125E-01 4.46965E+02-1.32107E+00
 -1      6553 1.73993E-02-9.69997E-02 2.94156E+02-7.50356E-03 4.67951E+02-1.25886E-01
 -1      6554 1.21220E-02-3.92050E-02 1.60615E+02-1.08266E-02 4.85357E+02-1.05960E-02
 -1      6555 1.29579E-02-1.97075E-02 2.14170E+02-5.15361E-03 4.70825E+02-1.22275E-01
 -1      6556-6.76638E-03-9.47268E-03 2.14165E+02-6.53204E-02 4.47149E+02-1.26950E+00
 -1      6557 9.93592E-03-4.23550E-02 2.40873E+02-2.27969E-03 4.68235E+02-1.22643E-01
 -1      6558 6.43192E-03-1.52893E-02 1.33921E+02-4.21610E-03 4.85543E+02-7.91572E-03
 -1      6559 6.37838E-03-6.40564E-03 1.60695E+02-2.01949E-03 4.70901E+02-1.20756E-01
 -1      6560-3.35729E-03-2.61933E-03 1.60692E+02-2.78487E-02 4.47232E+02-1.24425E+00
 -1      6561 5.26715E-03-1.69666E-02 1.87445E+02-3.72126E-04 4.68359E+02-1.21354E-01
 -1      6562 3.12016E-03-4.37157E-03 1.07180E+02-1.43554E-03 4.85621E+02-6.89815E-03
 -1      6563 2.54546E-03-4.39509E-04 1.07178E+02-6.86473E-04 4.70928E+02-1.20327E-01
 -1      6564-1.32526E-03 3.88348E-04 1.07178E+02-1.00885E-02 4.47265E+02-1.23325E+00
 -1      6565 2.47498E-03-5.13522E-03 1.33946E+02 1.15916E-04 4.68409E+02-1.20928E-01
 -1      6566 1.20098E-03 4.33470E-04 8.04182E+01-3.95842E-04 4.85650E+02-6.61792E-03
 -1      6567-2.84606E-06 2.37921E-03 5.36451E+01-5.87914E-05 4.70935E+02-1.20348E-01
 -1      6568 1.03166E-05 1.33474E-03 5.36479E+01-2.98824E-04 4.47274E+02-1.23046E+00
 -1      6569 7.39317E-04 6.32525E-04 8.04180E+01 5.36637E-05 4.68426E+02-1.20864E-01
 -1      6570-3.42243E-05 2.40668E-03 5.36495E+01-1.89474E-05 4.85657E+02-6.67095E-03
 -1      6571-2.42991E-03 3.86967E-03 1.13970E-01 5.61960E-04 4.70929E+02-1.20647E-01
 -1      6572 1.13226E-03 4.69640E-04 1.18453E-01 9.43106E-03 4.47266E+02-1.23387E+00
 -1      6573-5.80668E-04 3.98826E-03 2.68827E+01-1.53404E-04 4.68426E+02-1.20974E-01
 -1      6574-1.11058E-03 2.90158E-03 2.68824E+01 3.53723E-04 4.85650E+02-6.95198E-03
 -1      6575-5.83919E-03 4.81046E-03-5.33992E+01 1.88057E-03 4.70904E+02-1.21410E-01
 -1      6576 2.41750E-03-3.06090E-03-5.33947E+01 2.70323E-02 4.47235E+02-1.24478E+00
 -1      6577-2.02322E-03 6.85035E-03-2.66426E+01-2.27699E-04 4.68411E+02-1.21271E-01
 -1      6578-2.46984E-03 2.15333E-03 1.25730E-01 1.38183E-03 4.85623E+02-7.57394E-03
 -1      6579-1.15047E-02 5.97975E-03-1.06868E+02 5.01616E-03 4.70835E+02-1.23250E-01
 -1      6580 4.21260E-03-1.10227E-02-1.06867E+02 6.43276E-02 4.47159E+02-1.26808E+00
 -1      6581-4.11245E-03 1.06902E-02-8.01357E+01 2.46922E-04 4.68366E+02-1.21953E-01
 -1      6582-4.55708E-03-2.14125E-04-2.66062E+01 4.14796E-03 4.85549E+02-8.89703E-03
 -1      6583-2.10303E-02 1.00836E-02-1.60240E+02 1.20784E-02 4.70668E+02-1.27483E-01
 -1      6584 6.90073E-03-2.53366E-02-1.60256E+02 1.42147E-01 4.46988E+02-1.31369E+00
 -1      6585-7.42547E-03 1.80569E-02-1.33557E+02 2.16824E-03 4.68251E+02-1.23491E-01
 -1      6586-7.87451E-03-4.37558E-03-5.32871E+01 1.07533E-02 4.85370E+02-1.16725E-02
 -1      6587-3.60828E-02 2.67573E-02-2.13423E+02 2.71011E-02 4.70294E+02-1.36666E-01
 -1      6588 1.10020E-02-4.51717E-02-2.13483E+02 2.98066E-01 4.46626E+02-1.39916E+00
 -1      6589-1.25128E-02 3.58488E-02-1.86833E+02 7.49575E-03 4.67988E+02-1.26837E-01
 -1      6590-1.28922E-02-8.05041E-03-7.98681E+01 2.53142E-02 4.84973E+02-1.73377E-02
 -1      6591-5.79004E-02 8.48219E-02-2.66244E+02 5.77099E-02 4.69504E+02-1.55646E-01
 -1      6592 1.72618E-02-5.84047E-02-2.66415E+02 5.98408E-01 4.45900E+02-1.55353E+00
 -1      6593-1.96900E-02 8.32632E-02-2.39831E+02 2.03620E-02 4.67419E+02-1.33788E-01
 -1      6594-1.99464E-02-6.48315E-04-1.06264E+02 5.56586E-02 4.84144E+02-2.85572E-02
 -1      6595-8.30722E-02 2.60368E-01-3.18419E+02 1.17659E-01 4.67922E+02-1.92760E-01
 -1      6596 2.67431E-02-2.19547E-02-3.18841E+02 1.15607E+00 4.44508E+02-1.82226E+00
 -1      6597-2.74435E-02 2.10351E-01-2.92325E+02 4.89684E-02 4.66259E+02-1.47846E-01
 -1      6598-2.77606E-02 5.09721E-02-1.32336E+02 1.16290E-01 4.82505E+02-5.00758E-02
 -1      6599-1.04928E-01 7.30722E-01-3.69496E+02 2.32505E-01 4.64904E+02-2.63864E-01
 -1      6600 4.01017E-02 1.79859E-01-3.70452E+02 2.15592E+00 4.41955E+02-2.27154E+00
 -1      6601-3.23322E-02 5.36516E-01-3.43951E+02 1.09730E-01 4.64004E+02-1.74834E-01
 -1      6602-3.52999E-02 2.28703E-01-1.57875E+02 2.33264E-01 4.79421E+02-9.04639E-02
 -1      6603-7.70644E-02 1.85970E+00-4.18833E+02 4.43424E-01 4.59397E+02-3.90915E-01
 -1      6604 4.88389E-02 7.76381E-01-4.20876E+02 3.88441E+00 4.37484E+02-2.98991E+00
 -1      6605-1.25798E-02 1.32054E+00-3.94168E+02 2.31769E-01 4.59812E+02-2.27953E-01
 -1      6606-2.27762E-02 7.16896E-01-1.82582E+02 4.52359E-01 4.73874E+02-1.63066E-01
 -1      6607-1.00012E-02 4.28058E+00-4.65585E+02 8.38545E-01 4.49736E+02-6.32075E-01
 -1      6608 3.42073E-02 2.18755E+00-4.69713E+02 6.76661E+00 4.29974E+02-4.06798E+00
 -1      6609 3.87678E-02 3.04982E+00-4.42249E+02 4.77395E-01 4.52335E+02-3.22520E-01
 -1      6610-1.70412E-02 1.80421E+00-2.06125E+02 8.56676E-01 4.64277E+02-2.97321E-01
 -1      6611 4.91323E-01 8.62642E+00-5.08786E+02 1.50800E+00 4.33472E+02-1.02259E+00
 -1      6612-2.35321E-01 4.38184E+00-5.17075E+02 1.13459E+01 4.17950E+02-5.56798E+00
 -1      6613 3.27481E-01 6.43096E+00-4.87195E+02 9.28813E-01 4.39494E+02-5.26114E-01
 -1      6614 2.36062E-01 3.97387E+00-2.27955E+02 1.56635E+00 4.48151E+02-5.09912E-01
 -1      6615 2.09741E-01 1.44787E+01-5.46965E+02 2.85948E+00 4.06287E+02-1.86799E+00
 -1      6616-9.80625E-01 6.67475E+00-5.62713E+02 1.83025E+01 3.98854E+02-7.12148E+00
 -1      6617 5.23992E-01 1.18638E+01-5.27771E+02 1.86500E+00 4.17939E+02-8.33817E-01
 -1      6618 2.36905E-02 6.65239E+00-2.47475E+02 2.92895E+00 4.20866E+02-9.28949E-01
 -1      6619 6.84545E+00 1.75472E+01-5.75271E+02 4.74463E+00 3.62270E+02-2.97564E+00
 -1      6620-3.85370E+00-3.81841E-01-6.08858E+02 2.75985E+01 3.69863E+02-7.99099E+00
 -1      6621 3.15897E+00 1.72077E+01-5.61479E+02 3.35218E+00 3.82361E+02-1.87583E+00
 -1      6622 3.34417E+00 8.77351E+00-2.61680E+02 4.82686E+00 3.73456E+02-1.41445E+00
 -1      6623-6.37843E+00-7.58645E+00-5.77958E+02 1.05138E+01 2.76970E+02-9.34903E+00
 -1      6624-1.71879E+01-4.08533E+01-6.57971E+02 3.87349E+01 3.15015E+02 6.67297E-01
 -1      6625-9.23914E-01 7.97493E+00-5.81053E+02 7.47341E+00 3.18185E+02-1.87437E+00
 -1      6626-1.17392E+00 1.15085E-01-2.61845E+02 1.06009E+01 2.79317E+02-4.20011E+00
 -1      6627 4.29252E+01-8.48471E+01-6.30950E+02 4.75080E+00 1.19474E+02-2.30415E+01
 -1      6628-5.84424E+01-1.37862E+02-6.94414E+02 3.01745E+01 2.13531E+02 4.21362E+01
 -1      6629 5.18087E+01-1.20581E+01-5.64585E+02 1.34008E+01 1.95669E+02-1.60705E+01
 -1      6630 2.16687E+01-3.47673E+01-2.85685E+02 5.88297E+00 1.08077E+02-1.05991E+01
 -1      6631-4.86892E+02-4.86889E+02-1.06272E+03-6.54021E-04-1.61443E+02 3.27306E+02
 -1      6632-3.57161E+02-3.57164E+02-7.79589E+02 7.73636E-04-3.94910E+01 2.23146E+02
 -1      6633-1.21032E+02-2.44502E+02-8.15325E+02 2.08925E+01-2.55605E+01 1.28644E+02
 -1      6634-2.22237E+02-2.22239E+02-4.85082E+02 8.94651E-04-1.75254E+02 1.50548E+02
 -1      6635 1.11943E+03 1.11942E+03 2.44332E+03-5.95884E-04-7.97346E+01-7.44449E+02
 -1      6636-9.38845E+01 1.46608E+02 1.46348E+03 7.41735E+00 1.73249E+02 5.65880E+01
 -1      6637 6.54499E+02 6.54497E+02 1.42853E+03-7.97158E-04 1.25057E+02-2.91436E+02
 -1      6638 2.83511E+02 3.50167E+02 1.70600E+03 5.19834E+01 3.12292E+02-1.98347E+02
 -1      6639 8.35296E+02 8.35302E+02 1.82322E+03 9.15422E-04-1.26348E+02-5.61729E+02
 -1      6640 2.66006E+02 5.24752E+02 1.86283E+03 2.11149E+01 5.00229E+01-2.88487E+02
 -1      6641-7.51835E+01 1.20049E+02 1.08560E+03 4.79818E+00 1.41216E+02 4.12847E+01
 -1      6642 8.33834E+02 8.33840E+02 1.82004E+03 6.84296E-04 4.04171E+01-5.04067E+02
 -1      6643 1.36294E+02 2.72982E+02 1.60471E+03 2.80946E+01 2.64988E+02-8.94815E+01
 -1      6644 4.79366E+02 4.79369E+02 1.04633E+03 8.06944E-04 7.96890E+01-2.22165E+02
 -1      6645 3.57166E+02 4.59574E+02 1.54361E+03 2.08084E+01 2.36909E+02-2.50100E+02
 -1      6646 2.07745E+02 2.69019E+02 1.26691E+03 5.55001E+01 2.80586E+02-1.52144E+02
 -1      6647 6.53452E+00-2.23144E+01 1.31675E+03 9.57325E+00 2.31179E+02 2.11580E+01
 -1      6648 2.69619E+01 5.82628E+01 1.54566E+03 4.55062E+01 3.07672E+02-2.07804E+01
 -1      6649-1.11947E+02-6.33196E-01 1.31245E+03 1.25116E+01 1.95406E+02 3.56262E+01
 -1      6650 7.35295E+00 1.32751E+00 9.89789E+02 1.00627E+01 2.57408E+02 1.57823E+01
 -1      6651 2.95847E+01 4.86788E+01 1.49051E+03 2.96837E+01 2.68272E+02-1.61508E+00
 -1      6652 9.96558E+01 1.48222E+02 1.56445E+03 5.09700E+01 3.10678E+02-8.50662E+01
 -1      6653 2.13308E+01 6.21614E+01 1.16347E+03 5.36709E+01 3.34121E+02-1.57418E+01
 -1      6654-1.46442E+01-3.60393E+01 1.31071E+03 2.94398E+00 2.86014E+02 5.73968E+00
 -1      6655 1.59903E+01 9.43714E+00 1.42800E+03 3.40198E+01 3.08834E+02 1.95515E+01
 -1      6656 3.37729E+00-2.87834E+01 1.33165E+03 5.86899E+00 2.57377E+02 3.21266E+00
 -1      6657-1.28889E+01-2.88893E+01 9.90033E+02 4.38116E+00 3.25086E+02 4.90203E+00
 -1      6658 8.54692E+00-2.28760E+00 1.38113E+03 1.89409E+01 2.95162E+02 1.52714E+01
 -1      6659 1.51166E+01 2.33083E+01 1.48524E+03 4.03604E+01 3.04932E+02-1.30763E+00
 -1      6660 1.00830E+01 8.26419E+00 1.08095E+03 4.15538E+01 3.47518E+02 1.61815E+01
 -1      6661-5.50494E-01-2.44467E+01 1.24900E+03 1.97460E+00 3.22621E+02 3.98458E+00
 -1      6662 2.12110E+00-5.49857E+00 1.31176E+03 2.28498E+01 3.16491E+02 2.32295E+01
 -1      6663-7.10790E+00-3.17832E+01 1.27933E+03 2.21865E+00 3.01894E+02 3.90144E+00
 -1      6664-1.61055E-03-1.97069E+01 9.50108E+02 2.52674E+00 3.65264E+02 3.34621E+00
 -1      6665 1.90797E+00-1.09134E+01 1.28257E+03 1.27419E+01 3.16482E+02 1.42641E+01
 -1      6666 5.98573E+00-2.08262E+00 1.36495E+03 2.83285E+01 3.09688E+02 2.04296E+01
 -1      6667 1.91698E+00-3.33366E+00 9.98735E+02 2.78128E+01 3.58959E+02 1.86458E+01
 -1      6668-9.63837E-01-1.40785E+01 1.17621E+03 9.79186E-01 3.49512E+02 2.31419E+00
 -1      6669 7.55886E-01-3.58417E+00 1.21082E+03 1.45758E+01 3.26338E+02 2.01384E+01
 -1      6670-7.06485E-01-1.93119E+01 1.21340E+03 1.28300E+00 3.34369E+02 1.77180E+00
 -1      6671-7.79934E-01-1.25852E+01 8.94898E+02 1.37758E+00 3.91747E+02 1.83941E+00
 -1      6672 6.63390E-01-6.74951E+00 1.19391E+03 7.93682E+00 3.34840E+02 1.17444E+01
 -1      6673 1.31980E+00-4.53368E+00 1.26214E+03 1.84688E+01 3.19201E+02 2.05392E+01
 -1      6674 3.12263E-01-3.57353E+00 9.21664E+02 1.76151E+01 3.68345E+02 1.56751E+01
 -1      6675 2.17457E-01-7.02085E+00 1.09173E+03 5.65459E-01 3.66068E+02 1.53980E+00
 -1      6676-1.21694E-01-1.76344E+00 1.11001E+03 8.86876E+00 3.33637E+02 1.60662E+01
 -1      6677-5.58440E-01-1.06369E+01 1.13410E+03 6.05581E-01 3.55736E+02 1.27455E+00
 -1      6678 1.31843E-01-6.51715E+00 8.31676E+02 7.51556E-01 4.08159E+02 1.07767E+00
 -1      6679 1.30141E-01-3.51861E+00 1.10045E+03 4.80156E+00 3.46895E+02 8.99635E+00
 -1      6680 7.11877E-02-2.71321E+00 1.16049E+03 1.14948E+01 3.27667E+02 1.74787E+01
 -1      6681-2.57322E-01-1.95734E+00 8.45823E+02 1.06349E+01 3.75401E+02 1.21035E+01
 -1      6682 2.54450E-01-3.34513E+00 9.98967E+02 3.02198E-01 3.75690E+02 1.04053E+00
 -1      6683-2.31557E-01-5.63921E-01 1.00834E+03 5.17547E+00 3.38324E+02 1.26858E+01
 -1      6684 7.81147E-03-5.30813E+00 1.04538E+03 3.16185E-01 3.68656E+02 8.76657E-01
 -1      6685 1.44156E-01-3.23677E+00 7.62155E+02 3.99979E-01 4.17876E+02 6.09145E-01
 -1      6686-1.98833E-02-1.56564E+00 1.00320E+03 2.77919E+00 3.54219E+02 6.93077E+00
 -1      6687-3.30384E-01-1.17508E+00 1.05930E+03 6.84710E+00 3.33602E+02 1.39670E+01
 -1      6688-3.28603E-01-8.53619E-01 7.69396E+02 6.17528E+00 3.80089E+02 9.22354E+00
 -1      6689 2.69037E-01-1.50478E+00 9.00430E+02 1.59763E-01 3.80982E+02 7.76861E-01
 -1      6690-2.22003E-01-7.73924E-02 9.04998E+02 2.90362E+00 3.41098E+02 1.02784E+01
 -1      6691 7.33523E-02-2.56330E+00 9.49679E+02 1.52059E-01 3.75973E+02 6.94611E-01
 -1      6692 1.65101E-01-1.51412E+00 6.88414E+02 2.06755E-01 4.23375E+02 3.55444E-01
 -1      6693-5.62263E-02-6.40533E-01 9.02345E+02 1.54995E+00 3.58395E+02 5.51157E+00
 -1      6694-3.56533E-01-3.85006E-01 9.56709E+02 3.91826E+00 3.37265E+02 1.12462E+01
 -1      6695-2.70626E-01-2.94962E-01 6.91941E+02 3.45587E+00 3.83008E+02 7.20755E+00
 -1      6696 1.93331E-01-6.61171E-01 7.98181E+02 8.07285E-02 3.83779E+02 6.30163E-01
 -1      6697-1.62904E-01 7.16240E-02 8.00281E+02 1.56919E+00 3.42661E+02 8.70996E+00
 -1      6698 9.37092E-02-1.20045E+00 8.49285E+02 7.09734E-02 3.79944E+02 5.90157E-01
 -1      6699 1.21476E-01-6.92351E-01 6.11867E+02 1.03078E-01 4.26359E+02 2.16725E-01
 -1      6700-5.39580E-02-2.42640E-01 7.98990E+02 8.32169E-01 3.60679E+02 4.61106E+00
 -1      6701-2.82830E-01-7.08826E-02 8.52666E+02 2.15821E+00 3.39399E+02 9.36003E+00
 -1      6702-1.87778E-01-7.17176E-02 6.13483E+02 1.86669E+00 3.84723E+02 5.90740E+00
 -1      6703 1.28014E-01-2.83202E-01 6.93700E+02 3.91980E-02 3.85202E+02 5.54918E-01
 -1      6704-1.07844E-01 8.52420E-02 6.94587E+02 8.16722E-01 3.43507E+02 7.75031E+00
 -1      6705 7.15023E-02-5.55758E-01 7.45935E+02 3.06262E-02 3.82012E+02 5.37642E-01
 -1      6706 8.23993E-02-3.09313E-01 5.33604E+02 4.92831E-02 4.27912E+02 1.44599E-01
 -1      6707-4.07916E-02-8.71141E-02 6.94004E+02 4.30224E-01 3.61881E+02 4.06984E+00
 -1      6708-1.93688E-01 2.31393E-02 7.47458E+02 1.14529E+00 3.40583E+02 8.15820E+00
 -1      6709-1.18808E-01 9.65365E-04 5.34282E+02 9.72600E-01 3.85685E+02 5.11718E+00
 -1      6710 7.70301E-02-1.19525E-01 5.87946E+02 1.80876E-02 3.85898E+02 5.17462E-01
 -1      6711-6.60595E-02 6.24152E-02 5.88275E+02 4.08634E-01 3.43949E+02 7.19269E+00
 -1      6712 4.85740E-02-2.54613E-01 6.40832E+02 1.19393E-02 3.83050E+02 5.11044E-01
 -1      6713 5.07161E-02-1.35858E-01 4.54346E+02 2.23734E-02 4.28686E+02 1.08368E-01
 -1      6714-2.75499E-02-3.02428E-02 5.88042E+02 2.13616E-01 3.62491E+02 3.76012E+00
 -1      6715-1.21714E-01 3.57910E-02 6.41459E+02 5.84940E-01 3.41217E+02 7.43467E+00
 -1      6716-7.02651E-02 1.62579E-02 4.54593E+02 4.87769E-01 3.86201E+02 4.66001E+00
 -1      6717 4.37027E-02-4.93091E-02 4.81507E+02 7.85209E-03 3.86222E+02 5.00073E-01
 -1      6718-3.80888E-02 3.81394E-02 4.81599E+02 1.95717E-01 3.44172E+02 6.88336E+00
 -1      6719 2.97928E-02-1.15465E-01 5.34745E+02 3.82568E-03 3.83549E+02 4.98513E-01
 -1      6720 2.93917E-02-5.80770E-02 3.74544E+02 9.49618E-03 4.29053E+02 9.10858E-02
 -1      6721-1.71426E-02-1.04185E-02 4.81527E+02 1.01399E-01 3.62789E+02 3.59063E+00
 -1      6722-7.15406E-02 2.66831E-02 5.34966E+02 2.86693E-01 3.41544E+02 7.02035E+00
 -1      6723-3.92892E-02 1.44921E-02 3.74610E+02 2.34451E-01 3.86467E+02 4.40718E+00
 -1      6724 2.32904E-02-1.95053E-02 3.74716E+02 3.14959E-03 3.86366E+02 4.92566E-01
 -1      6725-2.06532E-02 2.11280E-02 3.74720E+02 8.90793E-02 3.44280E+02 6.71953E+00
 -1      6726 1.70994E-02-5.12496E-02 4.28133E+02 6.89365E-04 3.83778E+02 4.92933E-01
 -1      6727 1.59804E-02-2.35608E-02 2.94461E+02 3.67231E-03 4.29216E+02 8.33231E-02
 -1      6728-9.92189E-03-3.46718E-03 3.74714E+02 4.56479E-02 3.62928E+02 3.50204E+00
 -1      6729-3.96630E-02 1.61260E-02 4.28187E+02 1.34100E-01 3.41707E+02 6.79369E+00
 -1      6730-2.07471E-02 9.81342E-03 2.94461E+02 1.07209E-01 3.86598E+02 4.27362E+00
 -1      6731 1.14719E-02-6.81637E-03 2.67754E+02 1.14712E-03 3.86424E+02 4.89674E-01
 -1      6732-1.02656E-02 1.09401E-02 2.67736E+02 3.78942E-02 3.44329E+02 6.63754E+00
 -1      6733 9.12144E-03-2.16392E-02 3.21255E+02-2.65202E-04 3.83877E+02 4.90682E-01
 -1      6734 7.99861E-03-8.31301E-03 2.14240E+02 1.24500E-03 4.29284E+02 8.01234E-02
 -1      6735-5.20801E-03-7.45132E-04 2.67750E+02 1.91739E-02 3.62988E+02 3.45829E+00
 -1      6736-2.05687E-02 8.87366E-03 3.21251E+02 5.92544E-02 3.41784E+02 6.67566E+00
 -1      6737-1.00979E-02 6.00554E-03 2.14224E+02 4.58202E-02 3.86658E+02 4.20695E+00
 -1      6738 4.60179E-03-1.23028E-03 1.60714E+02 3.85187E-04 3.86446E+02 4.88760E-01
 -1      6739-4.03942E-03 5.01640E-03 1.60700E+02 1.38518E-02 3.44349E+02 6.60079E+00
 -1      6740 4.30617E-03-7.80503E-03 2.14249E+02-3.34066E-04 3.83916E+02 4.89901E-01
 -1      6741 3.22483E-03-1.47014E-03 1.33957E+02 3.55568E-04 4.29309E+02 7.89986E-02
 -1      6742-2.13778E-03 5.57913E-04 1.60714E+02 6.94636E-03 3.63012E+02 3.43893E+00
 -1      6743-9.42208E-03 4.63754E-03 2.14234E+02 2.39195E-02 3.41818E+02 6.61851E+00
 -1      6744-3.95044E-03 3.24865E-03 1.33944E+02 1.66971E-02 3.86684E+02 4.17720E+00
 -1      6745 1.75402E-05 1.67687E-03 5.36469E+01 1.09369E-04 3.86451E+02 4.88657E-01
 -1      6746 2.13301E-04 7.11127E-04 5.36430E+01 8.46850E-04 3.44355E+02 6.59069E+00
 -1      6747 1.25136E-03-7.79500E-04 1.07189E+02-7.81669E-05 3.83928E+02 4.89723E-01
 -1      6748-2.83860E-05 1.97922E-03 5.36506E+01 5.45116E-05 4.29315E+02 7.88320E-02
 -1      6749 9.45853E-05 1.14271E-03 5.36498E+01 4.92189E-04 3.63019E+02 3.43371E+00
 -1      6750-2.52758E-03 1.96675E-03 1.07180E+02 6.77526E-03 3.41831E+02 6.59592E+00
 -1      6751 1.01165E-04 5.74977E-04 5.36466E+01 6.65042E-04 3.86691E+02 4.16915E+00
 -1      6752-4.38834E-03 4.07767E-03-5.34199E+01-1.43202E-04 3.86446E+02 4.89044E-01
 -1      6753 4.21871E-03-4.62797E-03-5.34144E+01-1.19439E-02 3.44350E+02 6.60126E+00
 -1      6754-1.16092E-03 4.07916E-03 1.14641E-01 2.70428E-04 3.83929E+02 4.89819E-01
 -1      6755-3.11502E-03 4.52086E-03-2.66545E+01-2.32095E-04 4.29310E+02 7.93154E-02
 -1      6756 2.18298E-03 8.10196E-04-5.34146E+01-5.83524E-03 3.63013E+02 3.43936E+00
 -1      6757 2.90185E-03-8.12072E-04 1.15129E-01-5.01344E-03 3.41831E+02 6.59614E+00
 -1      6758 3.88121E-03-3.60184E-03-2.66511E+01-1.52132E-02 3.86685E+02 4.17785E+00
 -1      6759-1.06390E-02 7.62109E-03-1.60457E+02-8.42191E-04 3.86428E+02 4.90251E-01
 -1      6760 9.54703E-03-1.42748E-02-1.60452E+02-3.53799E-02 3.44333E+02 6.63708E+00
 -1      6761-3.90218E-03 9.87448E-03-1.06944E+02 5.69649E-04 3.83918E+02 4.90200E-01
 -1      6762-7.30288E-03 7.87118E-03-1.06935E+02-1.08019E-03 4.29288E+02 8.07681E-02
 -1      6763 4.73544E-03-1.27471E-03-1.60452E+02-1.77026E-02 3.62992E+02 3.45845E+00
 -1      6764 9.23178E-03-5.75922E-03-1.06940E+02-2.17395E-02 3.41820E+02 6.61849E+00
 -1      6765 9.06477E-03-1.16961E-02-1.06932E+02-4.39105E-02 3.86662E+02 4.20683E+00
 -1      6766-2.11336E-02 1.49878E-02-2.67419E+02-2.76959E-03 3.86378E+02 4.93408E-01
 -1      6767 1.78835E-02-3.28722E-02-2.67442E+02-8.57292E-02 3.44292E+02 6.71456E+00
 -1      6768-7.95252E-03 2.01036E-02-2.13949E+02 5.76697E-04 3.83884E+02 4.91208E-01
 -1      6769-1.40075E-02 1.45073E-02-1.87152E+02-3.44872E-03 4.29228E+02 8.42711E-02
 -1      6770 8.28208E-03-6.47803E-03-2.67420E+02-4.36739E-02 3.62940E+02 3.50011E+00
 -1      6771 1.89121E-02-1.58489E-02-2.13961E+02-5.63272E-02 3.41792E+02 6.67299E+00
 -1      6772 1.75822E-02-2.73153E-02-1.87171E+02-1.04751E-01 3.86609E+02 4.26912E+00
 -1      6773-3.90442E-02 3.27144E-02-3.74216E+02-7.45717E-03 3.86255E+02 5.01007E-01
 -1      6774 3.11674E-02-6.67130E-02-3.74333E+02-1.91770E-01 3.44202E+02 6.86646E+00
 -1      6775-1.44219E-02 4.10893E-02-3.20830E+02-3.03322E-04 3.83799E+02 4.93685E-01
 -1      6776-2.49531E-02 3.03351E-02-2.67233E+02-9.22471E-03 4.29082E+02 9.21575E-02
 -1      6777 1.31716E-02-1.59369E-02-3.74246E+02-9.90458E-02 3.62820E+02 3.58275E+00
 -1      6778 3.48924E-02-3.53925E-02-3.20905E+02-1.30388E-01 3.41727E+02 6.78306E+00
 -1      6779 3.19493E-02-5.51371E-02-2.67326E+02-2.31731E-01 3.86495E+02 4.39074E+00
 -1      6780-6.80143E-02 7.80623E-02-4.80678E+02-1.79028E-02 3.85970E+02 5.17949E-01
 -1      6781 5.13712E-02-1.22142E-01-4.81035E+02-4.05471E-01 3.44016E+02 7.14981E+00
 -1      6782-2.44044E-02 8.68167E-02-4.27457E+02-3.45301E-03 3.83599E+02 4.99377E-01
 -1      6783-4.18843E-02 7.09632E-02-3.47041E+02-2.21359E-02 4.28750E+02 1.08985E-01
 -1      6784 1.92708E-02-2.74566E-02-4.80792E+02-2.11664E-01 3.62560E+02 3.73885E+00
 -1      6785 6.07325E-02-6.95287E-02-4.27704E+02-2.82917E-01 3.41591E+02 6.99141E+00
 -1      6786 5.53571E-02-9.88778E-02-3.47321E+02-4.86027E-01 3.86260E+02 4.61717E+00
 -1      6787-1.11910E-01 1.94542E-01-5.86491E+02-3.97880E-02 3.85348E+02 5.53629E-01
 -1      6788 7.96244E-02-1.98644E-01-5.87397E+02-8.18183E-01 3.43640E+02 7.65667E+00
 -1      6789-3.86526E-02 1.89627E-01-5.33586E+02-1.18620E-02 3.83155E+02 5.11615E-01
 -1      6790-6.62458E-02 1.75990E-01-4.26329E+02-4.93174E-02 4.28041E+02 1.43317E-01
 -1      6791 2.51045E-02-2.62723E-02-5.86821E+02-4.30870E-01 3.62019E+02 4.02179E+00
 -1      6792 1.00025E-01-1.20688E-01-5.34234E+02-5.83547E-01 3.41313E+02 7.36869E+00
 -1      6793 9.11361E-02-1.54379E-01-4.27032E+02-9.75076E-01 3.85801E+02 5.02224E+00
 -1      6794-1.66937E-01 4.89193E-01-6.91106E+02-8.33057E-02 3.84051E+02 6.24281E-01
 -1      6795 1.12850E-01-2.70602E-01-6.93180E+02-1.58392E+00 3.42905E+02 8.52501E+00
 -1      6796-5.46714E-02 4.24545E-01-6.38786E+02-3.15225E-02 3.82214E+02 5.36874E-01
 -1      6797-9.43246E-02 4.41813E-01-5.04672E+02-1.03931E-01 4.26595E+02 2.10443E-01
 -1      6798 2.64635E-02 3.73855E-02-6.91935E+02-8.40409E-01 3.60932E+02 4.51386E+00
 -1      6799 1.53783E-01-1.77712E-01-6.40303E+02-1.15224E+00 3.40766E+02 8.02371E+00
 -1      6800 1.40260E-01-1.91783E-01-5.06270E+02-1.88045E+00 3.84934E+02 5.71789E+00
 -1      6801-2.28696E-01 1.19671E+00-7.93620E+02-1.66660E-01 3.81449E+02 7.60741E-01
 -1      6802 1.39610E-01-2.45606E-01-7.98042E+02-2.94888E+00 3.41515E+02 9.94137E+00
 -1      6803-6.72058E-02 9.57139E-01-7.42336E+02-7.42592E-02 3.80302E+02 5.85808E-01
 -1      6804-1.22397E-01 1.07850E+00-5.81398E+02-2.09545E-01 4.23775E+02 3.37966E-01
 -1      6805 1.16499E-02 2.96105E-01-7.95520E+02-1.57581E+00 3.58827E+02 5.33081E+00
 -1      6806 2.14768E-01-1.89738E-01-7.45627E+02-2.18604E+00 3.39720E+02 9.10831E+00
 -1      6807 1.95218E-01-1.22356E-01-5.84788E+02-3.49463E+00 3.83362E+02 6.85914E+00
 -1      6808-2.03110E-01 2.83131E+00-8.92645E+02-3.17637E-01 3.76433E+02 1.00445E+00
 -1      6809 1.07644E-01 8.58006E-02-9.01601E+02-5.28249E+00 3.38980E+02 1.21159E+01
 -1      6810-3.67177E-02 2.14425E+00-8.43108E+02-1.60466E-01 3.76562E+02 6.81997E-01
 -1      6811-8.69979E-02 2.53492E+00-6.55499E+02-4.06720E-01 4.18501E+02 5.69506E-01
 -1      6812-4.62856E-02 1.03385E+00-8.96752E+02-2.84099E+00 3.54899E+02 6.61861E+00
 -1      6813 2.49619E-01-1.92974E-02-8.49852E+02-3.99066E+00 3.37786E+02 1.08091E+01
 -1      6814 2.20356E-01 2.55913E-01-6.62331E+02-6.26327E+00 3.80635E+02 8.62968E+00
 -1      6815-1.53688E-01 6.23665E+00-9.86235E+02-5.95970E-01 3.67136E+02 1.46498E+00
 -1      6816-4.70071E-02 1.14139E+00-1.00356E+03-9.08885E+00 3.34569E+02 1.51776E+01
 -1      6817 3.86960E-02 4.64126E+00-9.39469E+02-3.34390E-01 3.69539E+02 8.48056E-01
 -1      6818-5.57670E-02 5.49361E+00-7.25684E+02-7.65810E-01 4.09034E+02 9.95386E-01
 -1      6819-2.16489E-01 2.78074E+00-9.94585E+02-4.92949E+00 3.47860E+02 8.49814E+00
 -1      6820 1.77561E-01 6.11912E-01-9.52699E+02-7.00490E+00 3.34374E+02 1.32657E+01
 -1      6821 1.21591E-01 1.22572E+00-7.38862E+02-1.08106E+01 3.76155E+02 1.11702E+01
 -1      6822 9.57332E-01 1.29849E+01-1.07204E+03-1.03569E+00 3.50825E+02 2.17786E+00
 -1      6823-9.27153E-01 2.97168E+00-1.10465E+03-1.49827E+01 3.27463E+02 1.88897E+01
 -1      6824 5.82317E-01 9.66397E+00-1.02925E+03-6.41740E-01 3.56904E+02 1.21199E+00
 -1      6825 7.92787E-01 1.12594E+01-7.90070E+02-1.40345E+00 3.92777E+02 1.68762E+00
 -1      6826-7.49410E-01 5.90412E+00-1.08880E+03-8.17578E+00 3.36003E+02 1.10153E+01
 -1      6827-2.54978E-01 2.05841E+00-1.05417E+03-1.18008E+01 3.28673E+02 1.64504E+01
 -1      6828-4.28424E-01 2.94942E+00-8.14787E+02-1.79309E+01 3.69211E+02 1.43529E+01
 -1      6829 5.87613E-01 2.32507E+01-1.14674E+03-2.06234E+00 3.23769E+02 3.72386E+00
 -1      6830-2.24394E+00 5.33042E+00-1.20569E+03-2.35255E+01 3.17424E+02 2.17550E+01
 -1      6831 7.29741E-01 1.81021E+01-1.11014E+03-1.34581E+00 3.35585E+02 1.66282E+00
 -1      6832 8.69149E-02 1.85056E+01-8.47111E+02-2.57165E+00 3.66050E+02 3.05940E+00
 -1      6833-1.93358E+00 1.03224E+01-1.17835E+03-1.31396E+01 3.17446E+02 1.33563E+01
 -1      6834-1.48374E+00 4.06929E+00-1.15600E+03-1.90037E+01 3.20213E+02 1.92473E+01
 -1      6835-1.92422E+00 3.50681E+00-8.91798E+02-2.83199E+01 3.59568E+02 1.70708E+01
 -1      6836 1.36050E+01 3.51866E+01-1.21087E+03-3.08386E+00 2.85797E+02 5.35417E+00
 -1      6837-1.52868E+01-7.53913E+00-1.32093E+03-3.49988E+01 3.08466E+02 1.84836E+01
 -1      6838 6.69752E+00 3.06271E+01-1.17824E+03-2.32504E+00 3.02423E+02 3.63466E+00
 -1      6839 1.17748E+01 2.83972E+01-8.90022E+02-4.43590E+00 3.24658E+02 4.48445E+00
 -1      6840-8.22422E+00 3.33394E+00-1.27692E+03-1.95320E+01 2.94800E+02 1.43790E+01
 -1      6841-5.85996E+00 2.63884E+00-1.25864E+03-2.91599E+01 3.10025E+02 1.91997E+01
 -1      6842-9.35546E+00-5.54843E+00-9.73398E+02-4.22547E+01 3.46989E+02 1.50297E+01
 -1      6843-5.95064E+00 2.43088E+01-1.22169E+03-9.68473E+00 2.27588E+02 1.97496E+01
 -1      6844-2.54562E+01-5.14527E+01-1.43649E+03-4.65906E+01 3.04203E+02-1.86801E+01
 -1      6845-3.07945E+00 2.94190E+01-1.23303E+03-6.01866E+00 2.55562E+02 2.99615E+00
 -1      6846-6.65787E+00 2.38514E+00-8.95215E+02-1.01228E+01 2.54203E+02 1.43931E+01
 -1      6847-2.77576E+01-4.25123E+01-1.38439E+03-3.03306E+01 2.64779E+02-1.10025E+00
 -1      6848-1.43952E+01-1.95842E+01-1.37721E+03-4.14222E+01 3.03098E+02-7.86358E-01
 -1      6849-1.96646E+01-5.33393E+01-1.05449E+03-5.44114E+01 3.31060E+02-1.35864E+01
 -1      6850 8.68974E+01-1.33558E+02-1.36092E+03-7.39499E+00 1.63312E+02 5.28544E+01
 -1      6851-2.64419E+02-3.24307E+02-1.58960E+03-5.26241E+01 3.02757E+02-1.83799E+02
 -1      6852 1.04076E+02 4.13941E+00-1.21916E+03-1.26400E+01 1.88771E+02 3.31973E+01
 -1      6853 6.80647E+01-1.05775E+02-9.84164E+02-4.85365E+00 1.34046E+02 3.76979E+01
 -1      6854-1.27444E+02-2.52091E+02-1.49413E+03-2.84224E+01 2.55426E+02-8.27517E+01
 -1      6855-9.31061E+01-1.35357E+02-1.45609E+03-5.18820E+01 3.04366E+02-7.84695E+01
 -1      6856-1.88791E+02-2.42004E+02-1.15161E+03-5.59139E+01 2.73741E+02-1.37361E+02
 -1      6857-1.04080E+03-1.04079E+03-2.27170E+03 6.02416E-04-9.13716E+01-6.92632E+02
 -1      6858-6.10346E+02-6.10344E+02-1.33216E+03 8.07706E-04 1.13708E+02-2.71391E+02
 -1      6859-2.46977E+02-4.85956E+02-1.73151E+03-2.11165E+01 3.88719E+01-2.68314E+02
 -1      6860-7.57159E+02-7.57164E+02-1.65267E+03-9.18847E-04-1.34740E+02-5.09897E+02
 -1      6861-7.76353E+02-7.76359E+02-1.69458E+03-6.91924E-04 2.90108E+01-4.69167E+02
 -1      6862-3.32985E+02-4.27305E+02-1.43841E+03-2.11058E+01 2.26103E+02-2.32452E+02
 -1      6863-4.35997E+02-4.36000E+02-9.51668E+02-8.13663E-04 7.15345E+01-2.01893E+02
 -1      6864 6.76338E+02 6.76339E+02 1.47621E+03-6.68221E-04 1.85685E+02-1.69750E+02
 -1      6865 3.65817E+02 3.30986E+02 1.60408E+03 2.98383E+01 3.91357E+02-1.32307E+02
 -1      6866 6.52675E+02 6.52675E+02 1.42461E+03 8.37292E-04 1.61512E+02-2.22217E+02
 -1      6867 2.84178E+02 3.20124E+02 1.63249E+03 3.17853E+01 3.59844E+02-1.49504E+02
 -1      6868 4.95265E+02 4.95265E+02 1.08102E+03 7.57436E-04 1.38755E+02-1.29130E+02
 -1      6869 5.10547E+02 4.98678E+02 1.51819E+03 1.76657E+01 3.05520E+02-1.56286E+02
 -1      6870 2.68584E+02 2.56663E+02 1.18815E+03 3.27340E+01 3.56579E+02-1.01303E+02
 -1      6871 1.47298E+02 9.10779E+01 1.60491E+03 3.88249E+01 3.60618E+02-4.18541E+01
 -1      6872 1.10349E+02 8.75579E+01 1.59475E+03 4.09544E+01 3.37193E+02-3.96012E+01
 -1      6873 2.35118E+02 1.84758E+02 1.61017E+03 3.69133E+01 3.74367E+02-8.48967E+01
 -1      6874 1.12315E+02 8.97271E+01 1.20817E+03 4.50465E+01 3.88094E+02-3.15518E+01
 -1      6875 6.12942E+01 2.27612E+01 1.49668E+03 3.37870E+01 3.37740E+02 1.01770E+00
 -1      6876 3.96602E+01 1.81914E+01 1.46789E+03 3.31587E+01 3.24429E+02 7.99201E+00
 -1      6877 8.85615E+01 3.99892E+01 1.54169E+03 3.71074E+01 3.46923E+02-1.93996E+01
 -1      6878 4.44995E+01 2.09172E+01 1.13445E+03 4.03135E+01 3.78849E+02 1.87704E+00
 -1      6879 1.93266E+01-6.83665E-01 1.35821E+03 2.47223E+01 3.24295E+02 1.75077E+01
 -1      6880 1.31981E+01-3.82124E-01 1.34052E+03 2.37672E+01 3.19738E+02 1.96560E+01
 -1      6881 3.24399E+01 4.05682E+00 1.41786E+03 2.93360E+01 3.27725E+02 9.66096E+00
 -1      6882 1.49104E+01 1.77793E+00 1.03595E+03 2.95119E+01 3.68716E+02 1.42007E+01
 -1      6883 6.22197E+00-1.79174E+00 1.24086E+03 1.66887E+01 3.20534E+02 1.97472E+01
 -1      6884 4.17110E+00-1.67680E+00 1.22785E+03 1.56713E+01 3.22156E+02 1.99207E+01
 -1      6885 1.16037E+01-1.47683E+00 1.29976E+03 2.05299E+01 3.20080E+02 1.81945E+01
 -1      6886 4.24870E+00-1.42490E+00 9.45785E+02 1.98200E+01 3.63347E+02 1.53535E+01
 -1      6887 9.49495E-01-1.11953E+00 1.12794E+03 1.05460E+01 3.19276E+02 1.77598E+01
 -1      6888 7.69973E-01-9.06820E-01 1.11994E+03 9.78330E+00 3.24861E+02 1.70726E+01
 -1      6889 3.03131E+00-1.40188E+00 1.18429E+03 1.33902E+01 3.17443E+02 1.83693E+01
 -1      6890 3.61613E-01-1.07172E+00 8.60262E+02 1.24439E+01 3.60973E+02 1.33531E+01
 -1      6891-6.37768E-01-3.49889E-01 1.01866E+03 6.34175E+00 3.18867E+02 1.50001E+01
 -1      6892-3.05845E-01-2.20476E-01 1.01389E+03 5.82056E+00 3.26890E+02 1.40569E+01
 -1      6893 4.75324E-02-5.24406E-01 1.07354E+03 8.24773E+00 3.16599E+02 1.60742E+01
 -1      6894-7.89801E-01-4.86087E-01 7.77697E+02 7.45033E+00 3.59982E+02 1.09156E+01
 -1      6895-9.40461E-01-2.22505E-02 9.10665E+02 3.65199E+00 3.18708E+02 1.26847E+01
 -1      6896-5.36975E-01 5.66524E-02 9.07997E+02 3.32270E+00 3.28162E+02 1.16952E+01
 -1      6897-8.22849E-01-7.85192E-02 9.64810E+02 4.85282E+00 3.16279E+02 1.36434E+01
 -1      6898-9.16905E-01-1.48761E-01 6.96503E+02 4.27828E+00 3.59619E+02 8.94093E+00
 -1      6899-7.96132E-01 7.43117E-02 8.03271E+02 2.02242E+00 3.18646E+02 1.10383E+01
 -1      6900-4.71464E-01 1.16792E-01 8.01848E+02 1.82480E+00 3.28910E+02 1.00747E+01
 -1      6901-8.64592E-01 8.01408E-02 8.57088E+02 2.74091E+00 3.16158E+02 1.17379E+01
 -1      6902-7.30960E-01-1.68405E-02 6.15890E+02 2.36670E+00 3.59508E+02 7.56106E+00
 -1      6903-5.62867E-01 7.50948E-02 6.96095E+02 1.07868E+00 3.18624E+02 9.97343E+00
 -1      6904-3.39305E-01 9.64735E-02 6.95380E+02 9.65271E-01 3.29328E+02 9.04842E+00
 -1      6905-6.68267E-01 9.67270E-02 7.49771E+02 1.49028E+00 3.16111E+02 1.04341E+01
 -1      6906-5.00513E-01 1.93904E-02 5.35497E+02 1.26249E+00 3.59492E+02 6.67748E+00
 -1      6907-3.59394E-01 5.24121E-02 5.88998E+02 5.53853E-01 3.18620E+02 9.32821E+00
 -1      6908-2.19169E-01 6.21879E-02 5.88665E+02 4.91296E-01 3.29555E+02 8.43615E+00
 -1      6909-4.49297E-01 7.22457E-02 6.42615E+02 7.80434E-01 3.16097E+02 9.61111E+00
 -1      6910-3.13072E-01 2.12495E-02 4.55176E+02 6.49040E-01 3.59503E+02 6.14558E+00
 -1      6911-2.13346E-01 3.12720E-02 4.81925E+02 2.73066E-01 3.18622E+02 8.95758E+00
 -1      6912-1.31257E-01 3.52136E-02 4.81786E+02 2.39867E-01 3.29674E+02 8.08880E+00
 -1      6913-2.76969E-01 4.47825E-02 5.35515E+02 3.93076E-01 3.16096E+02 9.12211E+00
 -1      6914-1.82985E-01 1.51083E-02 3.74873E+02 3.20685E-01 3.59518E+02 5.84144E+00
 -1      6915-1.18575E-01 1.71231E-02 3.74856E+02 1.28527E-01 3.18625E+02 8.75499E+00
 -1      6916-7.34701E-02 1.84115E-02 3.74809E+02 1.11636E-01 3.29733E+02 7.90102E+00
 -1      6917-1.59379E-01 2.51429E-02 4.28432E+02 1.89679E-01 3.16099E+02 8.84608E+00
 -1      6918-1.00431E-01 9.32990E-03 2.94570E+02 1.51380E-01 3.59530E+02 5.67578E+00
 -1      6919-6.04360E-02 8.82714E-03 2.67786E+02 5.67575E-02 3.18627E+02 8.65052E+00
 -1      6920-3.76530E-02 9.10784E-03 2.67778E+02 4.86906E-02 3.29762E+02 7.80517E+00
 -1      6921-8.53717E-02 1.32540E-02 3.21351E+02 8.68795E-02 3.16102E+02 8.69819E+00
 -1      6922-5.06674E-02 5.39546E-03 2.14264E+02 6.70342E-02 3.59538E+02 5.59064E+00
 -1      6923-2.47298E-02 3.94642E-03 1.60713E+02 2.13460E-02 3.18629E+02 8.60233E+00
 -1      6924-1.54516E-02 4.00891E-03 1.60718E+02 1.81398E-02 3.29774E+02 7.76137E+00
 -1      6925-4.03379E-02 6.48952E-03 2.14270E+02 3.63570E-02 3.16105E+02 8.62466E+00
 -1      6926-2.06244E-02 2.64182E-03 1.33954E+02 2.51502E-02 3.59542E+02 5.55152E+00
 -1      6927 1.40192E-04 1.40192E-04 5.36394E+01 9.10031E-04 3.18629E+02 8.58852E+00
 -1      6928 1.14999E-04 3.15389E-04 5.36458E+01 8.75921E-04 3.29777E+02 7.74899E+00
 -1      6929-1.14995E-02 2.16086E-03 1.07186E+02 1.03337E-02 3.16106E+02 8.59480E+00
 -1      6930-9.14987E-05-1.93770E-04 5.36429E+01 7.28656E-04 3.59543E+02 5.54039E+00
 -1      6931 2.37296E-02-4.94668E-03-5.34352E+01-1.93337E-02 3.18629E+02 8.60183E+00
 -1      6932 1.48544E-02-4.60807E-03-5.34269E+01-1.61857E-02 3.29775E+02 7.76125E+00
 -1      6933 1.15034E-02-2.15695E-03 1.02005E-01-8.45881E-03 3.16106E+02 8.59457E+00
 -1      6934 1.91084E-02-4.82983E-03-2.66692E+01-2.35491E-02 3.59542E+02 5.55118E+00
 -1      6935 5.49458E-02-1.43172E-02-1.60510E+02-5.42264E-02 3.18631E+02 8.64745E+00
 -1      6936 3.41514E-02-1.40488E-02-1.60489E+02-4.61772E-02 3.29765E+02 7.80310E+00
 -1      6937 3.76781E-02-9.14934E-03-1.06983E+02-3.41148E-02 3.16106E+02 8.62298E+00
 -1      6938 4.45170E-02-1.38312E-02-1.06980E+02-6.50526E-02 3.59541E+02 5.58788E+00
 -1      6939 1.03338E-01-3.23606E-02-2.67583E+02-1.25384E-01 3.18636E+02 8.74424E+00
 -1      6940 6.36499E-02-3.28771E-02-2.67526E+02-1.08404E-01 3.29745E+02 7.89249E+00
 -1      6941 7.60842E-02-2.25414E-02-2.14067E+02-8.40356E-02 3.16109E+02 8.69159E+00
 -1      6942 8.43494E-02-3.11150E-02-1.87287E+02-1.48984E-01 3.59541E+02 5.66546E+00
 -1      6943 1.79397E-01-6.52216E-02-3.74657E+02-2.69824E-01 3.18650E+02 8.92907E+00
 -1      6944 1.09279E-01-6.81704E-02-3.74514E+02-2.36295E-01 3.29703E+02 8.06476E+00
 -1      6945 1.36706E-01-4.78163E-02-3.21151E+02-1.86391E-01 3.16118E+02 8.82720E+00
 -1      6946 1.48110E-01-6.20703E-02-2.67589E+02-3.18353E-01 3.59545E+02 5.81332E+00
 -1      6947 2.92201E-01-1.19605E-01-4.81736E+02-5.52404E-01 3.18684E+02 9.26369E+00
 -1      6948 1.75540E-01-1.28375E-01-4.81410E+02-4.89021E-01 3.29620E+02 8.37996E+00
 -1      6949 2.29592E-01-9.21594E-02-4.28238E+02-3.90438E-01 3.16141E+02 9.07721E+00
 -1      6950 2.45310E-01-1.12115E-01-3.47883E+02-6.48394E-01 3.59561E+02 6.08102E+00
 -1      6951 4.40831E-01-1.97130E-01-5.88834E+02-1.08372E+00 3.18755E+02 9.84232E+00
 -1      6952 2.59860E-01-2.18167E-01-5.88154E+02-9.68560E-01 3.29459E+02 8.93173E+00
 -1      6953 3.59562E-01-1.61981E-01-5.35340E+02-7.81550E-01 3.16192E+02 9.51651E+00
 -1      6954 3.79411E-01-1.81172E-01-4.28177E+02-1.26745E+00 3.59606E+02 6.54498E+00
 -1      6955 5.91108E-01-2.79335E-01-6.95999E+02-2.04392E+00 3.18891E+02 1.07934E+01
 -1      6956 3.37629E-01-3.23806E-01-6.94664E+02-1.84293E+00 3.29152E+02 9.85288E+00
 -1      6957 5.11358E-01-2.53637E-01-6.42489E+02-1.50216E+00 3.16294E+02 1.02520E+01
 -1      6958 5.30894E-01-2.49349E-01-5.08507E+02-2.38540E+00 3.59718E+02 7.31165E+00
 -1      6959 6.23915E-01-2.94295E-01-8.03351E+02-3.70884E+00 3.19132E+02 1.22609E+01
 -1      6960 3.29650E-01-3.80980E-01-8.00866E+02-3.37370E+00 3.28579E+02 1.13047E+01
 -1      6961 6.11237E-01-3.33496E-01-7.49779E+02-2.77753E+00 3.16482E+02 1.14135E+01
 -1      6962 6.14484E-01-2.51480E-01-5.88988E+02-4.32593E+00 3.59977E+02 8.50619E+00
 -1      6963 2.00828E-01-8.70510E-02-9.11234E+02-6.46653E+00 3.19544E+02 1.43231E+01
 -1      6964 1.79220E-02-2.37181E-01-9.06805E+02-5.93620E+00 3.27550E+02 1.34207E+01
 -1      6965 4.50458E-01-2.93871E-01-8.57427E+02-4.93939E+00 3.16814E+02 1.31084E+01
 -1      6966 3.85358E-01-4.44887E-02-6.69933E+02-7.55269E+00 3.60542E+02 1.02162E+01
 -1      6967-1.45065E+00 6.18375E-01-1.02028E+03-1.07887E+01 3.20256E+02 1.67803E+01
 -1      6968-1.10311E+00 3.61310E-01-1.01285E+03-1.00139E+01 3.25806E+02 1.61272E+01
 -1      6969-5.23119E-01 4.88197E-02-9.65991E+02-8.42528E+00 3.17405E+02 1.52679E+01
 -1      6970-7.93901E-01 5.16242E-01-7.52057E+02-1.26395E+01 3.61758E+02 1.23332E+01
 -1      6971-6.54540E+00 1.46831E+00-1.13270E+03-1.71141E+01 3.21747E+02 1.85342E+01
 -1      6972-4.40175E+00 1.25481E+00-1.12058E+03-1.60852E+01 3.23311E+02 1.86900E+01
 -1      6973-3.49055E+00 9.42635E-01-1.07640E+03-1.37170E+01 3.18516E+02 1.72969E+01
 -1      6974-4.44800E+00 1.19906E+00-8.36840E+02-2.01565E+01 3.64270E+02 1.40775E+01
 -1      6975-1.88750E+01 1.13530E+00-1.24920E+03-2.53863E+01 3.25363E+02 1.64403E+01
 -1      6976-1.28989E+01 6.88027E-01-1.23264E+03-2.44316E+01 3.20726E+02 1.84350E+01
 -1      6977-1.16551E+01 1.42540E+00-1.19120E+03-2.10703E+01 3.21201E+02 1.70731E+01
 -1      6978-1.42201E+01-7.93126E-01-9.25938E+02-3.00258E+01 3.69407E+02 1.30556E+01
 -1      6979-5.81245E+01-1.95915E+01-1.38563E+03-3.46725E+01 3.37504E+02 1.25410E+00
 -1      6980-3.77063E+01-1.55370E+01-1.35850E+03-3.40765E+01 3.24126E+02 7.73909E+00
 -1      6981-3.11372E+01-2.75406E+00-1.30839E+03-3.01186E+01 3.28193E+02 9.19273E+00
 -1      6982-4.11179E+01-1.66158E+01-1.02277E+03-4.09793E+01 3.78397E+02 2.06085E+00
 -1      6983-1.38119E+02-8.18989E+01-1.49315E+03-3.97258E+01 3.57120E+02-3.83563E+01
 -1      6984-1.03458E+02-7.86800E+01-1.48301E+03-4.19210E+01 3.33719E+02-3.62272E+01
 -1      6985-8.33957E+01-3.48235E+01-1.43087E+03-3.80340E+01 3.45152E+02-1.76285E+01
 -1      6986-1.02781E+02-7.81874E+01-1.09649E+03-4.57106E+01 3.85002E+02-2.80144E+01
 -1      6987-3.41975E+02-3.07144E+02-1.49683E+03-3.04157E+01 3.81584E+02-1.22534E+02
 -1      6988-2.65697E+02-2.96785E+02-1.52241E+03-3.23930E+01 3.50209E+02-1.38471E+02
 -1      6989-2.19933E+02-1.69573E+02-1.50047E+03-3.76964E+01 3.67880E+02-7.84107E+01
 -1      6990-2.44836E+02-2.31368E+02-1.08193E+03-3.31571E+01 3.49579E+02-9.13905E+01
 -1      6991-6.31667E+02-6.31668E+02-1.37871E+03 6.78927E-04 1.74032E+02-1.58097E+02
 -1      6992-6.09226E+02-6.09226E+02-1.32977E+03-8.50414E-04 1.50031E+02-2.06953E+02
 -1      6993-4.76749E+02-4.64880E+02-1.41695E+03-1.79825E+01 2.94447E+02-1.45213E+02
 -1      6994-4.51300E+02-4.51301E+02-9.85061E+02-7.66394E-04 1.30434E+02-1.17337E+02
 -1      6995 6.68629E+02 6.68631E+02 1.45939E+03-3.52681E-04 2.16152E+02-7.77773E+01
 -1      6996 4.17225E+02 3.38269E+02 1.59941E+03 1.58650E+01 4.23355E+02-6.18691E+01
 -1      6997 6.70834E+02 6.70832E+02 1.46424E+03 5.35784E-04 2.04179E+02-1.21164E+02
 -1      6998 3.90850E+02 3.32560E+02 1.59849E+03 2.15561E+01 4.10681E+02-9.45669E+01
 -1      6999 4.88772E+02 4.88771E+02 1.06685E+03 3.90623E-04 1.68916E+02-5.91932E+01
 -1      7000 5.32493E+02 5.02472E+02 1.51438E+03 8.99152E+00 3.36698E+02-7.08980E+01
 -1      7001 3.08069E+02 2.62513E+02 1.18398E+03 1.71163E+01 3.86563E+02-4.72185E+01
 -1      7002 2.14842E+02 9.93912E+01 1.61670E+03 2.11614E+01 3.88158E+02-2.95569E+01
 -1      7003 1.84388E+02 9.47099E+01 1.61111E+03 2.85984E+01 3.77057E+02-3.78111E+01
 -1      7004 2.94112E+02 1.89374E+02 1.60714E+03 1.93995E+01 4.04953E+02-4.51648E+01
 -1      7005 1.64397E+02 9.72991E+01 1.21689E+03 2.40814E+01 4.16098E+02-2.23086E+01
 -1      7006 9.87915E+01 2.46151E+01 1.51835E+03 1.93622E+01 3.56391E+02-4.55075E+00
 -1      7007 8.06128E+01 2.31481E+01 1.50955E+03 2.58430E+01 3.48648E+02-2.84569E+00
 -1      7008 1.39624E+02 4.31028E+01 1.55661E+03 2.07605E+01 3.70275E+02-1.58599E+01
 -1      7009 7.34303E+01 2.32060E+01 1.15169E+03 2.26460E+01 3.99213E+02-2.92644E+00
 -1      7010 3.74723E+01 2.50756E-01 1.38275E+03 1.50593E+01 3.32672E+02 7.80100E+00
 -1      7011 3.00053E+01 3.97670E-01 1.37359E+03 1.97141E+01 3.28958E+02 1.17292E+01
 -1      7012 5.86657E+01 4.90939E+00 1.44145E+03 1.73614E+01 3.41226E+02 2.03531E+00
 -1      7013 2.88710E+01 3.12352E+00 1.05586E+03 1.76728E+01 3.78581E+02 6.39038E+00
 -1      7014 1.31571E+01-1.93588E+00 1.25894E+03 1.04919E+01 3.21048E+02 1.09933E+01
 -1      7015 1.04016E+01-1.55435E+00 1.25183E+03 1.35531E+01 3.20574E+02 1.50830E+01
 -1      7016 2.26307E+01-1.82670E+00 1.31988E+03 1.27144E+01 3.24533E+02 9.34550E+00
 -1      7017 9.47828E+00-1.23084E+00 9.60534E+02 1.22830E+01 3.64527E+02 8.54880E+00
 -1      7018 2.93632E+00-1.46151E+00 1.14002E+03 6.78843E+00 3.14285E+02 1.07365E+01
 -1      7019 2.43494E+00-1.02068E+00 1.13530E+03 8.70241E+00 3.16120E+02 1.41814E+01
 -1      7020 6.96321E+00-1.75737E+00 1.19906E+03 8.51967E+00 3.15163E+02 1.07315E+01
 -1      7021 1.77967E+00-1.17202E+00 8.70113E+02 7.91142E+00 3.55917E+02 8.08450E+00
 -1      7022-5.13432E-01-6.57057E-01 1.02609E+03 4.15579E+00 3.10308E+02 9.44114E+00
 -1      7023-3.10140E-01-3.43283E-01 1.02316E+03 5.29029E+00 3.13672E+02 1.22586E+01
 -1      7024 9.49536E-01-8.05670E-01 1.08320E+03 5.35648E+00 3.09782E+02 9.94742E+00
 -1      7025-7.84079E-01-6.40456E-01 7.83748E+02 4.82483E+00 3.50853E+02 6.90125E+00
 -1      7026-1.37352E+00-2.42386E-01 9.15002E+02 2.42873E+00 3.07960E+02 8.16190E+00
 -1      7027-1.00735E+00-3.31733E-02 9.13311E+02 3.07520E+00 3.12273E+02 1.04884E+01
 -1      7028-9.72246E-01-2.53377E-01 9.70712E+02 3.20300E+00 3.06590E+02 8.69840E+00
 -1      7029-1.31182E+00-2.75581E-01 7.00030E+02 2.81281E+00 3.47986E+02 5.79850E+00
 -1      7030-1.27720E+00-6.68892E-02 8.05687E+02 1.36312E+00 3.06615E+02 7.18809E+00
 -1      7031-9.58064E-01 6.03128E-02 8.04764E+02 1.71707E+00 3.11491E+02 9.18148E+00
 -1      7032-1.27571E+00-2.33102E-02 8.60505E+02 1.83449E+00 3.04744E+02 7.60642E+00
 -1      7033-1.14015E+00-1.03914E-01 6.17853E+02 1.57686E+00 3.46408E+02 4.97829E+00
 -1      7034-9.40135E-01-9.94978E-03 6.97384E+02 7.36461E-01 3.05872E+02 6.53345E+00
 -1      7035-7.11264E-01 6.40718E-02 6.96912E+02 9.23086E-01 3.11066E+02 8.31643E+00
 -1      7036-1.05062E+00 3.92384E-02 7.51661E+02 1.01055E+00 3.03704E+02 6.81902E+00
 -1      7037-8.13956E-01-3.52285E-02 5.36544E+02 8.51907E-01 3.45566E+02 4.43364E+00
 -1      7038-6.14507E-01 3.84732E-03 5.89656E+02 3.83177E-01 3.05476E+02 6.12623E+00
 -1      7039-4.67405E-01 4.48663E-02 5.89434E+02 4.77771E-01 3.10845E+02 7.78404E+00
 -1      7040-7.29717E-01 4.15667E-02 6.43616E+02 5.36117E-01 3.03140E+02 6.30578E+00
 -1      7041-5.22457E-01-1.08644E-02 4.55710E+02 4.43641E-01 3.45130E+02 4.09741E+00
 -1      7042-3.70905E-01 4.77284E-03 4.82245E+02 1.91636E-01 3.05275E+02 5.88745E+00
 -1      7043-2.83107E-01 2.65688E-02 4.82153E+02 2.37581E-01 3.10735E+02 7.47437E+00
 -1      7044-4.59264E-01 2.91838E-02 5.36022E+02 2.73741E-01 3.02845E+02 5.99375E+00
 -1      7045-3.11268E-01-2.81187E-03 3.75132E+02 2.22255E-01 3.44912E+02 3.90129E+00
 -1      7046-2.08918E-01 3.34285E-03 3.75003E+02 9.16481E-02 3.05176E+02 5.75461E+00
 -1      7047-1.59877E-01 1.43778E-02 3.74974E+02 1.12888E-01 3.10683E+02 7.30326E+00
 -1      7048-2.68478E-01 1.75969E-02 4.28676E+02 1.34099E-01 3.02698E+02 5.81433E+00
 -1      7049-1.73547E-01-1.73331E-04 2.94689E+02 1.06539E-01 3.44807E+02 3.79262E+00
 -1      7050-1.07768E-01 2.10433E-03 2.67847E+02 4.11642E-02 3.05130E+02 5.68501E+00
 -1      7051-8.26082E-02 7.32523E-03 2.67845E+02 5.03535E-02 3.10659E+02 7.21415E+00
 -1      7052-1.45717E-01 9.80564E-03 3.21462E+02 6.24532E-02 3.02627E+02 5.71664E+00
 -1      7053-8.87950E-02 6.58887E-04 2.14314E+02 4.79560E-02 3.44758E+02 3.73588E+00
 -1      7054-4.47130E-02 1.14799E-03 1.60734E+02 1.56778E-02 3.05110E+02 5.65243E+00
 -1      7055-3.42837E-02 3.20791E-03 1.60740E+02 1.90773E-02 3.10649E+02 7.17267E+00
 -1      7056-6.97063E-02 5.01353E-03 2.14314E+02 2.65568E-02 3.02595E+02 5.66735E+00
 -1      7057-3.67078E-02 5.79593E-04 1.33971E+02 1.82270E-02 3.44738E+02 3.70942E+00
 -1      7058-3.26074E-04-1.56733E-04 5.36372E+01 5.55018E-04 3.05105E+02 5.64290E+00
 -1      7059-1.93770E-04-9.14986E-05 5.36429E+01 7.28656E-04 3.10647E+02 7.16063E+00
 -1      7060-2.03352E-02 1.62189E-03 1.07197E+02 7.56607E-03 3.02583E+02 5.64706E+00
 -1      7061-6.47943E-04-5.75813E-04 5.36405E+01 4.46235E-04 3.44732E+02 3.70171E+00
 -1      7062 4.17538E-02-2.86094E-03-5.34602E+01-1.44676E-02 3.05111E+02 5.65171E+00
 -1      7063 3.20957E-02-4.72394E-03-5.34543E+01-1.74762E-02 3.10650E+02 7.17193E+00
 -1      7064 1.92593E-02-2.10497E-03 8.76429E-02-6.42800E-03 3.02583E+02 5.64673E+00
 -1      7065 3.30290E-02-3.67271E-03-2.66901E+01-1.72581E-02 3.44738E+02 3.70879E+00
 -1      7066 9.68159E-02-8.67280E-03-1.60574E+02-3.96970E-02 3.05132E+02 5.68210E+00
 -1      7067 7.41725E-02-1.34756E-02-1.60561E+02-4.83719E-02 3.10662E+02 7.21084E+00
 -1      7068 6.39112E-02-8.28338E-03-1.07030E+02-2.52310E-02 3.02596E+02 5.66565E+00
 -1      7069 7.69117E-02-1.04287E-02-1.07033E+02-4.67950E-02 3.44761E+02 3.73315E+00
 -1      7070 1.80931E-01-2.02833E-02-2.67728E+02-8.99355E-02 3.05186E+02 5.74595E+00
 -1      7071 1.38091E-01-3.04597E-02-2.67691E+02-1.10492E-01 3.10693E+02 7.29289E+00
 -1      7072 1.28360E-01-1.99291E-02-2.14177E+02-6.08498E-02 3.02633E+02 5.71112E+00
 -1      7073 1.44350E-01-2.36602E-02-1.87405E+02-1.05212E-01 3.44816E+02 3.78419E+00
 -1      7074 3.10882E-01-4.12696E-02-3.74964E+02-1.90107E-01 3.05303E+02 5.86614E+00
 -1      7075 2.36145E-01-6.14437E-02-3.74869E+02-2.35249E-01 3.10763E+02 7.44821E+00
 -1      7076 2.28208E-01-4.13652E-02-3.21387E+02-1.32402E-01 3.02716E+02 5.79992E+00
 -1      7077 2.49878E-01-4.71137E-02-2.67836E+02-2.21134E-01 3.44937E+02 3.88017E+00
 -1      7078 4.98796E-01-7.44334E-02-4.82356E+02-3.83165E-01 3.05541E+02 6.08009E+00
 -1      7079 3.76539E-01-1.12629E-01-4.82141E+02-4.77125E-01 3.10910E+02 7.72654E+00
 -1      7080 3.77560E-01-7.77540E-02-4.28719E+02-2.72764E-01 3.02890E+02 5.96118E+00
 -1      7081 4.05797E-01-8.37504E-02-3.48381E+02-4.43843E-01 3.45188E+02 4.05120E+00
 -1      7082 7.34791E-01-1.15681E-01-5.90037E+02-7.41092E-01 3.06006E+02 6.44263E+00
 -1      7083 5.49482E-01-1.85173E-01-5.89592E+02-9.28043E-01 3.11199E+02 8.20197E+00
 -1      7084 5.78496E-01-1.31977E-01-5.36277E+02-5.37968E-01 3.03236E+02 6.23946E+00
 -1      7085 6.09637E-01-1.30058E-01-4.29139E+02-8.56003E-01 3.45683E+02 4.34197E+00
 -1      7086 9.40608E-01-1.39708E-01-6.98241E+02-1.37876E+00 3.06869E+02 7.02301E+00
 -1      7087 6.91874E-01-2.60379E-01-6.97381E+02-1.73577E+00 3.11740E+02 8.97140E+00
 -1      7088 7.92039E-01-1.94713E-01-6.44246E+02-1.01978E+00 3.03892E+02 6.69480E+00
 -1      7089 8.10031E-01-1.62408E-01-5.10294E+02-1.59003E+00 3.46625E+02 4.81059E+00
 -1      7090 8.69785E-01-6.81534E-02-8.07363E+02-2.46705E+00 3.08405E+02 7.88394E+00
 -1      7091 6.07106E-01-2.69248E-01-8.05797E+02-3.12286E+00 3.12708E+02 1.01311E+01
 -1      7092 8.68714E-01-2.23018E-01-7.52943E+02-1.85986E+00 3.05084E+02 7.39087E+00
 -1      7093 8.27164E-01-1.13937E-01-5.92184E+02-2.84445E+00 3.48360E+02 5.51441E+00
 -1      7094-1.48228E-01 2.46027E-01-9.18102E+02-4.23617E+00 3.11028E+02 9.01168E+00
 -1      7095-2.20436E-01-6.11597E-02-9.15396E+02-5.39265E+00 3.14372E+02 1.16994E+01
 -1      7096 3.95373E-01-9.92881E-02-8.62885E+02-3.25979E+00 3.07157E+02 8.35320E+00
 -1      7097 1.67244E-01 1.47507E-01-6.75406E+02-4.89033E+00 3.51445E+02 6.45953E+00
 -1      7098-3.61726E+00 1.03079E+00-1.03146E+03-6.93910E+00 3.15341E+02 1.01447E+01
 -1      7099-2.99042E+00 5.88394E-01-1.02709E+03-8.89807E+00 3.17140E+02 1.33965E+01
 -1      7100-1.64099E+00 3.75303E-01-9.74932E+02-5.46850E+00 3.10648E+02 9.44725E+00
 -1      7101-2.36480E+00 7.12602E-01-7.60979E+02-8.03275E+00 3.56759E+02 7.47130E+00
 -1      7102-1.33889E+01 1.76985E+00-1.14950E+03-1.07459E+01 3.22377E+02 1.03253E+01
 -1      7103-1.06275E+01 1.35505E+00-1.14289E+03-1.38897E+01 3.21849E+02 1.41599E+01
 -1      7104-7.51341E+00 1.39354E+00-1.09011E+03-8.71844E+00 3.16330E+02 1.01091E+01
 -1      7105-9.53265E+00 1.21279E+00-8.50259E+02-1.24850E+01 3.65536E+02 7.84926E+00
 -1      7106-3.61806E+01 5.24233E-01-1.27216E+03-1.54379E+01 3.33880E+02 7.35407E+00
 -1      7107-2.90205E+01 2.92678E-01-1.26357E+03-2.02281E+01 3.30103E+02 1.10374E+01
 -1      7108-2.23387E+01 1.95179E+00-1.20999E+03-1.30298E+01 3.25782E+02 8.78443E+00
 -1      7109-2.72452E+01-1.72534E+00-9.44202E+02-1.79695E+01 3.79372E+02 5.90788E+00
 -1      7110-9.34314E+01-2.10331E+01-1.40629E+03-1.98386E+01 3.56246E+02-4.04418E+00
 -1      7111-7.63115E+01-1.97665E+01-1.39788E+03-2.65088E+01 3.48464E+02-2.39423E+00
 -1      7112-5.59657E+01-3.26805E+00-1.33063E+03-1.77956E+01 3.41814E+02 2.02299E+00
 -1      7113-6.77140E+01-1.83603E+01-1.03895E+03-2.30136E+01 3.98820E+02-2.43953E+00
 -1      7114-2.01383E+02-8.95124E+01-1.50504E+03-2.16268E+01 3.84585E+02-2.71712E+01
 -1      7115-1.72848E+02-8.51759E+01-1.49943E+03-2.92625E+01 3.73520E+02-3.47189E+01
 -1      7116-1.31309E+02-3.74738E+01-1.44544E+03-2.12480E+01 3.68517E+02-1.45087E+01
 -1      7117-1.50419E+02-8.49163E+01-1.10528E+03-2.44372E+01 4.12952E+02-1.99029E+01
 -1      7118-3.90314E+02-3.14290E+02-1.49359E+03-1.61616E+01 4.13335E+02-5.72794E+01
 -1      7119-3.65555E+02-3.08812E+02-1.49227E+03-2.19791E+01 4.00769E+02-8.75661E+01
 -1      7120-2.75279E+02-1.73970E+02-1.49870E+03-1.97974E+01 3.98302E+02-4.17085E+01
 -1      7121-2.81134E+02-2.36975E+02-1.07910E+03-1.73434E+01 3.79401E+02-4.25763E+01
 -1      7122-6.25050E+02-6.25052E+02-1.36427E+03 3.58512E-04 2.04246E+02-7.24293E+01
 -1      7123-6.26870E+02-6.26868E+02-1.36828E+03-5.44742E-04 1.92386E+02-1.12842E+02
 -1      7124-4.97761E+02-4.69031E+02-1.41460E+03-9.14960E+00 3.25368E+02-6.58607E+01
 -1      7125-4.45863E+02-4.45862E+02-9.73190E+02-3.95936E-04 1.60403E+02-5.37753E+01
 -1      7126 6.71643E+02 6.71645E+02 1.46597E+03 8.14016E-13 2.24489E+02-1.09707E-12
 -1      7127 4.28339E+02 3.38492E+02 1.59601E+03-1.12473E-12 4.32918E+02 1.30138E-11
 -1      7128 6.69748E+02 6.69745E+02 1.46187E+03 1.91856E-04 2.22645E+02-3.81655E+01
 -1      7129 4.19417E+02 3.35775E+02 1.59469E+03 7.44671E+00 4.30422E+02-3.00825E+01
 -1      7130 4.90863E+02 4.90862E+02 1.07141E+03-2.63747E-13 1.76994E+02 3.24590E-12
 -1      7131 5.40561E+02 5.04937E+02 1.51492E+03 7.01536E-13 3.45529E+02 6.88710E-12
 -1      7132 3.16836E+02 2.62887E+02 1.18118E+03-2.62201E-12 3.95690E+02 1.78161E-11
 -1      7133 2.30791E+02 9.86928E+01 1.61512E+03-8.05295E-12 3.96960E+02 1.54670E-11
 -1      7134 2.19655E+02 9.55894E+01 1.61290E+03 1.01139E+01 3.94677E+02-1.46694E+01
 -1      7135 3.13804E+02 1.91887E+02 1.60784E+03-5.11924E-12 4.13993E+02 1.62595E-11
 -1      7136 1.76908E+02 9.70656E+01 1.21569E+03-4.74554E-12 4.25039E+02 2.11222E-11
 -1      7137 1.12290E+02 2.46994E+01 1.52322E+03-4.57780E-12 3.62507E+02 1.89355E-11
 -1      7138 1.05440E+02 2.31012E+01 1.52066E+03 9.44305E+00 3.60965E+02-2.59206E+00
 -1      7139 1.55639E+02 4.35070E+01 1.56004E+03-5.42211E-12 3.77655E+02 1.72191E-11
 -1      7140 8.39681E+01 2.35225E+01 1.15566E+03-5.34411E-12 4.05866E+02 2.58234E-11
 -1      7141 4.49538E+01 3.74325E-01 1.38969E+03-1.48595E-11 3.35920E+02 1.88535E-11
 -1      7142 4.17752E+01-2.66719E-01 1.38739E+03 7.42258E+00 3.35131E+02 3.55375E+00
 -1      7143 6.84934E+01 4.69779E+00 1.44729E+03-1.13993E-11 3.45970E+02 2.02272E-11
 -1      7144 3.46654E+01 3.34079E+00 1.06155E+03-1.10015E-11 3.82340E+02 2.67579E-11
 -1      7145 1.60900E+01-2.12659E+00 1.26475E+03-3.26125E-12 3.21824E+02 1.80962E-11
 -1      7146 1.51832E+01-2.13467E+00 1.26331E+03 5.22065E+00 3.21659E+02 5.36148E+00
 -1      7147 2.73200E+01-2.11017E+00 1.32592E+03-4.80195E-12 3.26559E+02 2.10625E-11
 -1      7148 1.17213E+01-1.31310E+00 9.65298E+02-8.77781E-12 3.65549E+02 2.03318E-11
 -1      7149 3.90195E+00-1.64471E+00 1.14414E+03 3.93977E-12 3.13193E+02 2.30904E-11
 -1      7150 3.90513E+00-1.45767E+00 1.14334E+03 3.40112E+00 3.13502E+02 5.32051E+00
 -1      7151 8.68067E+00-2.00721E+00 1.20391E+03 6.73051E-12 3.14998E+02 1.83431E-11
 -1      7152 2.49083E+00-1.28201E+00 8.73492E+02 2.08179E-12 3.54813E+02 3.06513E-11
 -1      7153-3.82373E-01-8.05469E-01 1.02873E+03-1.14203E-11 3.07955E+02 2.72095E-11
 -1      7154-1.31589E-01-6.17137E-01 1.02831E+03 2.09111E+00 3.08584E+02 4.71786E+00
 -1      7155 1.41541E+00-9.70483E-01 1.08654E+03-7.10926E-12 3.08049E+02 2.51260E-11
 -1      7156-7.12473E-01-7.39174E-01 7.85911E+02-1.12163E-11 3.48303E+02 2.39234E-11
 -1      7157-1.50438E+00-3.43416E-01 9.16592E+02 4.01758E-11 3.04807E+02 2.24754E-11
 -1      7158-1.23667E+00-1.95111E-01 9.16403E+02 1.22678E+00 3.05638E+02 4.09264E+00
 -1      7159-9.84962E-01-3.53809E-01 9.72828E+02 1.35982E-11 3.03826E+02 2.44138E-11
 -1      7160-1.43415E+00-3.45574E-01 7.01326E+02-3.14956E-13 3.44518E+02 3.06303E-11
 -1      7161-1.45038E+00-1.30633E-01 8.06595E+02 9.58627E-12 3.02982E+02 4.49093E-11
 -1      7162-1.24554E+00-3.11426E-02 8.06528E+02 6.90631E-01 3.03935E+02 3.60882E+00
 -1      7163-1.41698E+00-8.03942E-02 8.61765E+02 1.34587E-11 3.01343E+02 3.44133E-11
 -1      7164-1.28754E+00-1.48949E-01 6.18592E+02-2.09913E-11 3.42389E+02 4.21642E-11
 -1      7165-1.08244E+00-4.79295E-02 6.97879E+02-1.34574E-11 3.01962E+02 3.92440E-11
 -1      7166-9.44539E-01 1.42301E-02 6.97874E+02 3.74200E-01 3.02985E+02 3.28038E+00
 -1      7167-1.19366E+00 7.72082E-03 7.52375E+02-9.57909E-12 2.99927E+02 3.76108E-11
 -1      7168-9.32059E-01-6.24363E-02 5.36947E+02-3.03906E-11 3.41230E+02 3.66328E-11
 -1      7169-7.13142E-01-1.78062E-02 5.89915E+02 9.81034E-12 3.01414E+02-3.14206E-12
 -1      7170-6.28015E-01 1.86165E-02 5.89936E+02 1.95227E-01 3.02476E+02 3.07479E+00
 -1      7171-8.37844E-01 2.48255E-02 6.44003E+02 3.38163E-12 2.99150E+02 3.38400E-11
 -1      7172-6.03291E-01-2.65216E-02 4.55921E+02-2.37170E-11 3.40619E+02 1.09302E-11
 -1      7173-4.32786E-01-7.07012E-03 4.82374E+02-7.15355E-11 3.01131E+02 3.36901E-11
 -1      7174-3.83431E-01 1.32412E-02 4.82404E+02 9.79119E-02 3.02213E+02 2.95366E+00
 -1      7175-5.30839E-01 2.05761E-02 5.36223E+02-2.73602E-11 2.98740E+02-6.55119E-12
 -1      7176-3.61580E-01-1.14448E-02 3.75237E+02-2.54374E-11 3.40308E+02 4.31956E-11
 -1      7177-2.44834E-01-2.85639E-03 3.75064E+02-4.51625E-11 3.00991E+02 4.78953E-11
 -1      7178-2.17891E-01 7.88596E-03 3.75092E+02 4.69634E-02 3.02084E+02 2.88599E+00
 -1      7179-3.11846E-01 1.33500E-02 4.28775E+02-4.04740E-11 2.98532E+02 4.17175E-11
 -1      7180-2.02577E-01-4.72458E-03 2.94739E+02-2.68801E-11 3.40156E+02 4.62936E-11
 -1      7181-1.26775E-01-9.39896E-04 2.67874E+02-1.04822E-10 3.00925E+02 3.57794E-11
 -1      7182-1.13205E-01 4.33542E-03 2.67896E+02 2.11566E-02 3.02023E+02 2.85041E+00
 -1      7183-1.69948E-01 7.80821E-03 3.21508E+02-5.96992E-11 2.98431E+02 3.92423E-11
 -1      7184-1.04091E-01-1.59687E-03 2.14335E+02-5.54306E-11 3.40084E+02 4.73526E-11
 -1      7185-5.28196E-02-1.10985E-04 1.60744E+02-6.90271E-11 3.00896E+02 7.41442E-11
 -1      7186-4.72762E-02 2.00633E-03 1.60758E+02 8.07445E-03 3.01996E+02 2.83370E+00
 -1      7187-8.16038E-02 4.14779E-03 2.14333E+02-7.46448E-11 2.98384E+02 6.73145E-11
 -1      7188-4.32327E-02-3.76364E-04 1.33978E+02-4.25798E-11 3.40054E+02 6.62324E-11
 -1      7189-5.80137E-04-2.44042E-04 5.36364E+01-2.27749E-11 3.00888E+02 5.45794E-11
 -1      7190-5.42975E-04-2.34288E-04 5.36414E+01 2.75427E-04 3.01989E+02 2.82879E+00
 -1      7191-2.39689E-02 1.34932E-03 1.07201E+02-7.71200E-12 2.98367E+02 4.93372E-11
 -1      7192-9.38529E-04-6.88457E-04 5.36397E+01-6.65571E-11 3.40045E+02 4.31520E-11
 -1      7193 4.89325E-02-1.81261E-03-5.34708E+01-1.43860E-10 3.00896E+02 7.52477E-11
 -1      7194 4.37099E-02-3.83358E-03-5.34749E+01-7.47463E-03 3.01996E+02 2.83329E+00
 -1      7195 2.23329E-02-1.95140E-03 8.16655E-02-6.02440E-11 2.98367E+02 7.56477E-11
 -1      7196 3.85431E-02-2.98427E-03-2.66990E+01-4.11853E-11 3.40054E+02 4.16946E-11
 -1      7197 1.13473E-01-5.95056E-03-1.60601E+02 2.49155E-11 3.00927E+02 6.75940E-11
 -1      7198 1.01077E-01-1.08631E-02-1.60613E+02-2.04319E-02 3.02025E+02 2.84882E+00
 -1      7199 7.44098E-02-7.56289E-03-1.07050E+02-2.81897E-11 2.98386E+02 6.32346E-11
 -1      7200 8.97469E-02-8.56928E-03-1.07055E+02-2.49282E-11 3.40087E+02 6.04536E-11
 -1      7201 2.11574E-01-1.45980E-02-2.67788E+02-2.83530E-11 3.01001E+02 4.87017E-11
 -1      7202 1.87624E-01-2.44091E-02-2.67806E+02-4.61225E-02 3.02093E+02 2.88139E+00
 -1      7203 1.49197E-01-1.81228E-02-2.14222E+02 1.59076E-11 2.98437E+02 1.00707E-10
 -1      7204 1.67955E-01-1.97208E-02-1.87453E+02-4.63066E-11 3.40165E+02 5.05398E-11
 -1      7205 3.62225E-01-3.02043E-02-3.75087E+02 7.10386E-11 3.01159E+02 3.48886E-11
 -1      7206 3.19281E-01-4.85136E-02-3.75107E+02-9.71725E-02 3.02241E+02 2.94250E+00
 -1      7207 2.64386E-01-3.73537E-02-3.21482E+02 4.46286E-11 2.98550E+02 4.73527E-11
 -1      7208 2.89467E-01-3.93715E-02-2.67935E+02 4.47291E-11 3.40334E+02 3.75825E-11
 -1      7209 5.78174E-01-5.38328E-02-4.82599E+02 3.53251E-11 3.01479E+02 4.53420E-11
 -1      7210 5.05390E-01-8.63921E-02-4.82611E+02-1.95260E-01 3.02541E+02 3.05088E+00
 -1      7211 4.35373E-01-6.93710E-02-4.28907E+02 6.99392E-11 2.98785E+02 3.47299E-11
 -1      7212 4.67209E-01-6.92297E-02-3.48574E+02-8.68749E-12 3.40678E+02-8.61158E-12
 -1      7213 8.44633E-01-7.88503E-02-5.90497E+02 1.19164E-10 3.02098E+02 4.81704E-12
 -1      7214 7.28608E-01-1.34145E-01-5.90484E+02-3.76566E-01 3.03120E+02 3.23365E+00
 -1      7215 6.62395E-01-1.15272E-01-5.36637E+02 4.87157E-11 2.99248E+02 2.50323E-11
 -1      7216 6.95287E-01-1.03930E-01-4.29505E+02 3.11652E-11 3.41348E+02-1.88245E-12
 -1      7217 1.06360E+00-7.65567E-02-6.99078E+02 1.08819E-10 3.03240E+02-1.86270E-11
 -1      7218 8.94510E-01-1.64824E-01-6.99008E+02-6.98499E-01 3.04192E+02 3.52444E+00
 -1      7219 8.95755E-01-1.62615E-01-6.44906E+02 9.81380E-11 3.00118E+02-8.26812E-12
 -1      7220 9.07809E-01-1.17455E-01-5.10962E+02 5.17705E-11 3.42610E+02-3.50791E-11
 -1      7221 9.31558E-01 3.45440E-02-8.08826E+02 2.66115E-10 3.05262E+02-4.00260E-11
 -1      7222 7.17195E-01-9.69654E-02-8.08643E+02-1.24594E+00 3.06091E+02 3.95153E+00
 -1      7223 9.52017E-01-1.63802E-01-7.54103E+02 1.43928E-10 3.01690E+02-4.05822E-11
 -1      7224 8.82366E-01-4.07292E-02-5.93351E+02 3.69164E-10 3.44900E+02-5.08127E-11
 -1      7225-3.57398E-01 4.02104E-01-9.20538E+02 2.76732E-11 3.08694E+02-7.90101E-11
 -1      7226-5.39178E-01 2.35332E-01-9.20138E+02-2.13115E+00 3.09318E+02 4.50160E+00
 -1      7227 3.33879E-01 6.64045E-03-8.64832E+02 1.67155E-10 3.04407E+02-5.49871E-11
 -1      7228 2.24945E-02 2.57662E-01-6.77352E+02 2.86057E-11 3.48910E+02-7.69291E-11
 -1      7229-4.63135E+00 1.23542E+00-1.03527E+03-2.62474E-10 3.14281E+02-1.08961E-10
 -1      7230-4.56495E+00 1.07028E+00-1.03451E+03-3.47587E+00 3.14581E+02 5.02623E+00
 -1      7231-2.17732E+00 5.52530E-01-9.78009E+02-1.08707E-11 3.08940E+02-1.19354E-10
 -1      7232-3.11355E+00 8.52080E-01-7.64027E+02-2.24558E-10 3.55681E+02-1.25289E-10
 -1      7233-1.62544E+01 2.00577E+00-1.15488E+03 2.76015E-11 3.23200E+02-1.50809E-10
 -1      7234-1.53283E+01 2.01933E+00-1.15353E+03-5.34612E+00 3.23022E+02 5.03604E+00
 -1      7235-9.24158E+00 1.66864E+00-1.09460E+03-8.60897E-11 3.16205E+02-1.13116E-10
 -1      7236-1.16867E+01 1.35591E+00-8.54585E+02-3.66892E-11 3.66593E+02-1.44828E-10
 -1      7237-4.32816E+01 4.94248E-01-1.27866E+03-4.71237E-12 3.37178E+02-1.52686E-10
 -1      7238-4.02417E+01 1.09059E+00-1.27649E+03-7.60841E+00 3.36374E+02 3.35529E+00
 -1      7239-2.68465E+01 2.28355E+00-1.21562E+03 1.88003E-11 3.27857E+02-1.70039E-10
 -1      7240-3.26212E+01-1.82246E+00-9.49433E+02 8.56870E-13 3.83168E+02-1.68161E-10
 -1      7241-1.06123E+02-2.10236E+01-1.41099E+03-5.45669E-11 3.62388E+02-1.54235E-10
 -1      7242-9.96796E+01-1.95385E+01-1.40855E+03-9.67506E+00 3.60838E+02-2.31457E+00
 -1      7243-6.52475E+01-2.98129E+00-1.33616E+03 1.97148E-11 3.46598E+02-1.45012E-10
 -1      7244-7.73867E+01-1.85428E+01-1.04274E+03-5.82771E-11 4.05492E+02-1.75774E-10
 -1      7245-2.16353E+02-8.88415E+01-1.50388E+03-3.49630E-11 3.93354E+02-1.84753E-10
 -1      7246-2.05937E+02-8.59359E+01-1.50171E+03-1.03386E+01 3.91079E+02-1.34822E+01
 -1      7247-1.46337E+02-3.77832E+01-1.44887E+03-7.77794E-11 3.75894E+02-1.82843E-10
 -1      7248-1.61886E+02-8.46686E+01-1.10447E+03-5.03251E-11 4.21870E+02-1.78112E-10
 -1      7249-4.00817E+02-3.14631E+02-1.49079E+03 7.96079E-11 4.22817E+02-1.93858E-10
 -1      7250-3.92470E+02-3.12062E+02-1.48946E+03-7.58811E+00 4.20340E+02-2.78464E+01
 -1      7251-2.93747E+02-1.76360E+02-1.49970E+03-4.89430E-12 4.07277E+02-1.92438E-10
 -1      7252-2.89231E+02-2.37427E+02-1.07687E+03 1.00521E-10 3.88467E+02-1.81037E-10
 -1      7253-6.28034E+02-6.28037E+02-1.37079E+03 2.71502E-11 2.12475E+02-2.07925E-10
 -1      7254-6.26223E+02-6.26220E+02-1.36686E+03-1.94783E-04 2.10662E+02-3.55415E+01
 -1      7255-5.05472E+02-4.71543E+02-1.41550E+03-3.86425E-11 3.34108E+02-1.90242E-10
 -1      7256-4.47907E+02-4.47906E+02-9.77651E+02-5.57071E-11 1.68403E+02-2.00925E-10
 -1      7257 6.68629E+02 6.68631E+02 1.45939E+03 3.52681E-04 2.16152E+02 7.77773E+01
 -1      7258 4.17225E+02 3.38269E+02 1.59941E+03-1.58650E+01 4.23355E+02 6.18691E+01
 -1      7259 6.69748E+02 6.69745E+02 1.46187E+03-1.91856E-04 2.22645E+02 3.81655E+01
 -1      7260 4.19417E+02 3.35775E+02 1.59469E+03-7.44671E+00 4.30422E+02 3.00825E+01
 -1      7261 4.88772E+02 4.88771E+02 1.06685E+03-3.90623E-04 1.68916E+02 5.91932E+01
 -1      7262 5.32493E+02 5.02472E+02 1.51438E+03-8.99152E+00 3.36698E+02 7.08980E+01
 -1      7263 3.08069E+02 2.62513E+02 1.18398E+03-1.71163E+01 3.86563E+02 4.72185E+01
 -1      7264 2.14842E+02 9.93912E+01 1.61670E+03-2.11614E+01 3.88158E+02 2.95569E+01
 -1      7265 2.19655E+02 9.55894E+01 1.61290E+03-1.01139E+01 3.94677E+02 1.46694E+01
 -1      7266 2.94112E+02 1.89374E+02 1.60714E+03-1.93995E+01 4.04953E+02 4.51648E+01
 -1      7267 1.64397E+02 9.72991E+01 1.21689E+03-2.40814E+01 4.16098E+02 2.23086E+01
 -1      7268 9.87915E+01 2.46151E+01 1.51835E+03-1.93622E+01 3.56391E+02 4.55075E+00
 -1      7269 1.05440E+02 2.31012E+01 1.52066E+03-9.44305E+00 3.60965E+02 2.59206E+00
 -1      7270 1.39624E+02 4.31028E+01 1.55661E+03-2.07605E+01 3.70275E+02 1.58599E+01
 -1      7271 7.34303E+01 2.32060E+01 1.15169E+03-2.26460E+01 3.99213E+02 2.92644E+00
 -1      7272 3.74723E+01 2.50756E-01 1.38275E+03-1.50593E+01 3.32672E+02-7.80100E+00
 -1      7273 4.17752E+01-2.66719E-01 1.38739E+03-7.42258E+00 3.35131E+02-3.55375E+00
 -1      7274 5.86657E+01 4.90939E+00 1.44145E+03-1.73614E+01 3.41226E+02-2.03531E+00
 -1      7275 2.88710E+01 3.12352E+00 1.05586E+03-1.76728E+01 3.78581E+02-6.39038E+00
 -1      7276 1.31571E+01-1.93588E+00 1.25894E+03-1.04919E+01 3.21048E+02-1.09933E+01
 -1      7277 1.51832E+01-2.13467E+00 1.26331E+03-5.22065E+00 3.21659E+02-5.36148E+00
 -1      7278 2.26307E+01-1.82670E+00 1.31988E+03-1.27144E+01 3.24533E+02-9.34550E+00
 -1      7279 9.47828E+00-1.23084E+00 9.60534E+02-1.22830E+01 3.64527E+02-8.54880E+00
 -1      7280 2.93632E+00-1.46151E+00 1.14002E+03-6.78843E+00 3.14285E+02-1.07365E+01
 -1      7281 3.90513E+00-1.45767E+00 1.14334E+03-3.40112E+00 3.13502E+02-5.32051E+00
 -1      7282 6.96321E+00-1.75737E+00 1.19906E+03-8.51967E+00 3.15163E+02-1.07315E+01
 -1      7283 1.77967E+00-1.17202E+00 8.70113E+02-7.91142E+00 3.55917E+02-8.08450E+00
 -1      7284-5.13432E-01-6.57057E-01 1.02609E+03-4.15579E+00 3.10308E+02-9.44114E+00
 -1      7285-1.31589E-01-6.17137E-01 1.02831E+03-2.09111E+00 3.08584E+02-4.71786E+00
 -1      7286 9.49536E-01-8.05670E-01 1.08320E+03-5.35648E+00 3.09782E+02-9.94742E+00
 -1      7287-7.84079E-01-6.40456E-01 7.83748E+02-4.82483E+00 3.50853E+02-6.90125E+00
 -1      7288-1.37352E+00-2.42386E-01 9.15002E+02-2.42873E+00 3.07960E+02-8.16190E+00
 -1      7289-1.23667E+00-1.95111E-01 9.16403E+02-1.22678E+00 3.05638E+02-4.09264E+00
 -1      7290-9.72246E-01-2.53377E-01 9.70712E+02-3.20300E+00 3.06590E+02-8.69840E+00
 -1      7291-1.31182E+00-2.75581E-01 7.00030E+02-2.81281E+00 3.47986E+02-5.79850E+00
 -1      7292-1.27720E+00-6.68892E-02 8.05687E+02-1.36312E+00 3.06615E+02-7.18809E+00
 -1      7293-1.24554E+00-3.11426E-02 8.06528E+02-6.90631E-01 3.03935E+02-3.60882E+00
 -1      7294-1.27571E+00-2.33102E-02 8.60505E+02-1.83449E+00 3.04744E+02-7.60642E+00
 -1      7295-1.14015E+00-1.03914E-01 6.17853E+02-1.57686E+00 3.46408E+02-4.97829E+00
 -1      7296-9.40135E-01-9.94978E-03 6.97384E+02-7.36461E-01 3.05872E+02-6.53345E+00
 -1      7297-9.44539E-01 1.42301E-02 6.97874E+02-3.74200E-01 3.02985E+02-3.28038E+00
 -1      7298-1.05062E+00 3.92384E-02 7.51661E+02-1.01055E+00 3.03704E+02-6.81902E+00
 -1      7299-8.13956E-01-3.52285E-02 5.36544E+02-8.51907E-01 3.45566E+02-4.43364E+00
 -1      7300-6.14507E-01 3.84732E-03 5.89656E+02-3.83177E-01 3.05476E+02-6.12623E+00
 -1      7301-6.28015E-01 1.86165E-02 5.89936E+02-1.95227E-01 3.02476E+02-3.07479E+00
 -1      7302-7.29717E-01 4.15667E-02 6.43616E+02-5.36117E-01 3.03140E+02-6.30578E+00
 -1      7303-5.22457E-01-1.08644E-02 4.55710E+02-4.43641E-01 3.45130E+02-4.09741E+00
 -1      7304-3.70905E-01 4.77284E-03 4.82245E+02-1.91636E-01 3.05275E+02-5.88745E+00
 -1      7305-3.83431E-01 1.32412E-02 4.82404E+02-9.79119E-02 3.02213E+02-2.95366E+00
 -1      7306-4.59264E-01 2.91838E-02 5.36022E+02-2.73741E-01 3.02845E+02-5.99375E+00
 -1      7307-3.11268E-01-2.81187E-03 3.75132E+02-2.22255E-01 3.44912E+02-3.90129E+00
 -1      7308-2.08918E-01 3.34285E-03 3.75003E+02-9.16481E-02 3.05176E+02-5.75461E+00
 -1      7309-2.17891E-01 7.88596E-03 3.75092E+02-4.69634E-02 3.02084E+02-2.88599E+00
 -1      7310-2.68478E-01 1.75969E-02 4.28676E+02-1.34099E-01 3.02698E+02-5.81433E+00
 -1      7311-1.73547E-01-1.73331E-04 2.94689E+02-1.06539E-01 3.44807E+02-3.79262E+00
 -1      7312-1.07768E-01 2.10433E-03 2.67847E+02-4.11642E-02 3.05130E+02-5.68501E+00
 -1      7313-1.13205E-01 4.33542E-03 2.67896E+02-2.11566E-02 3.02023E+02-2.85041E+00
 -1      7314-1.45717E-01 9.80564E-03 3.21462E+02-6.24532E-02 3.02627E+02-5.71664E+00
 -1      7315-8.87950E-02 6.58887E-04 2.14314E+02-4.79560E-02 3.44758E+02-3.73588E+00
 -1      7316-4.47130E-02 1.14799E-03 1.60734E+02-1.56778E-02 3.05110E+02-5.65243E+00
 -1      7317-4.72762E-02 2.00633E-03 1.60758E+02-8.07445E-03 3.01996E+02-2.83370E+00
 -1      7318-6.97063E-02 5.01353E-03 2.14314E+02-2.65568E-02 3.02595E+02-5.66735E+00
 -1      7319-3.67078E-02 5.79593E-04 1.33971E+02-1.82270E-02 3.44738E+02-3.70942E+00
 -1      7320-3.26075E-04-1.56732E-04 5.36372E+01-5.55018E-04 3.05105E+02-5.64290E+00
 -1      7321-5.42975E-04-2.34288E-04 5.36414E+01-2.75428E-04 3.01989E+02-2.82879E+00
 -1      7322-2.03352E-02 1.62189E-03 1.07197E+02-7.56607E-03 3.02583E+02-5.64706E+00
 -1      7323-6.47943E-04-5.75813E-04 5.36405E+01-4.46235E-04 3.44732E+02-3.70171E+00
 -1      7324 4.17538E-02-2.86094E-03-5.34602E+01 1.44676E-02 3.05111E+02-5.65171E+00
 -1      7325 4.37099E-02-3.83358E-03-5.34749E+01 7.47463E-03 3.01996E+02-2.83329E+00
 -1      7326 1.92593E-02-2.10497E-03 8.76429E-02 6.42800E-03 3.02583E+02-5.64673E+00
 -1      7327 3.30290E-02-3.67271E-03-2.66901E+01 1.72581E-02 3.44738E+02-3.70879E+00
 -1      7328 9.68159E-02-8.67280E-03-1.60574E+02 3.96970E-02 3.05132E+02-5.68210E+00
 -1      7329 1.01077E-01-1.08631E-02-1.60613E+02 2.04319E-02 3.02025E+02-2.84882E+00
 -1      7330 6.39112E-02-8.28338E-03-1.07030E+02 2.52310E-02 3.02596E+02-5.66565E+00
 -1      7331 7.69117E-02-1.04287E-02-1.07033E+02 4.67950E-02 3.44761E+02-3.73315E+00
 -1      7332 1.80931E-01-2.02833E-02-2.67728E+02 8.99355E-02 3.05186E+02-5.74595E+00
 -1      7333 1.87624E-01-2.44091E-02-2.67806E+02 4.61225E-02 3.02093E+02-2.88139E+00
 -1      7334 1.28360E-01-1.99291E-02-2.14177E+02 6.08498E-02 3.02633E+02-5.71112E+00
 -1      7335 1.44350E-01-2.36602E-02-1.87405E+02 1.05212E-01 3.44816E+02-3.78419E+00
 -1      7336 3.10882E-01-4.12696E-02-3.74964E+02 1.90107E-01 3.05303E+02-5.86614E+00
 -1      7337 3.19281E-01-4.85136E-02-3.75107E+02 9.71725E-02 3.02241E+02-2.94250E+00
 -1      7338 2.28208E-01-4.13652E-02-3.21387E+02 1.32402E-01 3.02716E+02-5.79992E+00
 -1      7339 2.49878E-01-4.71137E-02-2.67836E+02 2.21134E-01 3.44937E+02-3.88017E+00
 -1      7340 4.98796E-01-7.44334E-02-4.82356E+02 3.83165E-01 3.05541E+02-6.08009E+00
 -1      7341 5.05390E-01-8.63921E-02-4.82611E+02 1.95260E-01 3.02541E+02-3.05088E+00
 -1      7342 3.77560E-01-7.77540E-02-4.28719E+02 2.72764E-01 3.02890E+02-5.96118E+00
 -1      7343 4.05797E-01-8.37504E-02-3.48381E+02 4.43843E-01 3.45188E+02-4.05120E+00
 -1      7344 7.34791E-01-1.15681E-01-5.90037E+02 7.41092E-01 3.06006E+02-6.44263E+00
 -1      7345 7.28608E-01-1.34145E-01-5.90484E+02 3.76566E-01 3.03120E+02-3.23365E+00
 -1      7346 5.78496E-01-1.31977E-01-5.36277E+02 5.37968E-01 3.03236E+02-6.23946E+00
 -1      7347 6.09637E-01-1.30058E-01-4.29139E+02 8.56003E-01 3.45683E+02-4.34197E+00
 -1      7348 9.40608E-01-1.39708E-01-6.98241E+02 1.37876E+00 3.06869E+02-7.02301E+00
 -1      7349 8.94510E-01-1.64824E-01-6.99008E+02 6.98499E-01 3.04192E+02-3.52444E+00
 -1      7350 7.92039E-01-1.94713E-01-6.44246E+02 1.01978E+00 3.03892E+02-6.69480E+00
 -1      7351 8.10031E-01-1.62408E-01-5.10294E+02 1.59003E+00 3.46625E+02-4.81059E+00
 -1      7352 8.69785E-01-6.81534E-02-8.07363E+02 2.46705E+00 3.08405E+02-7.88394E+00
 -1      7353 7.17195E-01-9.69654E-02-8.08643E+02 1.24594E+00 3.06091E+02-3.95153E+00
 -1      7354 8.68714E-01-2.23018E-01-7.52943E+02 1.85986E+00 3.05084E+02-7.39087E+00
 -1      7355 8.27164E-01-1.13937E-01-5.92184E+02 2.84445E+00 3.48360E+02-5.51441E+00
 -1      7356-1.48228E-01 2.46027E-01-9.18102E+02 4.23617E+00 3.11028E+02-9.01168E+00
 -1      7357-5.39178E-01 2.35332E-01-9.20138E+02 2.13115E+00 3.09318E+02-4.50160E+00
 -1      7358 3.95373E-01-9.92881E-02-8.62885E+02 3.25979E+00 3.07157E+02-8.35320E+00
 -1      7359 1.67244E-01 1.47507E-01-6.75406E+02 4.89033E+00 3.51445E+02-6.45953E+00
 -1      7360-3.61726E+00 1.03079E+00-1.03146E+03 6.93910E+00 3.15341E+02-1.01447E+01
 -1      7361-4.56495E+00 1.07028E+00-1.03451E+03 3.47587E+00 3.14581E+02-5.02623E+00
 -1      7362-1.64099E+00 3.75303E-01-9.74932E+02 5.46850E+00 3.10648E+02-9.44725E+00
 -1      7363-2.36480E+00 7.12602E-01-7.60979E+02 8.03275E+00 3.56759E+02-7.47130E+00
 -1      7364-1.33889E+01 1.76985E+00-1.14950E+03 1.07459E+01 3.22377E+02-1.03253E+01
 -1      7365-1.53283E+01 2.01933E+00-1.15353E+03 5.34612E+00 3.23022E+02-5.03604E+00
 -1      7366-7.51341E+00 1.39354E+00-1.09011E+03 8.71844E+00 3.16330E+02-1.01091E+01
 -1      7367-9.53265E+00 1.21279E+00-8.50259E+02 1.24850E+01 3.65536E+02-7.84926E+00
 -1      7368-3.61806E+01 5.24233E-01-1.27216E+03 1.54379E+01 3.33880E+02-7.35407E+00
 -1      7369-4.02417E+01 1.09059E+00-1.27649E+03 7.60841E+00 3.36374E+02-3.35529E+00
 -1      7370-2.23387E+01 1.95179E+00-1.20999E+03 1.30298E+01 3.25782E+02-8.78443E+00
 -1      7371-2.72452E+01-1.72534E+00-9.44202E+02 1.79695E+01 3.79372E+02-5.90788E+00
 -1      7372-9.34314E+01-2.10331E+01-1.40629E+03 1.98386E+01 3.56246E+02 4.04418E+00
 -1      7373-9.96796E+01-1.95385E+01-1.40855E+03 9.67506E+00 3.60838E+02 2.31457E+00
 -1      7374-5.59657E+01-3.26805E+00-1.33063E+03 1.77956E+01 3.41814E+02-2.02299E+00
 -1      7375-6.77140E+01-1.83603E+01-1.03895E+03 2.30136E+01 3.98820E+02 2.43953E+00
 -1      7376-2.01383E+02-8.95124E+01-1.50504E+03 2.16268E+01 3.84585E+02 2.71712E+01
 -1      7377-2.05937E+02-8.59359E+01-1.50171E+03 1.03386E+01 3.91079E+02 1.34822E+01
 -1      7378-1.31309E+02-3.74738E+01-1.44544E+03 2.12480E+01 3.68517E+02 1.45087E+01
 -1      7379-1.50419E+02-8.49163E+01-1.10528E+03 2.44372E+01 4.12952E+02 1.99029E+01
 -1      7380-3.90314E+02-3.14290E+02-1.49359E+03 1.61616E+01 4.13335E+02 5.72794E+01
 -1      7381-3.92470E+02-3.12062E+02-1.48946E+03 7.58811E+00 4.20340E+02 2.78464E+01
 -1      7382-2.75279E+02-1.73970E+02-1.49870E+03 1.97974E+01 3.98302E+02 4.17085E+01
 -1      7383-2.81134E+02-2.36975E+02-1.07910E+03 1.73434E+01 3.79401E+02 4.25763E+01
 -1      7384-6.25050E+02-6.25052E+02-1.36427E+03-3.58512E-04 2.04246E+02 7.24293E+01
 -1      7385-6.26223E+02-6.26220E+02-1.36686E+03 1.94783E-04 2.10662E+02 3.55415E+01
 -1      7386-4.97761E+02-4.69031E+02-1.41460E+03 9.14960E+00 3.25368E+02 6.58607E+01
 -1      7387-4.45863E+02-4.45862E+02-9.73190E+02 3.95936E-04 1.60403E+02 5.37753E+01
 -1      7388 6.76338E+02 6.76339E+02 1.47621E+03 6.68221E-04 1.85685E+02 1.69750E+02
 -1      7389 3.65817E+02 3.30986E+02 1.60408E+03-2.98383E+01 3.91357E+02 1.32307E+02
 -1      7390 6.70834E+02 6.70832E+02 1.46424E+03-5.35784E-04 2.04179E+02 1.21164E+02
 -1      7391 3.90850E+02 3.32560E+02 1.59849E+03-2.15561E+01 4.10681E+02 9.45669E+01
 -1      7392 4.95265E+02 4.95265E+02 1.08102E+03-7.57436E-04 1.38755E+02 1.29130E+02
 -1      7393 5.10547E+02 4.98678E+02 1.51819E+03-1.76657E+01 3.05520E+02 1.56286E+02
 -1      7394 2.68584E+02 2.56663E+02 1.18815E+03-3.27340E+01 3.56579E+02 1.01303E+02
 -1      7395 1.47298E+02 9.10779E+01 1.60491E+03-3.88249E+01 3.60618E+02 4.18541E+01
 -1      7396 1.84388E+02 9.47099E+01 1.61111E+03-2.85984E+01 3.77057E+02 3.78111E+01
 -1      7397 2.35118E+02 1.84758E+02 1.61017E+03-3.69133E+01 3.74367E+02 8.48967E+01
 -1      7398 1.12315E+02 8.97271E+01 1.20817E+03-4.50465E+01 3.88094E+02 3.15518E+01
 -1      7399 6.12942E+01 2.27612E+01 1.49668E+03-3.37870E+01 3.37740E+02-1.01770E+00
 -1      7400 8.06128E+01 2.31481E+01 1.50955E+03-2.58430E+01 3.48648E+02 2.84569E+00
 -1      7401 8.85615E+01 3.99892E+01 1.54169E+03-3.71074E+01 3.46923E+02 1.93996E+01
 -1      7402 4.44995E+01 2.09172E+01 1.13445E+03-4.03135E+01 3.78849E+02-1.87704E+00
 -1      7403 1.93266E+01-6.83665E-01 1.35821E+03-2.47223E+01 3.24295E+02-1.75077E+01
 -1      7404 3.00053E+01 3.97670E-01 1.37359E+03-1.97141E+01 3.28958E+02-1.17292E+01
 -1      7405 3.24399E+01 4.05682E+00 1.41786E+03-2.93360E+01 3.27725E+02-9.66096E+00
 -1      7406 1.49104E+01 1.77793E+00 1.03595E+03-2.95119E+01 3.68716E+02-1.42007E+01
 -1      7407 6.22197E+00-1.79174E+00 1.24086E+03-1.66887E+01 3.20534E+02-1.97472E+01
 -1      7408 1.04016E+01-1.55435E+00 1.25183E+03-1.35531E+01 3.20574E+02-1.50830E+01
 -1      7409 1.16037E+01-1.47683E+00 1.29976E+03-2.05299E+01 3.20080E+02-1.81945E+01
 -1      7410 4.24870E+00-1.42490E+00 9.45785E+02-1.98200E+01 3.63347E+02-1.53535E+01
 -1      7411 9.49495E-01-1.11953E+00 1.12794E+03-1.05460E+01 3.19276E+02-1.77598E+01
 -1      7412 2.43494E+00-1.02068E+00 1.13530E+03-8.70241E+00 3.16120E+02-1.41814E+01
 -1      7413 3.03131E+00-1.40188E+00 1.18429E+03-1.33902E+01 3.17443E+02-1.83693E+01
 -1      7414 3.61613E-01-1.07172E+00 8.60262E+02-1.24439E+01 3.60973E+02-1.33531E+01
 -1      7415-6.37768E-01-3.49889E-01 1.01866E+03-6.34175E+00 3.18867E+02-1.50001E+01
 -1      7416-3.10140E-01-3.43283E-01 1.02316E+03-5.29029E+00 3.13672E+02-1.22586E+01
 -1      7417 4.75324E-02-5.24406E-01 1.07354E+03-8.24773E+00 3.16599E+02-1.60742E+01
 -1      7418-7.89801E-01-4.86087E-01 7.77697E+02-7.45033E+00 3.59982E+02-1.09156E+01
 -1      7419-9.40461E-01-2.22505E-02 9.10665E+02-3.65199E+00 3.18708E+02-1.26847E+01
 -1      7420-1.00735E+00-3.31733E-02 9.13311E+02-3.07520E+00 3.12273E+02-1.04884E+01
 -1      7421-8.22849E-01-7.85192E-02 9.64810E+02-4.85282E+00 3.16279E+02-1.36434E+01
 -1      7422-9.16905E-01-1.48761E-01 6.96503E+02-4.27828E+00 3.59619E+02-8.94093E+00
 -1      7423-7.96132E-01 7.43117E-02 8.03271E+02-2.02242E+00 3.18646E+02-1.10383E+01
 -1      7424-9.58064E-01 6.03128E-02 8.04764E+02-1.71707E+00 3.11491E+02-9.18148E+00
 -1      7425-8.64592E-01 8.01408E-02 8.57088E+02-2.74091E+00 3.16158E+02-1.17379E+01
 -1      7426-7.30960E-01-1.68405E-02 6.15890E+02-2.36670E+00 3.59508E+02-7.56106E+00
 -1      7427-5.62867E-01 7.50948E-02 6.96095E+02-1.07868E+00 3.18624E+02-9.97343E+00
 -1      7428-7.11264E-01 6.40718E-02 6.96912E+02-9.23086E-01 3.11066E+02-8.31643E+00
 -1      7429-6.68267E-01 9.67270E-02 7.49771E+02-1.49028E+00 3.16111E+02-1.04341E+01
 -1      7430-5.00513E-01 1.93904E-02 5.35497E+02-1.26249E+00 3.59492E+02-6.67748E+00
 -1      7431-3.59394E-01 5.24121E-02 5.88998E+02-5.53853E-01 3.18620E+02-9.32821E+00
 -1      7432-4.67405E-01 4.48663E-02 5.89434E+02-4.77771E-01 3.10845E+02-7.78404E+00
 -1      7433-4.49297E-01 7.22457E-02 6.42615E+02-7.80434E-01 3.16097E+02-9.61111E+00
 -1      7434-3.13072E-01 2.12495E-02 4.55176E+02-6.49040E-01 3.59503E+02-6.14558E+00
 -1      7435-2.13346E-01 3.12720E-02 4.81925E+02-2.73066E-01 3.18622E+02-8.95758E+00
 -1      7436-2.83107E-01 2.65688E-02 4.82153E+02-2.37581E-01 3.10735E+02-7.47437E+00
 -1      7437-2.76969E-01 4.47825E-02 5.35515E+02-3.93076E-01 3.16096E+02-9.12211E+00
 -1      7438-1.82985E-01 1.51083E-02 3.74873E+02-3.20685E-01 3.59518E+02-5.84144E+00
 -1      7439-1.18575E-01 1.71231E-02 3.74856E+02-1.28527E-01 3.18625E+02-8.75499E+00
 -1      7440-1.59877E-01 1.43778E-02 3.74974E+02-1.12888E-01 3.10683E+02-7.30326E+00
 -1      7441-1.59379E-01 2.51429E-02 4.28432E+02-1.89679E-01 3.16099E+02-8.84608E+00
 -1      7442-1.00431E-01 9.32990E-03 2.94570E+02-1.51380E-01 3.59530E+02-5.67578E+00
 -1      7443-6.04360E-02 8.82714E-03 2.67786E+02-5.67575E-02 3.18627E+02-8.65052E+00
 -1      7444-8.26082E-02 7.32523E-03 2.67845E+02-5.03535E-02 3.10659E+02-7.21415E+00
 -1      7445-8.53717E-02 1.32540E-02 3.21351E+02-8.68795E-02 3.16102E+02-8.69819E+00
 -1      7446-5.06674E-02 5.39546E-03 2.14264E+02-6.70342E-02 3.59538E+02-5.59064E+00
 -1      7447-2.47298E-02 3.94642E-03 1.60713E+02-2.13460E-02 3.18629E+02-8.60233E+00
 -1      7448-3.42837E-02 3.20791E-03 1.60740E+02-1.90773E-02 3.10649E+02-7.17267E+00
 -1      7449-4.03379E-02 6.48952E-03 2.14270E+02-3.63570E-02 3.16105E+02-8.62466E+00
 -1      7450-2.06244E-02 2.64182E-03 1.33954E+02-2.51502E-02 3.59542E+02-5.55152E+00
 -1      7451 1.40192E-04 1.40192E-04 5.36394E+01-9.10031E-04 3.18629E+02-8.58852E+00
 -1      7452-1.93770E-04-9.14984E-05 5.36429E+01-7.28656E-04 3.10647E+02-7.16063E+00
 -1      7453-1.14995E-02 2.16086E-03 1.07186E+02-1.03337E-02 3.16106E+02-8.59480E+00
 -1      7454-9.14987E-05-1.93770E-04 5.36429E+01-7.28655E-04 3.59543E+02-5.54039E+00
 -1      7455 2.37296E-02-4.94668E-03-5.34352E+01 1.93337E-02 3.18629E+02-8.60183E+00
 -1      7456 3.20957E-02-4.72394E-03-5.34543E+01 1.74762E-02 3.10650E+02-7.17193E+00
 -1      7457 1.15034E-02-2.15695E-03 1.02005E-01 8.45881E-03 3.16106E+02-8.59457E+00
 -1      7458 1.91084E-02-4.82983E-03-2.66692E+01 2.35491E-02 3.59542E+02-5.55118E+00
 -1      7459 5.49458E-02-1.43172E-02-1.60510E+02 5.42264E-02 3.18631E+02-8.64745E+00
 -1      7460 7.41725E-02-1.34756E-02-1.60561E+02 4.83719E-02 3.10662E+02-7.21084E+00
 -1      7461 3.76781E-02-9.14934E-03-1.06983E+02 3.41148E-02 3.16106E+02-8.62298E+00
 -1      7462 4.45170E-02-1.38312E-02-1.06980E+02 6.50526E-02 3.59541E+02-5.58788E+00
 -1      7463 1.03338E-01-3.23606E-02-2.67583E+02 1.25384E-01 3.18636E+02-8.74424E+00
 -1      7464 1.38091E-01-3.04597E-02-2.67691E+02 1.10492E-01 3.10693E+02-7.29289E+00
 -1      7465 7.60842E-02-2.25414E-02-2.14067E+02 8.40356E-02 3.16109E+02-8.69159E+00
 -1      7466 8.43494E-02-3.11150E-02-1.87287E+02 1.48984E-01 3.59541E+02-5.66546E+00
 -1      7467 1.79397E-01-6.52216E-02-3.74657E+02 2.69824E-01 3.18650E+02-8.92907E+00
 -1      7468 2.36145E-01-6.14437E-02-3.74869E+02 2.35249E-01 3.10763E+02-7.44821E+00
 -1      7469 1.36706E-01-4.78163E-02-3.21151E+02 1.86391E-01 3.16118E+02-8.82720E+00
 -1      7470 1.48110E-01-6.20703E-02-2.67589E+02 3.18353E-01 3.59545E+02-5.81332E+00
 -1      7471 2.92201E-01-1.19605E-01-4.81736E+02 5.52404E-01 3.18684E+02-9.26369E+00
 -1      7472 3.76539E-01-1.12629E-01-4.82141E+02 4.77125E-01 3.10910E+02-7.72654E+00
 -1      7473 2.29592E-01-9.21594E-02-4.28238E+02 3.90438E-01 3.16141E+02-9.07721E+00
 -1      7474 2.45310E-01-1.12115E-01-3.47883E+02 6.48394E-01 3.59561E+02-6.08102E+00
 -1      7475 4.40831E-01-1.97130E-01-5.88834E+02 1.08372E+00 3.18755E+02-9.84232E+00
 -1      7476 5.49482E-01-1.85173E-01-5.89592E+02 9.28043E-01 3.11199E+02-8.20197E+00
 -1      7477 3.59562E-01-1.61981E-01-5.35340E+02 7.81550E-01 3.16192E+02-9.51651E+00
 -1      7478 3.79411E-01-1.81172E-01-4.28177E+02 1.26745E+00 3.59606E+02-6.54498E+00
 -1      7479 5.91108E-01-2.79335E-01-6.95999E+02 2.04392E+00 3.18891E+02-1.07934E+01
 -1      7480 6.91874E-01-2.60379E-01-6.97381E+02 1.73577E+00 3.11740E+02-8.97140E+00
 -1      7481 5.11358E-01-2.53637E-01-6.42489E+02 1.50216E+00 3.16294E+02-1.02520E+01
 -1      7482 5.30894E-01-2.49349E-01-5.08507E+02 2.38540E+00 3.59718E+02-7.31165E+00
 -1      7483 6.23915E-01-2.94295E-01-8.03351E+02 3.70884E+00 3.19132E+02-1.22609E+01
 -1      7484 6.07106E-01-2.69248E-01-8.05797E+02 3.12286E+00 3.12708E+02-1.01311E+01
 -1      7485 6.11237E-01-3.33496E-01-7.49779E+02 2.77753E+00 3.16482E+02-1.14135E+01
 -1      7486 6.14484E-01-2.51480E-01-5.88988E+02 4.32593E+00 3.59977E+02-8.50619E+00
 -1      7487 2.00828E-01-8.70510E-02-9.11234E+02 6.46653E+00 3.19544E+02-1.43231E+01
 -1      7488-2.20436E-01-6.11597E-02-9.15396E+02 5.39265E+00 3.14372E+02-1.16994E+01
 -1      7489 4.50458E-01-2.93871E-01-8.57427E+02 4.93939E+00 3.16814E+02-1.31084E+01
 -1      7490 3.85358E-01-4.44887E-02-6.69933E+02 7.55269E+00 3.60542E+02-1.02162E+01
 -1      7491-1.45065E+00 6.18375E-01-1.02028E+03 1.07887E+01 3.20256E+02-1.67803E+01
 -1      7492-2.99042E+00 5.88394E-01-1.02709E+03 8.89807E+00 3.17140E+02-1.33965E+01
 -1      7493-5.23119E-01 4.88197E-02-9.65991E+02 8.42528E+00 3.17405E+02-1.52679E+01
 -1      7494-7.93901E-01 5.16242E-01-7.52057E+02 1.26395E+01 3.61758E+02-1.23332E+01
 -1      7495-6.54540E+00 1.46831E+00-1.13270E+03 1.71141E+01 3.21747E+02-1.85342E+01
 -1      7496-1.06275E+01 1.35505E+00-1.14289E+03 1.38897E+01 3.21849E+02-1.41599E+01
 -1      7497-3.49055E+00 9.42635E-01-1.07640E+03 1.37170E+01 3.18516E+02-1.72969E+01
 -1      7498-4.44800E+00 1.19906E+00-8.36840E+02 2.01565E+01 3.64270E+02-1.40775E+01
 -1      7499-1.88750E+01 1.13530E+00-1.24920E+03 2.53863E+01 3.25363E+02-1.64403E+01
 -1      7500-2.90205E+01 2.92678E-01-1.26357E+03 2.02281E+01 3.30103E+02-1.10374E+01
 -1      7501-1.16551E+01 1.42540E+00-1.19120E+03 2.10703E+01 3.21201E+02-1.70731E+01
 -1      7502-1.42201E+01-7.93126E-01-9.25938E+02 3.00258E+01 3.69407E+02-1.30556E+01
 -1      7503-5.81245E+01-1.95915E+01-1.38563E+03 3.46725E+01 3.37504E+02-1.25410E+00
 -1      7504-7.63115E+01-1.97665E+01-1.39788E+03 2.65088E+01 3.48464E+02 2.39423E+00
 -1      7505-3.11372E+01-2.75406E+00-1.30839E+03 3.01186E+01 3.28193E+02-9.19273E+00
 -1      7506-4.11179E+01-1.66158E+01-1.02277E+03 4.09793E+01 3.78397E+02-2.06085E+00
 -1      7507-1.38119E+02-8.18989E+01-1.49315E+03 3.97258E+01 3.57120E+02 3.83563E+01
 -1      7508-1.72848E+02-8.51759E+01-1.49943E+03 2.92625E+01 3.73520E+02 3.47189E+01
 -1      7509-8.33957E+01-3.48235E+01-1.43087E+03 3.80340E+01 3.45152E+02 1.76285E+01
 -1      7510-1.02781E+02-7.81874E+01-1.09649E+03 4.57106E+01 3.85002E+02 2.80144E+01
 -1      7511-3.41975E+02-3.07144E+02-1.49683E+03 3.04157E+01 3.81584E+02 1.22534E+02
 -1      7512-3.65555E+02-3.08812E+02-1.49227E+03 2.19791E+01 4.00769E+02 8.75661E+01
 -1      7513-2.19933E+02-1.69573E+02-1.50047E+03 3.76964E+01 3.67880E+02 7.84107E+01
 -1      7514-2.44836E+02-2.31368E+02-1.08193E+03 3.31571E+01 3.49579E+02 9.13905E+01
 -1      7515-6.31667E+02-6.31668E+02-1.37871E+03-6.78927E-04 1.74032E+02 1.58097E+02
 -1      7516-6.26870E+02-6.26868E+02-1.36828E+03 5.44742E-04 1.92386E+02 1.12842E+02
 -1      7517-4.76749E+02-4.64880E+02-1.41695E+03 1.79825E+01 2.94447E+02 1.45213E+02
 -1      7518-4.51300E+02-4.51301E+02-9.85061E+02 7.66394E-04 1.30434E+02 1.17337E+02
 -1      7519 6.54499E+02 6.54497E+02 1.42853E+03 7.97158E-04 1.25057E+02 2.91436E+02
 -1      7520 2.83511E+02 3.50167E+02 1.70600E+03-5.19834E+01 3.12292E+02 1.98347E+02
 -1      7521 6.52675E+02 6.52675E+02 1.42461E+03-8.37292E-04 1.61512E+02 2.22217E+02
 -1      7522 2.84178E+02 3.20124E+02 1.63249E+03-3.17853E+01 3.59844E+02 1.49504E+02
 -1      7523 4.79366E+02 4.79369E+02 1.04633E+03-8.06944E-04 7.96890E+01 2.22165E+02
 -1      7524 3.57166E+02 4.59574E+02 1.54361E+03-2.08084E+01 2.36909E+02 2.50100E+02
 -1      7525 2.07745E+02 2.69019E+02 1.26691E+03-5.55001E+01 2.80586E+02 1.52144E+02
 -1      7526 2.69619E+01 5.82628E+01 1.54566E+03-4.55062E+01 3.07672E+02 2.07804E+01
 -1      7527 1.10349E+02 8.75579E+01 1.59475E+03-4.09544E+01 3.37193E+02 3.96012E+01
 -1      7528 9.96558E+01 1.48222E+02 1.56445E+03-5.09700E+01 3.10678E+02 8.50662E+01
 -1      7529 2.13308E+01 6.21614E+01 1.16347E+03-5.36709E+01 3.34121E+02 1.57418E+01
 -1      7530 1.59903E+01 9.43714E+00 1.42800E+03-3.40198E+01 3.08834E+02-1.95515E+01
 -1      7531 3.96602E+01 1.81914E+01 1.46789E+03-3.31587E+01 3.24429E+02-7.99201E+00
 -1      7532 1.51166E+01 2.33083E+01 1.48524E+03-4.03604E+01 3.04932E+02 1.30763E+00
 -1      7533 1.00830E+01 8.26419E+00 1.08095E+03-4.15538E+01 3.47518E+02-1.61815E+01
 -1      7534 2.12110E+00-5.49857E+00 1.31176E+03-2.28498E+01 3.16491E+02-2.32295E+01
 -1      7535 1.31981E+01-3.82124E-01 1.34052E+03-2.37672E+01 3.19738E+02-1.96560E+01
 -1      7536 5.98573E+00-2.08262E+00 1.36495E+03-2.83285E+01 3.09688E+02-2.04296E+01
 -1      7537 1.91698E+00-3.33366E+00 9.98735E+02-2.78128E+01 3.58959E+02-1.86458E+01
 -1      7538 7.55886E-01-3.58417E+00 1.21082E+03-1.45758E+01 3.26338E+02-2.01384E+01
 -1      7539 4.17110E+00-1.67680E+00 1.22785E+03-1.56713E+01 3.22156E+02-1.99207E+01
 -1      7540 1.31980E+00-4.53368E+00 1.26214E+03-1.84688E+01 3.19201E+02-2.05392E+01
 -1      7541 3.12263E-01-3.57353E+00 9.21664E+02-1.76151E+01 3.68345E+02-1.56751E+01
 -1      7542-1.21694E-01-1.76344E+00 1.11001E+03-8.86876E+00 3.33637E+02-1.60662E+01
 -1      7543 7.69973E-01-9.06820E-01 1.11994E+03-9.78330E+00 3.24861E+02-1.70726E+01
 -1      7544 7.11877E-02-2.71321E+00 1.16049E+03-1.14948E+01 3.27667E+02-1.74787E+01
 -1      7545-2.57322E-01-1.95734E+00 8.45823E+02-1.06349E+01 3.75401E+02-1.21035E+01
 -1      7546-2.31557E-01-5.63921E-01 1.00834E+03-5.17547E+00 3.38324E+02-1.26858E+01
 -1      7547-3.05845E-01-2.20476E-01 1.01389E+03-5.82056E+00 3.26890E+02-1.40569E+01
 -1      7548-3.30384E-01-1.17508E+00 1.05930E+03-6.84710E+00 3.33602E+02-1.39670E+01
 -1      7549-3.28603E-01-8.53619E-01 7.69396E+02-6.17528E+00 3.80089E+02-9.22354E+00
 -1      7550-2.22003E-01-7.73924E-02 9.04998E+02-2.90362E+00 3.41098E+02-1.02784E+01
 -1      7551-5.36975E-01 5.66524E-02 9.07997E+02-3.32270E+00 3.28162E+02-1.16952E+01
 -1      7552-3.56533E-01-3.85006E-01 9.56709E+02-3.91826E+00 3.37265E+02-1.12462E+01
 -1      7553-2.70626E-01-2.94962E-01 6.91941E+02-3.45587E+00 3.83008E+02-7.20755E+00
 -1      7554-1.62904E-01 7.16240E-02 8.00281E+02-1.56919E+00 3.42661E+02-8.70996E+00
 -1      7555-4.71464E-01 1.16792E-01 8.01848E+02-1.82480E+00 3.28910E+02-1.00747E+01
 -1      7556-2.82830E-01-7.08826E-02 8.52666E+02-2.15821E+00 3.39399E+02-9.36003E+00
 -1      7557-1.87778E-01-7.17176E-02 6.13483E+02-1.86669E+00 3.84723E+02-5.90740E+00
 -1      7558-1.07844E-01 8.52420E-02 6.94587E+02-8.16722E-01 3.43507E+02-7.75031E+00
 -1      7559-3.39305E-01 9.64735E-02 6.95380E+02-9.65271E-01 3.29328E+02-9.04842E+00
 -1      7560-1.93688E-01 2.31393E-02 7.47458E+02-1.14529E+00 3.40583E+02-8.15820E+00
 -1      7561-1.18808E-01 9.65365E-04 5.34282E+02-9.72600E-01 3.85685E+02-5.11718E+00
 -1      7562-6.60595E-02 6.24152E-02 5.88275E+02-4.08634E-01 3.43949E+02-7.19269E+00
 -1      7563-2.19169E-01 6.21879E-02 5.88665E+02-4.91296E-01 3.29555E+02-8.43615E+00
 -1      7564-1.21714E-01 3.57910E-02 6.41459E+02-5.84940E-01 3.41217E+02-7.43467E+00
 -1      7565-7.02651E-02 1.62579E-02 4.54593E+02-4.87769E-01 3.86201E+02-4.66001E+00
 -1      7566-3.80888E-02 3.81394E-02 4.81599E+02-1.95717E-01 3.44172E+02-6.88336E+00
 -1      7567-1.31257E-01 3.52136E-02 4.81786E+02-2.39867E-01 3.29674E+02-8.08880E+00
 -1      7568-7.15406E-02 2.66831E-02 5.34966E+02-2.86693E-01 3.41544E+02-7.02035E+00
 -1      7569-3.92892E-02 1.44921E-02 3.74610E+02-2.34451E-01 3.86467E+02-4.40718E+00
 -1      7570-2.06532E-02 2.11280E-02 3.74720E+02-8.90793E-02 3.44280E+02-6.71953E+00
 -1      7571-7.34701E-02 1.84115E-02 3.74809E+02-1.11636E-01 3.29733E+02-7.90102E+00
 -1      7572-3.96630E-02 1.61260E-02 4.28187E+02-1.34100E-01 3.41707E+02-6.79369E+00
 -1      7573-2.07471E-02 9.81342E-03 2.94461E+02-1.07209E-01 3.86598E+02-4.27362E+00
 -1      7574-1.02656E-02 1.09401E-02 2.67736E+02-3.78942E-02 3.44329E+02-6.63754E+00
 -1      7575-3.76530E-02 9.10784E-03 2.67778E+02-4.86906E-02 3.29762E+02-7.80517E+00
 -1      7576-2.05687E-02 8.87366E-03 3.21251E+02-5.92544E-02 3.41784E+02-6.67566E+00
 -1      7577-1.00979E-02 6.00554E-03 2.14224E+02-4.58202E-02 3.86658E+02-4.20695E+00
 -1      7578-4.03942E-03 5.01640E-03 1.60700E+02-1.38518E-02 3.44349E+02-6.60079E+00
 -1      7579-1.54516E-02 4.00891E-03 1.60718E+02-1.81398E-02 3.29774E+02-7.76137E+00
 -1      7580-9.42208E-03 4.63754E-03 2.14234E+02-2.39195E-02 3.41818E+02-6.61851E+00
 -1      7581-3.95044E-03 3.24865E-03 1.33944E+02-1.66971E-02 3.86684E+02-4.17720E+00
 -1      7582 2.13301E-04 7.11127E-04 5.36430E+01-8.46850E-04 3.44355E+02-6.59069E+00
 -1      7583 1.14999E-04 3.15389E-04 5.36458E+01-8.75921E-04 3.29777E+02-7.74899E+00
 -1      7584-2.52758E-03 1.96675E-03 1.07180E+02-6.77526E-03 3.41831E+02-6.59592E+00
 -1      7585 1.01165E-04 5.74976E-04 5.36466E+01-6.65042E-04 3.86691E+02-4.16915E+00
 -1      7586 4.21871E-03-4.62797E-03-5.34144E+01 1.19439E-02 3.44350E+02-6.60126E+00
 -1      7587 1.48544E-02-4.60807E-03-5.34269E+01 1.61857E-02 3.29775E+02-7.76125E+00
 -1      7588 2.90185E-03-8.12072E-04 1.15129E-01 5.01344E-03 3.41831E+02-6.59614E+00
 -1      7589 3.88121E-03-3.60184E-03-2.66511E+01 1.52132E-02 3.86685E+02-4.17785E+00
 -1      7590 9.54703E-03-1.42748E-02-1.60452E+02 3.53799E-02 3.44333E+02-6.63708E+00
 -1      7591 3.41514E-02-1.40488E-02-1.60489E+02 4.61772E-02 3.29765E+02-7.80310E+00
 -1      7592 9.23178E-03-5.75923E-03-1.06940E+02 2.17395E-02 3.41820E+02-6.61849E+00
 -1      7593 9.06477E-03-1.16961E-02-1.06932E+02 4.39105E-02 3.86662E+02-4.20683E+00
 -1      7594 1.78835E-02-3.28722E-02-2.67442E+02 8.57292E-02 3.44292E+02-6.71456E+00
 -1      7595 6.36499E-02-3.28771E-02-2.67526E+02 1.08404E-01 3.29745E+02-7.89249E+00
 -1      7596 1.89121E-02-1.58489E-02-2.13961E+02 5.63272E-02 3.41792E+02-6.67299E+00
 -1      7597 1.75822E-02-2.73153E-02-1.87171E+02 1.04751E-01 3.86609E+02-4.26912E+00
 -1      7598 3.11674E-02-6.67130E-02-3.74333E+02 1.91770E-01 3.44202E+02-6.86646E+00
 -1      7599 1.09279E-01-6.81704E-02-3.74514E+02 2.36295E-01 3.29703E+02-8.06476E+00
 -1      7600 3.48924E-02-3.53925E-02-3.20905E+02 1.30388E-01 3.41727E+02-6.78306E+00
 -1      7601 3.19493E-02-5.51371E-02-2.67326E+02 2.31731E-01 3.86495E+02-4.39074E+00
 -1      7602 5.13712E-02-1.22142E-01-4.81035E+02 4.05471E-01 3.44016E+02-7.14981E+00
 -1      7603 1.75540E-01-1.28375E-01-4.81410E+02 4.89021E-01 3.29620E+02-8.37996E+00
 -1      7604 6.07325E-02-6.95287E-02-4.27704E+02 2.82917E-01 3.41591E+02-6.99141E+00
 -1      7605 5.53571E-02-9.88778E-02-3.47321E+02 4.86027E-01 3.86260E+02-4.61717E+00
 -1      7606 7.96244E-02-1.98644E-01-5.87397E+02 8.18183E-01 3.43640E+02-7.65667E+00
 -1      7607 2.59860E-01-2.18167E-01-5.88154E+02 9.68560E-01 3.29459E+02-8.93173E+00
 -1      7608 1.00025E-01-1.20688E-01-5.34234E+02 5.83547E-01 3.41313E+02-7.36869E+00
 -1      7609 9.11361E-02-1.54379E-01-4.27032E+02 9.75076E-01 3.85801E+02-5.02224E+00
 -1      7610 1.12850E-01-2.70602E-01-6.93180E+02 1.58392E+00 3.42905E+02-8.52501E+00
 -1      7611 3.37629E-01-3.23806E-01-6.94664E+02 1.84293E+00 3.29152E+02-9.85288E+00
 -1      7612 1.53783E-01-1.77712E-01-6.40303E+02 1.15224E+00 3.40766E+02-8.02371E+00
 -1      7613 1.40260E-01-1.91783E-01-5.06270E+02 1.88045E+00 3.84934E+02-5.71789E+00
 -1      7614 1.39610E-01-2.45606E-01-7.98042E+02 2.94888E+00 3.41515E+02-9.94137E+00
 -1      7615 3.29650E-01-3.80980E-01-8.00866E+02 3.37370E+00 3.28579E+02-1.13047E+01
 -1      7616 2.14768E-01-1.89738E-01-7.45627E+02 2.18604E+00 3.39720E+02-9.10831E+00
 -1      7617 1.95218E-01-1.22356E-01-5.84788E+02 3.49463E+00 3.83362E+02-6.85914E+00
 -1      7618 1.07644E-01 8.58006E-02-9.01601E+02 5.28249E+00 3.38980E+02-1.21159E+01
 -1      7619 1.79220E-02-2.37181E-01-9.06805E+02 5.93620E+00 3.27550E+02-1.34207E+01
 -1      7620 2.49619E-01-1.92974E-02-8.49852E+02 3.99066E+00 3.37786E+02-1.08091E+01
 -1      7621 2.20356E-01 2.55913E-01-6.62331E+02 6.26327E+00 3.80635E+02-8.62968E+00
 -1      7622-4.70071E-02 1.14139E+00-1.00356E+03 9.08885E+00 3.34569E+02-1.51776E+01
 -1      7623-1.10311E+00 3.61310E-01-1.01285E+03 1.00139E+01 3.25806E+02-1.61272E+01
 -1      7624 1.77561E-01 6.11912E-01-9.52699E+02 7.00490E+00 3.34374E+02-1.32657E+01
 -1      7625 1.21591E-01 1.22572E+00-7.38862E+02 1.08106E+01 3.76155E+02-1.11702E+01
 -1      7626-9.27153E-01 2.97168E+00-1.10465E+03 1.49827E+01 3.27463E+02-1.88897E+01
 -1      7627-4.40175E+00 1.25481E+00-1.12058E+03 1.60852E+01 3.23311E+02-1.86900E+01
 -1      7628-2.54978E-01 2.05841E+00-1.05417E+03 1.18008E+01 3.28673E+02-1.64504E+01
 -1      7629-4.28424E-01 2.94942E+00-8.14787E+02 1.79309E+01 3.69211E+02-1.43529E+01
 -1      7630-2.24394E+00 5.33042E+00-1.20569E+03 2.35255E+01 3.17424E+02-2.17550E+01
 -1      7631-1.28989E+01 6.88027E-01-1.23264E+03 2.44316E+01 3.20726E+02-1.84350E+01
 -1      7632-1.48374E+00 4.06929E+00-1.15600E+03 1.90037E+01 3.20213E+02-1.92473E+01
 -1      7633-1.92422E+00 3.50681E+00-8.91798E+02 2.83199E+01 3.59568E+02-1.70708E+01
 -1      7634-1.52868E+01-7.53913E+00-1.32093E+03 3.49988E+01 3.08466E+02-1.84836E+01
 -1      7635-3.77063E+01-1.55370E+01-1.35850E+03 3.40765E+01 3.24126E+02-7.73909E+00
 -1      7636-5.85996E+00 2.63884E+00-1.25864E+03 2.91599E+01 3.10025E+02-1.91997E+01
 -1      7637-9.35546E+00-5.54843E+00-9.73398E+02 4.22547E+01 3.46989E+02-1.50297E+01
 -1      7638-2.54562E+01-5.14527E+01-1.43649E+03 4.65906E+01 3.04203E+02 1.86801E+01
 -1      7639-1.03458E+02-7.86800E+01-1.48301E+03 4.19210E+01 3.33719E+02 3.62272E+01
 -1      7640-1.43952E+01-1.95842E+01-1.37721E+03 4.14222E+01 3.03098E+02 7.86358E-01
 -1      7641-1.96646E+01-5.33393E+01-1.05449E+03 5.44114E+01 3.31060E+02 1.35864E+01
 -1      7642-2.64419E+02-3.24307E+02-1.58960E+03 5.26241E+01 3.02757E+02 1.83799E+02
 -1      7643-2.65697E+02-2.96785E+02-1.52241E+03 3.23930E+01 3.50209E+02 1.38471E+02
 -1      7644-9.31061E+01-1.35357E+02-1.45609E+03 5.18820E+01 3.04366E+02 7.84695E+01
 -1      7645-1.88791E+02-2.42004E+02-1.15161E+03 5.59139E+01 2.73741E+02 1.37361E+02
 -1      7646-6.10346E+02-6.10344E+02-1.33216E+03-8.07706E-04 1.13708E+02 2.71391E+02
 -1      7647-6.09226E+02-6.09226E+02-1.32977E+03 8.50414E-04 1.50031E+02 2.06953E+02
 -1      7648-3.32985E+02-4.27305E+02-1.43841E+03 2.11058E+01 2.26103E+02 2.32452E+02
 -1      7649-4.35997E+02-4.36000E+02-9.51668E+02 8.13663E-04 7.15345E+01 2.01893E+02
 -1      7650 1.11943E+03 1.11942E+03 2.44332E+03 5.95884E-04-7.97346E+01 7.44449E+02
 -1      7651-9.38845E+01 1.46608E+02 1.46348E+03-7.41735E+00 1.73249E+02-5.65880E+01
 -1      7652 8.33834E+02 8.33840E+02 1.82004E+03-6.84296E-04 4.04171E+01 5.04067E+02
 -1      7653 1.36294E+02 2.72982E+02 1.60471E+03-2.80946E+01 2.64988E+02 8.94815E+01
 -1      7654 8.35296E+02 8.35302E+02 1.82322E+03-9.15422E-04-1.26348E+02 5.61729E+02
 -1      7655 2.66006E+02 5.24752E+02 1.86283E+03-2.11149E+01 5.00229E+01 2.88487E+02
 -1      7656-7.51835E+01 1.20049E+02 1.08560E+03-4.79818E+00 1.41216E+02-4.12847E+01
 -1      7657 6.53452E+00-2.23144E+01 1.31675E+03-9.57325E+00 2.31179E+02-2.11580E+01
 -1      7658 2.95847E+01 4.86788E+01 1.49051E+03-2.96837E+01 2.68272E+02 1.61508E+00
 -1      7659-1.11947E+02-6.33196E-01 1.31245E+03-1.25116E+01 1.95406E+02-3.56262E+01
 -1      7660 7.35295E+00 1.32751E+00 9.89789E+02-1.00627E+01 2.57408E+02-1.57823E+01
 -1      7661-1.46442E+01-3.60393E+01 1.31071E+03-2.94398E+00 2.86014E+02-5.73968E+00
 -1      7662 8.54692E+00-2.28760E+00 1.38113E+03-1.89409E+01 2.95162E+02-1.52714E+01
 -1      7663 3.37729E+00-2.87834E+01 1.33165E+03-5.86899E+00 2.57377E+02-3.21266E+00
 -1      7664-1.28889E+01-2.88893E+01 9.90033E+02-4.38116E+00 3.25086E+02-4.90203E+00
 -1      7665-5.50494E-01-2.44467E+01 1.24900E+03-1.97460E+00 3.22621E+02-3.98458E+00
 -1      7666 1.90797E+00-1.09134E+01 1.28257E+03-1.27419E+01 3.16482E+02-1.42641E+01
 -1      7667-7.10790E+00-3.17832E+01 1.27933E+03-2.21865E+00 3.01894E+02-3.90144E+00
 -1      7668-1.61055E-03-1.97069E+01 9.50108E+02-2.52674E+00 3.65264E+02-3.34621E+00
 -1      7669-9.63837E-01-1.40785E+01 1.17621E+03-9.79186E-01 3.49512E+02-2.31419E+00
 -1      7670 6.63390E-01-6.74951E+00 1.19391E+03-7.93682E+00 3.34840E+02-1.17444E+01
 -1      7671-7.06485E-01-1.93119E+01 1.21340E+03-1.28300E+00 3.34369E+02-1.77180E+00
 -1      7672-7.79934E-01-1.25852E+01 8.94898E+02-1.37758E+00 3.91747E+02-1.83941E+00
 -1      7673 2.17457E-01-7.02085E+00 1.09173E+03-5.65459E-01 3.66068E+02-1.53980E+00
 -1      7674 1.30141E-01-3.51861E+00 1.10045E+03-4.80156E+00 3.46895E+02-8.99635E+00
 -1      7675-5.58440E-01-1.06369E+01 1.13410E+03-6.05581E-01 3.55736E+02-1.27455E+00
 -1      7676 1.31843E-01-6.51715E+00 8.31676E+02-7.51556E-01 4.08159E+02-1.07767E+00
 -1      7677 2.54450E-01-3.34513E+00 9.98967E+02-3.02198E-01 3.75690E+02-1.04053E+00
 -1      7678-1.98833E-02-1.56564E+00 1.00320E+03-2.77919E+00 3.54219E+02-6.93077E+00
 -1      7679 7.81147E-03-5.30813E+00 1.04538E+03-3.16185E-01 3.68656E+02-8.76657E-01
 -1      7680 1.44156E-01-3.23677E+00 7.62155E+02-3.99979E-01 4.17876E+02-6.09145E-01
 -1      7681 2.69037E-01-1.50478E+00 9.00430E+02-1.59763E-01 3.80982E+02-7.76861E-01
 -1      7682-5.62263E-02-6.40533E-01 9.02345E+02-1.54995E+00 3.58395E+02-5.51157E+00
 -1      7683 7.33523E-02-2.56330E+00 9.49679E+02-1.52059E-01 3.75973E+02-6.94611E-01
 -1      7684 1.65101E-01-1.51412E+00 6.88414E+02-2.06755E-01 4.23375E+02-3.55444E-01
 -1      7685 1.93331E-01-6.61171E-01 7.98181E+02-8.07285E-02 3.83779E+02-6.30163E-01
 -1      7686-5.39580E-02-2.42640E-01 7.98990E+02-8.32169E-01 3.60679E+02-4.61106E+00
 -1      7687 9.37092E-02-1.20045E+00 8.49285E+02-7.09734E-02 3.79944E+02-5.90157E-01
 -1      7688 1.21476E-01-6.92351E-01 6.11867E+02-1.03078E-01 4.26359E+02-2.16725E-01
 -1      7689 1.28014E-01-2.83202E-01 6.93700E+02-3.91980E-02 3.85202E+02-5.54918E-01
 -1      7690-4.07916E-02-8.71141E-02 6.94004E+02-4.30224E-01 3.61881E+02-4.06984E+00
 -1      7691 7.15023E-02-5.55758E-01 7.45935E+02-3.06262E-02 3.82012E+02-5.37642E-01
 -1      7692 8.23993E-02-3.09313E-01 5.33604E+02-4.92831E-02 4.27912E+02-1.44599E-01
 -1      7693 7.70301E-02-1.19525E-01 5.87946E+02-1.80876E-02 3.85898E+02-5.17462E-01
 -1      7694-2.75499E-02-3.02428E-02 5.88042E+02-2.13616E-01 3.62491E+02-3.76012E+00
 -1      7695 4.85740E-02-2.54613E-01 6.40832E+02-1.19393E-02 3.83050E+02-5.11044E-01
 -1      7696 5.07161E-02-1.35858E-01 4.54346E+02-2.23734E-02 4.28686E+02-1.08368E-01
 -1      7697 4.37027E-02-4.93091E-02 4.81507E+02-7.85209E-03 3.86222E+02-5.00073E-01
 -1      7698-1.71426E-02-1.04185E-02 4.81527E+02-1.01399E-01 3.62789E+02-3.59063E+00
 -1      7699 2.97928E-02-1.15465E-01 5.34745E+02-3.82568E-03 3.83549E+02-4.98513E-01
 -1      7700 2.93917E-02-5.80770E-02 3.74544E+02-9.49618E-03 4.29053E+02-9.10858E-02
 -1      7701 2.32904E-02-1.95053E-02 3.74716E+02-3.14959E-03 3.86366E+02-4.92566E-01
 -1      7702-9.92189E-03-3.46718E-03 3.74714E+02-4.56479E-02 3.62928E+02-3.50204E+00
 -1      7703 1.70994E-02-5.12496E-02 4.28133E+02-6.89365E-04 3.83778E+02-4.92933E-01
 -1      7704 1.59804E-02-2.35608E-02 2.94461E+02-3.67231E-03 4.29216E+02-8.33231E-02
 -1      7705 1.14719E-02-6.81637E-03 2.67754E+02-1.14712E-03 3.86424E+02-4.89674E-01
 -1      7706-5.20801E-03-7.45132E-04 2.67750E+02-1.91739E-02 3.62988E+02-3.45829E+00
 -1      7707 9.12144E-03-2.16392E-02 3.21255E+02 2.65202E-04 3.83877E+02-4.90682E-01
 -1      7708 7.99861E-03-8.31301E-03 2.14240E+02-1.24500E-03 4.29284E+02-8.01234E-02
 -1      7709 4.60179E-03-1.23028E-03 1.60714E+02-3.85187E-04 3.86446E+02-4.88760E-01
 -1      7710-2.13778E-03 5.57913E-04 1.60714E+02-6.94636E-03 3.63012E+02-3.43893E+00
 -1      7711 4.30617E-03-7.80503E-03 2.14249E+02 3.34066E-04 3.83916E+02-4.89901E-01
 -1      7712 3.22483E-03-1.47014E-03 1.33957E+02-3.55568E-04 4.29309E+02-7.89986E-02
 -1      7713 1.75401E-05 1.67687E-03 5.36469E+01-1.09370E-04 3.86451E+02-4.88657E-01
 -1      7714 9.45853E-05 1.14271E-03 5.36498E+01-4.92190E-04 3.63019E+02-3.43371E+00
 -1      7715 1.25136E-03-7.79500E-04 1.07189E+02 7.81667E-05 3.83928E+02-4.89723E-01
 -1      7716-2.83863E-05 1.97922E-03 5.36506E+01-5.45121E-05 4.29315E+02-7.88320E-02
 -1      7717-4.38834E-03 4.07767E-03-5.34199E+01 1.43202E-04 3.86446E+02-4.89044E-01
 -1      7718 2.18298E-03 8.10196E-04-5.34146E+01 5.83524E-03 3.63013E+02-3.43936E+00
 -1      7719-1.16092E-03 4.07916E-03 1.14641E-01-2.70428E-04 3.83929E+02-4.89819E-01
 -1      7720-3.11502E-03 4.52086E-03-2.66545E+01 2.32095E-04 4.29310E+02-7.93154E-02
 -1      7721-1.06390E-02 7.62109E-03-1.60457E+02 8.42191E-04 3.86428E+02-4.90251E-01
 -1      7722 4.73544E-03-1.27471E-03-1.60452E+02 1.77026E-02 3.62992E+02-3.45845E+00
 -1      7723-3.90218E-03 9.87448E-03-1.06944E+02-5.69649E-04 3.83918E+02-4.90200E-01
 -1      7724-7.30288E-03 7.87117E-03-1.06935E+02 1.08019E-03 4.29288E+02-8.07681E-02
 -1      7725-2.11336E-02 1.49878E-02-2.67419E+02 2.76959E-03 3.86378E+02-4.93408E-01
 -1      7726 8.28208E-03-6.47803E-03-2.67420E+02 4.36739E-02 3.62940E+02-3.50011E+00
 -1      7727-7.95252E-03 2.01036E-02-2.13949E+02-5.76698E-04 3.83884E+02-4.91208E-01
 -1      7728-1.40075E-02 1.45073E-02-1.87152E+02 3.44872E-03 4.29228E+02-8.42711E-02
 -1      7729-3.90442E-02 3.27144E-02-3.74216E+02 7.45717E-03 3.86255E+02-5.01007E-01
 -1      7730 1.31716E-02-1.59369E-02-3.74246E+02 9.90458E-02 3.62820E+02-3.58275E+00
 -1      7731-1.44219E-02 4.10893E-02-3.20830E+02 3.03322E-04 3.83799E+02-4.93685E-01
 -1      7732-2.49531E-02 3.03351E-02-2.67233E+02 9.22471E-03 4.29082E+02-9.21575E-02
 -1      7733-6.80143E-02 7.80623E-02-4.80678E+02 1.79028E-02 3.85970E+02-5.17949E-01
 -1      7734 1.92708E-02-2.74566E-02-4.80792E+02 2.11664E-01 3.62560E+02-3.73885E+00
 -1      7735-2.44044E-02 8.68167E-02-4.27457E+02 3.45301E-03 3.83599E+02-4.99377E-01
 -1      7736-4.18843E-02 7.09632E-02-3.47041E+02 2.21359E-02 4.28750E+02-1.08985E-01
 -1      7737-1.11910E-01 1.94542E-01-5.86491E+02 3.97880E-02 3.85348E+02-5.53629E-01
 -1      7738 2.51045E-02-2.62723E-02-5.86821E+02 4.30870E-01 3.62019E+02-4.02179E+00
 -1      7739-3.86526E-02 1.89627E-01-5.33586E+02 1.18620E-02 3.83155E+02-5.11615E-01
 -1      7740-6.62458E-02 1.75990E-01-4.26329E+02 4.93174E-02 4.28041E+02-1.43317E-01
 -1      7741-1.66937E-01 4.89193E-01-6.91106E+02 8.33057E-02 3.84051E+02-6.24281E-01
 -1      7742 2.64635E-02 3.73855E-02-6.91935E+02 8.40409E-01 3.60932E+02-4.51386E+00
 -1      7743-5.46714E-02 4.24545E-01-6.38786E+02 3.15225E-02 3.82214E+02-5.36874E-01
 -1      7744-9.43246E-02 4.41813E-01-5.04672E+02 1.03931E-01 4.26595E+02-2.10443E-01
 -1      7745-2.28696E-01 1.19671E+00-7.93620E+02 1.66660E-01 3.81449E+02-7.60741E-01
 -1      7746 1.16499E-02 2.96105E-01-7.95520E+02 1.57581E+00 3.58827E+02-5.33081E+00
 -1      7747-6.72058E-02 9.57139E-01-7.42336E+02 7.42592E-02 3.80302E+02-5.85808E-01
 -1      7748-1.22397E-01 1.07850E+00-5.81398E+02 2.09545E-01 4.23775E+02-3.37966E-01
 -1      7749-2.03110E-01 2.83131E+00-8.92645E+02 3.17637E-01 3.76433E+02-1.00445E+00
 -1      7750-4.62856E-02 1.03385E+00-8.96752E+02 2.84099E+00 3.54899E+02-6.61861E+00
 -1      7751-3.67177E-02 2.14425E+00-8.43108E+02 1.60466E-01 3.76562E+02-6.81997E-01
 -1      7752-8.69979E-02 2.53492E+00-6.55499E+02 4.06720E-01 4.18501E+02-5.69506E-01
 -1      7753-1.53688E-01 6.23665E+00-9.86235E+02 5.95970E-01 3.67136E+02-1.46498E+00
 -1      7754-2.16489E-01 2.78074E+00-9.94585E+02 4.92949E+00 3.47860E+02-8.49814E+00
 -1      7755 3.86960E-02 4.64126E+00-9.39469E+02 3.34390E-01 3.69539E+02-8.48056E-01
 -1      7756-5.57670E-02 5.49361E+00-7.25684E+02 7.65810E-01 4.09034E+02-9.95386E-01
 -1      7757 9.57332E-01 1.29849E+01-1.07204E+03 1.03569E+00 3.50825E+02-2.17786E+00
 -1      7758-7.49410E-01 5.90412E+00-1.08880E+03 8.17578E+00 3.36003E+02-1.10153E+01
 -1      7759 5.82317E-01 9.66397E+00-1.02925E+03 6.41740E-01 3.56904E+02-1.21199E+00
 -1      7760 7.92787E-01 1.12594E+01-7.90070E+02 1.40345E+00 3.92777E+02-1.68762E+00
 -1      7761 5.87613E-01 2.32507E+01-1.14674E+03 2.06234E+00 3.23769E+02-3.72386E+00
 -1      7762-1.93358E+00 1.03224E+01-1.17835E+03 1.31396E+01 3.17446E+02-1.33563E+01
 -1      7763 7.29741E-01 1.81021E+01-1.11014E+03 1.34581E+00 3.35585E+02-1.66282E+00
 -1      7764 8.69149E-02 1.85056E+01-8.47111E+02 2.57165E+00 3.66050E+02-3.05940E+00
 -1      7765 1.36050E+01 3.51866E+01-1.21087E+03 3.08386E+00 2.85797E+02-5.35417E+00
 -1      7766-8.22422E+00 3.33394E+00-1.27692E+03 1.95320E+01 2.94800E+02-1.43790E+01
 -1      7767 6.69752E+00 3.06271E+01-1.17824E+03 2.32504E+00 3.02423E+02-3.63466E+00
 -1      7768 1.17748E+01 2.83972E+01-8.90022E+02 4.43590E+00 3.24658E+02-4.48445E+00
 -1      7769-5.95064E+00 2.43088E+01-1.22169E+03 9.68473E+00 2.27588E+02-1.97496E+01
 -1      7770-2.77576E+01-4.25123E+01-1.38439E+03 3.03306E+01 2.64779E+02 1.10025E+00
 -1      7771-3.07945E+00 2.94190E+01-1.23303E+03 6.01866E+00 2.55562E+02-2.99615E+00
 -1      7772-6.65787E+00 2.38514E+00-8.95215E+02 1.01228E+01 2.54203E+02-1.43931E+01
 -1      7773 8.68974E+01-1.33558E+02-1.36092E+03 7.39499E+00 1.63312E+02-5.28544E+01
 -1      7774-1.27444E+02-2.52091E+02-1.49413E+03 2.84224E+01 2.55426E+02 8.27517E+01
 -1      7775 1.04076E+02 4.13941E+00-1.21916E+03 1.26400E+01 1.88771E+02-3.31973E+01
 -1      7776 6.80647E+01-1.05775E+02-9.84164E+02 4.85365E+00 1.34046E+02-3.76979E+01
 -1      7777-1.04080E+03-1.04079E+03-2.27170E+03-6.02416E-04-9.13716E+01 6.92632E+02
 -1      7778-7.76353E+02-7.76359E+02-1.69458E+03 6.91924E-04 2.90108E+01 4.69167E+02
 -1      7779-2.46977E+02-4.85956E+02-1.73151E+03 2.11165E+01 3.88719E+01 2.68314E+02
 -1      7780-7.57159E+02-7.57164E+02-1.65267E+03 9.18847E-04-1.34740E+02 5.09897E+02
 -1      7781 1.68178E+03 1.68178E+03 3.67073E+03-4.70634E-04 1.08253E+02-1.07900E+03
 -1      7782-9.32459E+01 1.72426E+02 2.41396E+03-9.49025E+00 1.91546E+02 8.01562E+01
 -1      7783 9.84003E+02 9.84005E+02 2.14772E+03-5.99696E-04 3.10514E+02-4.31380E+02
 -1      7784 4.92725E+02 4.40425E+02 2.80652E+03 2.70261E+01 3.52296E+02-2.87249E+02
 -1      7785 1.37396E+03 1.37396E+03 2.99897E+03 7.14366E-04-4.58852E+00-9.13110E+02
 -1      7786 3.57134E+02 5.21573E+02 2.87153E+03 2.17335E+01 1.64263E+02-4.23357E+02
 -1      7787-1.43114E+02 6.58608E+01 1.87771E+03 1.00628E+01 1.67258E+02 6.86872E+01
 -1      7788 1.25492E+03 1.25492E+03 2.73916E+03 5.73287E-04 2.23671E+02-7.33568E+02
 -1      7789 2.57925E+02 3.42378E+02 2.63715E+03 6.65047E+00 2.92458E+02-1.30121E+02
 -1      7790 7.90046E+02 7.90048E+02 1.72447E+03 6.68705E-04 1.96994E+02-3.62443E+02
 -1      7791 5.14929E+02 4.52782E+02 2.43399E+03 1.32872E+01 3.53373E+02-3.63476E+02
 -1      7792 3.42038E+02 3.11678E+02 2.19796E+03 4.21408E+01 3.04037E+02-2.41761E+02
 -1      7793 9.29095E+00-6.28239E+01 2.00092E+03 3.63436E+00 1.19919E+02 2.82748E+01
 -1      7794 2.87626E+01-1.26928E+01 2.29694E+03 1.32252E+01 1.86021E+02-3.95783E+01
 -1      7795-1.74346E+02-6.93586E+01 2.00713E+03-9.23285E-01 1.13421E+02 5.66854E+01
 -1      7796 1.09275E+01-3.10084E+01 1.66465E+03 8.66377E+00 1.85306E+02 2.62220E+01
 -1      7797 3.31195E+01-6.11239E+00 2.22830E+03 7.56711E+00 1.55949E+02-8.59682E+00
 -1      7798 1.33649E+02 8.59229E+01 2.35225E+03 1.97703E+01 2.32117E+02-1.29011E+02
 -1      7799 3.81549E+01 4.80383E+01 1.93496E+03 3.16554E+01 2.57998E+02-2.87419E+01
 -1      7800-2.22991E+01-3.13212E+01 1.94624E+03-1.06419E+00 1.53025E+02 6.51295E+00
 -1      7801 2.11136E+01 1.05789E+00 2.10088E+03 1.27939E+01 1.69999E+02 1.78451E+01
 -1      7802 8.94201E+00-3.69535E+01 2.00531E+03 1.42836E+00 1.34846E+02 1.53280E+00
 -1      7803-2.26331E+01-4.25230E+01 1.62151E+03 2.64065E+00 2.20728E+02 7.59260E+00
 -1      7804 9.54273E+00-3.23703E+00 2.03986E+03 5.44977E+00 1.61751E+02 1.53329E+01
 -1      7805 2.50909E+01-4.53923E+00 2.21045E+03 1.30197E+01 1.76155E+02-1.26803E+01
 -1      7806 1.59059E+01 1.20374E-01 1.76071E+03 2.44045E+01 2.41480E+02 1.99676E+01
 -1      7807 3.30894E-01-1.44570E+01 1.85730E+03 3.98080E-02 1.91085E+02 5.78633E+00
 -1      7808 5.45304E+00-3.98098E+00 1.94027E+03 9.32302E+00 1.81926E+02 2.91015E+01
 -1      7809-8.82455E+00-2.13260E+01 1.90495E+03-6.21700E-01 1.70156E+02 5.17854E+00
 -1      7810-8.70373E-01-2.15470E+01 1.55201E+03 1.73642E+00 2.56811E+02 5.05597E+00
 -1      7811 4.23966E+00-5.49511E+00 1.90324E+03 4.36791E+00 1.84322E+02 1.81371E+01
 -1      7812 1.15672E+01-2.07912E+00 2.01901E+03 1.10162E+01 1.73920E+02 2.21147E+01
 -1      7813 4.34568E+00-4.40799E+00 1.62727E+03 1.65566E+01 2.50361E+02 2.65250E+01
 -1      7814-1.02972E+00-7.49243E+00 1.74558E+03 2.66805E-03 2.14562E+02 3.54363E+00
 -1      7815 2.61561E+00-1.10399E+00 1.79170E+03 6.43807E+00 1.91087E+02 2.92063E+01
 -1      7816-7.16042E-01-1.13664E+01 1.80208E+03-3.16387E-02 2.01112E+02 2.55288E+00
 -1      7817-1.71192E+00-1.25198E+01 1.45886E+03 9.23246E-01 2.81747E+02 2.75261E+00
 -1      7818 1.91552E+00-2.15753E+00 1.77020E+03 3.08348E+00 1.99807E+02 1.70668E+01
 -1      7819 3.70105E+00-2.23634E+00 1.86717E+03 7.80468E+00 1.84601E+02 2.75957E+01
 -1      7820 1.38669E+00-3.07058E+00 1.50036E+03 1.07603E+01 2.59540E+02 2.45187E+01
 -1      7821 4.62270E-01-3.34703E+00 1.61717E+03 1.65780E-02 2.27981E+02 2.61274E+00
 -1      7822 8.62317E-01-2.30147E-01 1.64146E+03 4.05674E+00 1.96870E+02 2.62610E+01
 -1      7823-6.71268E-01-5.77707E+00 1.68152E+03-7.06735E-02 2.19041E+02 2.13546E+00
 -1      7824-8.96002E-02-6.09106E+00 1.35319E+03 5.20165E-01 2.96848E+02 1.58419E+00
 -1      7825 8.15179E-01-9.46810E-01 1.62933E+03 1.95199E+00 2.09027E+02 1.47524E+01
 -1      7826 1.31775E+00-7.20042E-01 1.71676E+03 5.15747E+00 1.91603E+02 2.68972E+01
 -1      7827 1.89033E-01-1.34166E+00 1.37513E+03 6.59764E+00 2.66180E+02 2.06789E+01
 -1      7828 3.69956E-01-1.51932E+00 1.47584E+03 6.88943E-03 2.35123E+02 1.97429E+00
 -1      7829 2.14010E-01 1.68944E-01 1.48825E+03 2.40324E+00 2.00088E+02 2.31038E+01
 -1      7830-2.81768E-02-2.85955E+00 1.54637E+03-5.00817E-02 2.29186E+02 1.70349E+00
 -1      7831 6.38688E-02-2.94285E+00 1.23664E+03 2.71327E-01 3.05323E+02 8.91274E-01
 -1      7832 2.91774E-01-2.98367E-01 1.48175E+03 1.15956E+00 2.14098E+02 1.27244E+01
 -1      7833 2.07745E-01-1.79637E-01 1.56491E+03 3.15177E+00 1.96036E+02 2.41303E+01
 -1      7834-1.50429E-01-4.30047E-01 1.24787E+03 3.86330E+00 2.70196E+02 1.72174E+01
 -1      7835 3.45118E-01-6.40501E-01 1.32636E+03-1.96412E-03 2.38778E+02 1.63750E+00
 -1      7836-3.61983E-02 2.26077E-01 1.33239E+03 1.35240E+00 2.01789E+02 2.06266E+01
 -1      7837 5.44337E-02-1.38247E+00 1.40101E+03-4.10071E-02 2.34493E+02 1.50216E+00
 -1      7838 1.67552E-01-1.34239E+00 1.11300E+03 1.37363E-01 3.09860E+02 5.13721E-01
 -1      7839 7.29869E-02-7.19176E-02 1.32905E+03 6.49354E-01 2.16758E+02 1.12227E+01
 -1      7840-1.30424E-01 5.68356E-02 1.41033E+03 1.82014E+00 1.98439E+02 2.15507E+01
 -1      7841-2.16062E-01-5.24777E-02 1.11847E+03 2.16650E+00 2.72478E+02 1.46615E+01
 -1      7842 2.34186E-01-2.63015E-01 1.17186E+03-4.43926E-03 2.40589E+02 1.44889E+00
 -1      7843-9.71955E-02 1.81964E-01 1.17461E+03 7.26590E-01 2.02658E+02 1.89261E+01
 -1      7844 8.75415E-02-6.59292E-01 1.24906E+03-3.05344E-02 2.37194E+02 1.38391E+00
 -1      7845 1.40500E-01-6.00688E-01 9.84837E+02 6.59218E-02 3.12197E+02 3.07113E-01
 -1      7846-7.41252E-03 1.14695E-04 1.17301E+03 3.46813E-01 2.18109E+02 1.02306E+01
 -1      7847-2.04263E-01 9.40646E-02 1.25352E+03 1.00115E+00 1.99712E+02 1.95986E+01
 -1      7848-1.80743E-01 5.79671E-02 9.87350E+02 1.16750E+00 2.73714E+02 1.29616E+01
 -1      7849 1.51025E-01-1.01412E-01 1.01445E+03-4.64886E-03 2.41461E+02 1.35187E+00
 -1      7850-9.03061E-02 1.20293E-01 1.01561E+03 3.73751E-01 2.03094E+02 1.78543E+01
 -1      7851 7.09814E-02-3.09754E-01 1.09315E+03-2.07219E-02 2.38521E+02 1.32320E+00
 -1      7852 1.02576E-01-2.60643E-01 8.54016E+02 3.00412E-02 3.13361E+02 1.99401E-01
 -1      7853-2.76547E-02 1.28750E-02 1.01490E+03 1.76731E-01 2.18779E+02 9.61961E+00
 -1      7854-1.73549E-01 7.72221E-02 1.09515E+03 5.26455E-01 2.00362E+02 1.82959E+01
 -1      7855-1.26765E-01 6.76426E-02 8.55079E+02 6.04713E-01 2.74365E+02 1.19091E+01
 -1      7856 8.96531E-02-3.65477E-02 8.55448E+02-3.57487E-03 2.41869E+02 1.30354E+00
 -1      7857-6.53928E-02 7.13605E-02 8.55875E+02 1.83711E-01 2.03309E+02 1.72198E+01
 -1      7858 5.01670E-02-1.43404E-01 9.34970E+02-1.32022E-02 2.39156E+02 1.29240E+00
 -1      7859 6.57572E-02-1.10339E-01 7.21696E+02 1.27756E-02 3.13921E+02 1.45159E-01
 -1      7860-2.60553E-02 1.01960E-02 8.55600E+02 8.58558E-02 2.19102E+02 9.26483E+00
 -1      7861-1.22255E-01 4.96897E-02 9.35791E+02 2.64865E-01 2.00688E+02 1.74894E+01
 -1      7862-8.01816E-02 4.95929E-02 7.22090E+02 3.00539E-01 2.74697E+02 1.12927E+01
 -1      7863 5.05994E-02-1.15654E-02 6.95596E+02-2.41864E-03 2.42052E+02 1.28104E+00
 -1      7864-4.16579E-02 3.92293E-02 6.95714E+02 8.58783E-02 2.03413E+02 1.68638E+01
 -1      7865 3.17079E-02-6.49910E-02 7.75554E+02-7.89698E-03 2.39450E+02 1.27787E+00
 -1      7866 3.92492E-02-4.49533E-02 5.88574E+02 4.93520E-03 3.14179E+02 1.19229E-01
 -1      7867-1.87755E-02 5.61458E-03 6.95638E+02 3.95001E-02 2.19254E+02 9.06892E+00
 -1      7868-7.70878E-02 2.83750E-02 7.75842E+02 1.27060E-01 2.00848E+02 1.70194E+01
 -1      7869-4.70921E-02 3.05582E-02 5.88686E+02 1.42674E-01 2.74862E+02 1.09491E+01
 -1      7870 2.69379E-02-2.74416E-03 5.35317E+02-1.46810E-03 2.42131E+02 1.27128E+00
 -1      7871-2.41507E-02 2.02798E-02 5.35322E+02 3.78338E-02 2.03461E+02 1.66739E+01
 -1      7872 1.86424E-02-2.85601E-02 6.15491E+02-4.48217E-03 2.39581E+02 1.27146E+00
 -1      7873 2.18195E-02-1.72534E-02 4.55044E+02 1.62973E-03 3.14292E+02 1.07536E-01
 -1      7874-1.17475E-02 2.56287E-03 5.35324E+02 1.70307E-02 2.19322E+02 8.96598E+00
 -1      7875-4.48863E-02 1.48772E-02 6.15561E+02 5.77271E-02 2.00925E+02 1.67594E+01
 -1      7876-2.58461E-02 1.70722E-02 4.55051E+02 6.41944E-02 2.74940E+02 1.07666E+01
 -1      7877 1.32718E-02-4.48935E-05 3.74833E+02-7.92398E-04 2.42162E+02 1.26749E+00
 -1      7878-1.25797E-02 9.81851E-03 3.74810E+02 1.54807E-02 2.03483E+02 1.65783E+01
 -1      7879 1.01353E-02-1.19261E-02 4.55105E+02-2.38710E-03 2.39636E+02 1.26891E+00
 -1      7880 1.11212E-02-5.81395E-03 3.21317E+02 4.03678E-04 3.14337E+02 1.02674E-01
 -1      7881-6.45835E-03 1.08688E-03 3.74833E+02 6.77742E-03 2.19351E+02 8.91498E+00
 -1      7882-2.41355E-02 7.32364E-03 4.55101E+02 2.45619E-02 2.00960E+02 1.66230E+01
 -1      7883-1.29696E-02 8.86326E-03 3.21297E+02 2.69409E-02 2.74976E+02 1.06750E+01
 -1      7884 5.30146E-03 5.03794E-04 2.14258E+02-3.10736E-04 2.42173E+02 1.26625E+00
 -1      7885-5.07500E-03 4.09717E-03 2.14240E+02 5.57157E-03 2.03491E+02 1.65353E+01
 -1      7886 4.83105E-03-4.42580E-03 2.94567E+02-1.12130E-03 2.39657E+02 1.26805E+00
 -1      7887 4.54112E-03-1.16054E-03 1.87501E+02 7.33741E-05 3.14354E+02 1.00912E-01
 -1      7888-2.71781E-03 5.85950E-04 2.14259E+02 2.39731E-03 2.19362E+02 8.89232E+00
 -1      7889-1.13389E-02 3.37146E-03 2.94548E+02 9.56133E-03 2.00976E+02 1.65567E+01
 -1      7890-5.15906E-03 4.00882E-03 1.87485E+02 9.77848E-03 2.74990E+02 1.06338E+01
 -1      7891-4.47800E-05 4.57552E-04 5.36499E+01 8.98472E-05 2.42175E+02 1.26606E+00
 -1      7892 4.12372E-04 4.12372E-04 5.36462E+01 7.40922E-04 2.03493E+02 1.65233E+01
 -1      7893 1.35407E-03-8.17958E-04 1.33965E+02-2.84675E-04 2.39664E+02 1.26785E+00
 -1      7894-6.47990E-05 1.01040E-03 5.36530E+01 7.92736E-05 3.14357E+02 1.00572E-01
 -1      7895 1.75973E-04 4.86199E-04 5.36528E+01 4.12510E-04 2.19364E+02 8.88610E+00
 -1      7896-3.02833E-03 1.21985E-03 1.33954E+02 2.86723E-03 2.00981E+02 1.65302E+01
 -1      7897 2.44921E-04 5.08932E-04 5.36492E+01 7.83961E-04 2.74994E+02 1.06224E+01
 -1      7898-5.17494E-03 5.05964E-04-1.06958E+02 5.34794E-04 2.42173E+02 1.26649E+00
 -1      7899 5.77164E-03-3.40053E-03-1.06948E+02-3.83148E-03 2.03491E+02 1.65354E+01
 -1      7900-1.45826E-03 1.73542E-03-2.66551E+01 4.45917E-04 2.39664E+02 1.26793E+00
 -1      7901-4.50211E-03 2.95493E-03-8.01950E+01 1.14157E-04 3.14354E+02 1.01185E-01
 -1      7902 3.01454E-03 2.68355E-04-1.06954E+02-1.41419E-03 2.19362E+02 8.89252E+00
 -1      7903 3.75279E-03-4.95389E-04-2.66525E+01-1.29551E-03 2.00981E+02 1.65303E+01
 -1      7904 5.41329E-03-3.61547E-03-8.01873E+01-7.98094E-03 2.74991E+02 1.06341E+01
 -1      7905-1.23841E-02 1.30940E-03-2.67532E+02 1.15631E-03 2.42163E+02 1.26798E+00
 -1      7906 1.27613E-02-9.63685E-03-2.67521E+02-1.29630E-02 2.03484E+02 1.65771E+01
 -1      7907-4.63360E-03 5.35687E-03-1.87257E+02 1.37354E-03 2.39657E+02 1.26830E+00
 -1      7908-1.04833E-02 6.65215E-03-2.14010E+02-1.28214E-04 3.14340E+02 1.03232E-01
 -1      7909 6.53340E-03-7.24751E-04-2.67530E+02-5.31143E-03 2.19352E+02 8.91463E+00
 -1      7910 1.16413E-02-3.06899E-03-1.87249E+02-7.46805E-03 2.00976E+02 1.65561E+01
 -1      7911 1.23615E-02-1.07321E-02-2.14002E+02-2.44729E-02 2.74979E+02 1.06741E+01
 -1      7912-2.43872E-02 4.30565E-03-4.28020E+02 2.08370E-03 2.42137E+02 1.27197E+00
 -1      7913 2.29960E-02-2.14345E-02-4.28042E+02-3.40525E-02 2.03468E+02 1.66675E+01
 -1      7914-9.17036E-03 1.27399E-02-3.47798E+02 2.83909E-03 2.39640E+02 1.26934E+00
 -1      7915-1.98565E-02 1.54763E-02-3.47740E+02-1.20880E-03 3.14302E+02 1.08367E-01
 -1      7916 1.12480E-02-3.52845E-03-4.28029E+02-1.47535E-02 2.19329E+02 8.96321E+00
 -1      7917 2.32684E-02-8.19065E-03-3.47807E+02-2.14323E-02 2.00964E+02 1.66193E+01
 -1      7918 2.32460E-02-2.40934E-02-3.47764E+02-6.07175E-02 2.74950E+02 1.07609E+01
 -1      7919-4.48306E-02 1.31610E-02-5.88318E+02 3.40807E-03 2.42072E+02 1.28171E+00
 -1      7920 3.74799E-02-4.34074E-02-5.88455E+02-8.05621E-02 2.03432E+02 1.68450E+01
 -1      7921-1.60847E-02 2.87643E-02-5.08196E+02 5.27161E-03 2.39594E+02 1.27206E+00
 -1      7922-3.46871E-02 3.70256E-02-4.81283E+02-4.33044E-03 3.14206E+02 1.20196E-01
 -1      7923 1.69777E-02-9.67289E-03-5.88366E+02-3.61635E-02 2.19274E+02 9.05982E+00
 -1      7924 4.13618E-02-1.84016E-02-5.08283E+02-5.31507E-02 2.00937E+02 1.67472E+01
 -1      7925 4.04159E-02-4.79757E-02-4.81417E+02-1.38198E-01 2.74888E+02 1.09314E+01
 -1      7926-7.81323E-02 3.72168E-02-7.48220E+02 5.02894E-03 2.41918E+02 1.30364E+00
 -1      7927 5.50055E-02-8.17477E-02-7.48666E+02-1.77301E-01 2.03354E+02 1.71747E+01
 -1      7928-2.61320E-02 6.33564E-02-6.68294E+02 9.18294E-03 2.39483E+02 1.27855E+00
 -1      7929-5.64886E-02 8.94078E-02-6.14443E+02-1.20193E-02 3.13984E+02 1.45799E-01
 -1      7930 2.15930E-02-2.07445E-02-7.48385E+02-8.15501E-02 2.19149E+02 9.24207E+00
 -1      7931 6.80951E-02-3.73677E-02-6.68600E+02-1.21051E-01 2.00879E+02 1.69885E+01
 -1      7932 6.58029E-02-8.64071E-02-6.14861E+02-2.96004E-01 2.74756E+02 1.12491E+01
 -1      7933-1.29897E-01 9.87729E-02-9.07343E+02 6.50222E-03 2.41565E+02 1.35009E+00
 -1      7934 6.81541E-02-1.42445E-01-9.08504E+02-3.68498E-01 2.03190E+02 1.77590E+01
 -1      7935-3.92619E-02 1.37325E-01-8.27795E+02 1.51093E-02 2.39230E+02 1.29280E+00
 -1      7936-8.53304E-02 2.14507E-01-7.46853E+02-2.93533E-02 3.13491E+02 1.98533E-01
 -1      7937 1.81485E-02-3.59456E-02-9.07804E+02-1.72485E-01 2.18878E+02 9.57035E+00
 -1      7938 1.02864E-01-6.90813E-02-8.28625E+02-2.58630E-01 2.00756E+02 1.74217E+01
 -1      7939 9.88386E-02-1.38138E-01-7.47927E+02-6.03188E-01 2.74483E+02 1.18154E+01
 -1      7940-1.98508E-01 2.51875E-01-1.06499E+03 6.20726E-03 2.40791E+02 1.44254E+00
 -1      7941 5.43372E-02-2.24822E-01-1.06769E+03-7.28708E-01 2.02842E+02 1.87426E+01
 -1      7942-5.13883E-02 2.94223E-01-9.86154E+02 2.31892E-02 2.38668E+02 1.32242E+00
 -1      7943-1.10984E-01 5.09124E-01-8.77863E+02-6.59449E-02 3.12442E+02 3.02170E-01
 -1      7944-1.09754E-02-4.55974E-02-1.06614E+03-3.45804E-01 2.18299E+02 1.01339E+01
 -1      7945 1.35791E-01-1.14980E-01-9.88130E+02-5.23977E-01 2.00496E+02 1.81618E+01
 -1      7946 1.30714E-01-1.82662E-01-8.80339E+02-1.17639E+00 2.73936E+02 1.27791E+01
 -1      7947-2.88892E-01 6.10921E-01-1.21995E+03 2.13163E-03 2.39139E+02 1.62135E+00
 -1      7948-4.05419E-02-3.02818E-01-1.22579E+03-1.37589E+00 2.02116E+02 2.02997E+01
 -1      7949-5.47746E-02 6.25339E-01-1.14241E+03 3.29371E-02 2.37464E+02 1.38006E+00
 -1      7950-1.20226E-01 1.17504E+00-1.00638E+03-1.39593E-01 3.10286E+02 4.99532E-01
 -1      7951-1.05852E-01-1.09810E-02-1.22260E+03-6.59173E-01 2.17094E+02 1.10475E+01
 -1      7952 1.36312E-01-1.62016E-01-1.14676E+03-1.01214E+00 1.99958E+02 1.93532E+01
 -1      7953 1.32918E-01-1.51706E-01-1.01169E+03-2.20133E+00 2.72860E+02 1.43326E+01
 -1      7954-2.93203E-01 1.45173E+00-1.37021E+03-1.17987E-02 2.35720E+02 1.93961E+00
 -1      7955-3.41442E-01-2.96376E-01-1.38218E+03-2.47629E+00 2.00629E+02 2.25635E+01
 -1      7956-4.87236E-03 1.31506E+00-1.29498E+03 4.14555E-02 2.34953E+02 1.49132E+00
 -1      7957 1.95722E-03 2.65696E+00-1.13065E+03-2.78863E-01 3.06011E+02 8.58543E-01
 -1      7958-3.46543E-01 1.58095E-01-1.37597E+03-1.19595E+00 2.14652E+02 1.24293E+01
 -1      7959 1.72039E-02-1.70056E-01-1.30400E+03-1.86510E+00 1.98856E+02 2.11340E+01
 -1      7960 2.37063E-02 1.24007E-01-1.14145E+03-3.95338E+00 2.70808E+02 1.66676E+01
 -1      7961-3.61698E-01 3.21138E+00-1.51282E+03-3.44126E-02 2.28891E+02 2.54262E+00
 -1      7962-1.05901E+00 3.34531E-02-1.53615E+03-4.23086E+00 1.97691E+02 2.54400E+01
 -1      7963 9.82876E-02 2.73443E+00-1.44137E+03 4.37996E-02 2.29911E+02 1.67935E+00
 -1      7964 1.80125E-01 5.64351E+00-1.24823E+03-5.38843E-01 2.97859E+02 1.51542E+00
 -1      7965-8.98661E-01 7.24783E-01-1.52459E+03-2.04518E+00 2.09864E+02 1.42942E+01
 -1      7966-3.82674E-01 4.70764E-03-1.45921E+03-3.26987E+00 1.96689E+02 2.34777E+01
 -1      7967-3.63255E-01 9.36571E-01-1.26921E+03-6.79345E+00 2.67071E+02 1.98322E+01
 -1      7968 1.06910E+00 7.21727E+00-1.64313E+03-4.85245E-02 2.15804E+02 3.42045E+00
 -1      7969-2.87905E+00 8.40552E-01-1.68735E+03-6.79982E+00 1.92202E+02 2.80914E+01
 -1      7970 7.38574E-01 5.55741E+00-1.57809E+03 4.72554E-02 2.20076E+02 2.08261E+00
 -1      7971 1.75181E+00 1.18549E+01-1.35545E+03-9.63435E-01 2.83044E+02 2.62262E+00
 -1      7972-2.03247E+00 1.84572E+00-1.66685E+03-3.28520E+00 2.00934E+02 1.64200E+01
 -1      7973-1.55633E+00 4.81456E-01-1.61191E+03-5.41737E+00 1.92532E+02 2.59685E+01
 -1      7974-1.57630E+00 2.64699E+00-1.39500E+03-1.11399E+01 2.60666E+02 2.33472E+01
 -1      7975-2.45355E-01 1.39960E+01-1.75730E+03-1.41160E-01 1.92470E+02 5.54690E+00
 -1      7976-5.78164E+00 3.65238E+00-1.83682E+03-1.00056E+01 1.83172E+02 2.78553E+01
 -1      7977 8.02489E-01 1.09979E+01-1.70078E+03-2.88909E-02 2.02364E+02 2.46521E+00
 -1      7978 9.97111E-01 2.07923E+01-1.45059E+03-1.81450E+00 2.58067E+02 4.80473E+00
 -1      7979-4.36387E+00 5.08221E+00-1.80145E+03-4.76588E+00 1.85555E+02 1.73710E+01
 -1      7980-3.98564E+00 1.95174E+00-1.76319E+03-8.31751E+00 1.85717E+02 2.64792E+01
 -1      7981-4.46769E+00 4.26208E+00-1.52220E+03-1.72211E+01 2.51414E+02 2.51730E+01
 -1      7982 2.12368E+01 3.03770E+01-1.84893E+03 8.30092E-01 1.53900E+02 6.21735E+00
 -1      7983-2.09497E+01-8.94025E-01-1.99718E+03-1.39341E+01 1.70765E+02 1.70796E+01
 -1      7984 8.52254E+00 2.07379E+01-1.80607E+03 4.67642E-01 1.71259E+02 4.93987E+00
 -1      7985 2.15684E+01 4.15119E+01-1.52270E+03-2.77518E+00 2.20958E+02 7.21870E+00
 -1      7986-9.59239E+00 3.14507E+00-1.93874E+03-6.15117E+00 1.62457E+02 1.46727E+01
 -1      7987-1.16767E+01 1.96962E+00-1.91547E+03-1.19256E+01 1.74886E+02 2.11482E+01
 -1      7988-1.54240E+01 8.81838E-01-1.65504E+03-2.54329E+01 2.41545E+02 1.90464E+01
 -1      7989-8.95061E+00 6.11907E+01-1.90604E+03-3.92121E+00 1.17510E+02 2.69688E+01
 -1      7990-2.83478E+01 1.31076E+01-2.19000E+03-1.49160E+01 1.83882E+02-3.74396E+01
 -1      7991-8.48068E+00 3.62074E+01-1.90769E+03-1.67720E+00 1.34139E+02 1.42806E+00
 -1      7992-1.00881E+01 3.21330E+01-1.56873E+03-8.82500E+00 1.81823E+02 2.48394E+01
 -1      7993-3.21148E+01 6.78212E+00-2.12381E+03-8.63446E+00 1.53606E+02-8.00042E+00
 -1      7994-2.47484E+01 4.88175E+00-2.10462E+03-1.44647E+01 1.75461E+02-1.19863E+01
 -1      7995-3.65642E+01-4.31357E+01-1.82580E+03-3.29319E+01 2.54624E+02-2.66418E+01
 -1      7996 8.84947E+01-1.61576E+02-2.30181E+03 8.85722E+00 1.77756E+02 7.64318E+01
 -1      7997-4.71309E+02-4.19008E+02-2.68078E+03-2.82628E+01 3.38496E+02-2.73449E+02
 -1      7998 1.65910E+02 6.80479E+01-1.91316E+03 2.89130E-01 1.07010E+02 5.39933E+01
 -1      7999 1.35356E+02-5.75706E+01-1.77242E+03-9.90476E+00 1.56317E+02 6.50124E+01
 -1      8000-2.46969E+02-3.24934E+02-2.51720E+03-7.58303E+00 2.78946E+02-1.23853E+02
 -1      8001-1.28286E+02-8.05602E+01-2.24462E+03-2.13495E+01 2.25779E+02-1.22673E+02
 -1      8002-3.23282E+02-2.90874E+02-2.07858E+03-4.30185E+01 2.93405E+02-2.27587E+02
 -1      8003-1.60379E+03-1.60379E+03-3.50050E+03 4.76981E-04 8.86057E+01-1.02859E+03
 -1      8004-9.40088E+02-9.40091E+02-2.05187E+03 6.09655E-04 2.90785E+02-4.11652E+02
 -1      8005-3.39342E+02-4.92317E+02-2.73656E+03-2.16844E+01 1.47099E+02-4.03487E+02
 -1      8006-1.29664E+03-1.29664E+03-2.83020E+03-7.27344E-04-1.97261E+01-8.61958E+02
 -1      8007-1.19768E+03-1.19768E+03-2.61424E+03-5.78644E-04 2.04179E+02-6.99562E+02
 -1      8008-4.91491E+02-4.29344E+02-2.32429E+03-1.38971E+01 3.36340E+02-3.46444E+02
 -1      8009-7.46967E+02-7.46969E+02-1.63044E+03-6.81563E-04 1.82027E+02-3.42551E+02
 -1      8010 1.01755E+03 1.01756E+03 2.22097E+03-4.70242E-04 3.65342E+02-2.49175E+02
 -1      8011 6.22391E+02 4.16876E+02 2.67761E+03 2.05338E+01 4.40652E+02-1.96287E+02
 -1      8012 9.81672E+02 9.81663E+02 2.14272E+03 6.12367E-04 3.44609E+02-3.28109E+02
 -1      8013 5.00189E+02 3.98198E+02 2.70953E+03 1.59592E+01 4.03428E+02-2.19548E+02
 -1      8014 8.14288E+02 8.14285E+02 1.77736E+03 6.43356E-04 2.53482E+02-2.09729E+02
 -1      8015 7.28957E+02 4.87854E+02 2.40456E+03 1.69443E+01 4.25815E+02-2.30092E+02
 -1      8016 4.41633E+02 2.77432E+02 2.07425E+03 2.58025E+01 3.83186E+02-1.63234E+02
 -1      8017 1.91648E+02 4.75266E+00 2.37779E+03 1.99358E+01 2.25572E+02-6.77642E+01
 -1      8018 1.40021E+02 1.00295E+01 2.36342E+03 1.71441E+01 2.07935E+02-6.58210E+01
 -1      8019 3.19749E+02 1.15015E+02 2.41177E+03 2.16921E+01 2.86844E+02-1.27974E+02
 -1      8020 1.84439E+02 8.12131E+01 2.01014E+03 3.01283E+01 3.04722E+02-5.37424E+01
 -1      8021 8.38329E+01 8.22657E+00 2.18280E+03 1.67370E+01 1.85620E+02-6.55688E+00
 -1      8022 5.32197E+01 6.32643E+00 2.14919E+03 1.40324E+01 1.78605E+02 2.62472E+00
 -1      8023 1.23549E+02-2.11898E+00 2.27816E+03 1.85635E+01 2.04645E+02-3.65407E+01
 -1      8024 7.01394E+01 1.15563E+01 1.83841E+03 2.57016E+01 2.64578E+02-1.66378E+00
 -1      8025 3.07762E+01-2.93468E+00 1.99659E+03 1.26036E+01 1.84109E+02 2.11842E+01
 -1      8026 2.11357E+01-8.31526E-01 1.97587E+03 1.08861E+01 1.82502E+02 2.40900E+01
 -1      8027 5.03780E+01-3.07706E-01 2.08373E+03 1.46780E+01 1.82722E+02 7.96170E+00
 -1      8028 2.64493E+01 4.49592E-02 1.68140E+03 1.88271E+01 2.55685E+02 1.97581E+01
 -1      8029 1.19805E+01-8.89040E-01 1.82839E+03 8.78941E+00 1.85191E+02 2.82482E+01
 -1      8030 8.12818E+00 7.37900E-04 1.81287E+03 7.54547E+00 1.87170E+02 2.86226E+01
 -1      8031 1.96656E+01-1.74450E+00 1.91300E+03 1.06358E+01 1.82967E+02 2.41798E+01
 -1      8032 8.94785E+00-1.46259E+00 1.53511E+03 1.28334E+01 2.53825E+02 2.39539E+01
 -1      8033 3.60279E+00-4.70453E-01 1.66356E+03 5.66339E+00 1.85975E+02 2.81489E+01
 -1      8034 2.65485E+00 1.39624E-01 1.65388E+03 4.85584E+00 1.90196E+02 2.73719E+01
 -1      8035 6.89094E+00-5.79828E-01 1.74593E+03 7.12630E+00 1.83236E+02 2.77490E+01
 -1      8036 2.18302E+00-7.79256E-01 1.39599E+03 8.15430E+00 2.53589E+02 2.25809E+01
 -1      8037 4.56460E-01-7.53946E-02 1.50100E+03 3.44416E+00 1.86218E+02 2.59455E+01
 -1      8038 4.75270E-01 2.56688E-01 1.49521E+03 2.93249E+00 1.91831E+02 2.47932E+01
 -1      8039 1.66900E+00-1.67081E-01 1.58243E+03 4.46009E+00 1.83667E+02 2.66761E+01
 -1      8040-2.15402E-01-2.63343E-01 1.25986E+03 4.92051E+00 2.53521E+02 1.98949E+01
 -1      8041-5.57663E-01 3.06595E-02 1.33940E+03 1.98985E+00 1.86217E+02 2.36836E+01
 -1      8042-2.58564E-01 2.12887E-01 1.33615E+03 1.68267E+00 1.92643E+02 2.24406E+01
 -1      8043-1.98507E-01 3.64057E-02 1.42033E+03 2.64477E+00 1.83716E+02 2.45727E+01
 -1      8044-8.32453E-01-2.65771E-02 1.12506E+03 2.83560E+00 2.53459E+02 1.74787E+01
 -1      8045-7.06056E-01 5.17876E-02 1.17831E+03 1.10009E+00 1.86149E+02 2.19402E+01
 -1      8046-4.03394E-01 1.46395E-01 1.17658E+03 9.22622E-01 1.93035E+02 2.07121E+01
 -1      8047-6.79208E-01 7.25245E-02 1.25898E+03 1.49551E+00 1.83668E+02 2.26608E+01
 -1      8048-8.04185E-01 4.27380E-02 9.90828E+02 1.56878E+00 2.53401E+02 1.57080E+01
 -1      8049-5.74002E-01 4.03392E-02 1.01747E+03 5.83255E-01 1.86088E+02 2.07641E+01
 -1      8050-3.44320E-01 8.75428E-02 1.01661E+03 4.84772E-01 1.93223E+02 1.95754E+01
 -1      8051-6.46920E-01 6.22984E-02 1.09800E+03 8.10339E-01 1.83601E+02 2.12647E+01
 -1      8052-5.99040E-01 4.65682E-02 8.56833E+02 8.34617E-01 2.53361E+02 1.45435E+01
 -1      8053-3.93801E-01 2.56540E-02 8.56763E+02 2.96633E-01 1.86049E+02 2.00333E+01
 -1      8054-2.41719E-01 4.79357E-02 8.56367E+02 2.43985E-01 1.93314E+02 1.88816E+01
 -1      8055-4.77292E-01 4.11760E-02 9.37211E+02 4.21234E-01 1.83552E+02 2.03506E+01
 -1      8056-3.93450E-01 3.31522E-02 7.22931E+02 4.26905E-01 2.53339E+02 1.38307E+01
 -1      8057-2.44248E-01 1.45511E-02 6.96112E+02 1.44317E-01 1.86028E+02 1.96068E+01
 -1      8058-1.51976E-01 2.44006E-02 6.95953E+02 1.17238E-01 1.93358E+02 1.84821E+01
 -1      8059-3.10137E-01 2.41888E-02 7.76514E+02 2.09832E-01 1.83524E+02 1.97952E+01
 -1      8060-2.37656E-01 1.99927E-02 5.89065E+02 2.09388E-01 2.53328E+02 1.34185E+01
 -1      8061-1.39807E-01 7.70775E-03 5.35486E+02 6.67721E-02 1.86019E+02 1.93711E+01
 -1      8062-8.78061E-02 1.16893E-02 5.35437E+02 5.34230E-02 1.93379E+02 1.82641E+01
 -1      8063-1.84733E-01 1.31230E-02 6.15858E+02 9.97562E-02 1.83510E+02 1.94771E+01
 -1      8064-1.33654E-01 1.10366E-02 4.55209E+02 9.79087E-02 2.53325E+02 1.31921E+01
 -1      8065-7.27087E-02 3.85853E-03 3.74869E+02 2.89351E-02 1.86014E+02 1.92486E+01
 -1      8066-4.59639E-02 5.28259E-03 3.74864E+02 2.27454E-02 1.93389E+02 1.81520E+01
 -1      8067-1.01357E-01 6.72919E-03 4.55221E+02 4.48649E-02 1.83503E+02 1.93050E+01
 -1      8068-6.86928E-02 5.73283E-03 3.21355E+02 4.29259E-02 2.53324E+02 1.30750E+01
 -1      8069-2.99991E-02 1.70595E-03 2.14256E+02 1.08257E-02 1.86013E+02 1.91918E+01
 -1      8070-1.90273E-02 2.12818E-03 2.14263E+02 8.40706E-03 1.93393E+02 1.81005E+01
 -1      8071-4.86228E-02 3.20238E-03 2.94590E+02 1.84860E-02 1.83501E+02 1.92188E+01
 -1      8072-2.82334E-02 2.58523E-03 1.87501E+02 1.61026E-02 2.53323E+02 1.30208E+01
 -1      8073 7.11127E-04 2.13302E-04 5.36430E+01 8.46850E-04 1.86012E+02 1.91753E+01
 -1      8074 5.08932E-04 2.44921E-04 5.36492E+01 7.83961E-04 1.93394E+02 1.80858E+01
 -1      8075-1.37117E-02 1.09871E-03 1.33962E+02 5.42046E-03 1.83500E+02 1.91836E+01
 -1      8076 3.15389E-04 1.14999E-04 5.36458E+01 8.75921E-04 2.53323E+02 1.30052E+01
 -1      8077 3.03875E-02-1.52666E-03-1.06970E+02-8.91774E-03 1.86012E+02 1.91910E+01
 -1      8078 1.94206E-02-1.87395E-03-1.06965E+02-6.60953E-03 1.93393E+02 1.81000E+01
 -1      8079 1.48664E-02-7.24450E-04-2.66665E+01-3.65864E-03 1.83499E+02 1.91832E+01
 -1      8080 2.76343E-02-3.18248E-03-8.02102E+01-1.41486E-02 2.53323E+02 1.30201E+01
 -1      8081 6.93741E-02-4.57710E-03-2.67586E+02-2.64208E-02 1.86015E+02 1.92449E+01
 -1      8082 4.40950E-02-5.89063E-03-2.67569E+02-2.02774E-02 1.93390E+02 1.81492E+01
 -1      8083 4.75011E-02-3.39268E-03-1.87296E+02-1.63060E-02 1.83501E+02 1.92166E+01
 -1      8084 6.37519E-02-9.23440E-03-2.14067E+02-4.04125E-02 2.53326E+02 1.30715E+01
 -1      8085 1.28062E-01-1.04775E-02-4.28208E+02-6.34219E-02 1.86024E+02 1.93592E+01
 -1      8086 8.07850E-02-1.42894E-02-4.28150E+02-4.99461E-02 1.93385E+02 1.82543E+01
 -1      8087 9.43817E-02-8.38581E-03-3.47931E+02-4.19376E-02 1.83506E+02 1.92975E+01
 -1      8088 1.19189E-01-2.08568E-02-3.47926E+02-9.46767E-02 2.53333E+02 1.31808E+01
 -1      8089 2.15674E-01-2.14725E-02-5.88847E+02-1.40370E-01 1.86045E+02 1.95766E+01
 -1      8090 1.34559E-01-3.10768E-02-5.88684E+02-1.12762E-01 1.93376E+02 1.84563E+01
 -1      8091 1.65467E-01-1.78937E-02-5.08577E+02-9.60440E-02 1.83520E+02 1.94569E+01
 -1      8092 2.04699E-01-4.19709E-02-4.81792E+02-2.05816E-01 2.53353E+02 1.33893E+01
 -1      8093 3.34074E-01-4.03423E-02-7.49524E+02-2.93470E-01 1.86092E+02 1.99668E+01
 -1      8094 2.04905E-01-6.23143E-02-7.49138E+02-2.39451E-01 1.93357E+02 1.88232E+01
 -1      8095 2.67292E-01-3.49969E-02-6.69252E+02-2.06057E-01 1.83553E+02 1.97486E+01
 -1      8096 3.27263E-01-7.67819E-02-6.15677E+02-4.24630E-01 2.53395E+02 1.37656E+01
 -1      8097 4.60600E-01-6.85587E-02-9.10283E+02-5.84716E-01 1.86182E+02 2.06313E+01
 -1      8098 2.73825E-01-1.15469E-01-9.09459E+02-4.83247E-01 1.93316E+02 1.94570E+01
 -1      8099 3.92395E-01-6.28646E-02-8.29987E+02-4.19841E-01 1.83618E+02 2.02543E+01
 -1      8100 4.77346E-01-1.26012E-01-7.49607E+02-8.37906E-01 2.53477E+02 1.44126E+01
 -1      8101 5.07078E-01-1.01841E-01-1.07121E+03-1.11482E+00 1.86334E+02 2.16958E+01
 -1      8102 2.78699E-01-1.96423E-01-1.06957E+03-9.31520E-01 1.93217E+02 2.04910E+01
 -1      8103 4.92348E-01-1.02204E-01-9.90845E+02-8.17293E-01 1.83735E+02 2.10821E+01
 -1      8104 5.97171E-01-1.76573E-01-8.83645E+02-1.58691E+00 2.53622E+02 1.54655E+01
 -1      8105 2.34665E-01-1.13053E-01-1.23244E+03-2.03511E+00 1.86554E+02 2.32666E+01
 -1      8106 5.43811E-02-2.96031E-01-1.22937E+03-1.71750E+00 1.92972E+02 2.20580E+01
 -1      8107 4.18587E-01-1.40587E-01-1.15194E+03-1.52333E+00 1.83920E+02 2.23401E+01
 -1      8108 5.08126E-01-1.80748E-01-1.01793E+03-2.88660E+00 2.53850E+02 1.70623E+01
 -1      8109-9.34581E-01-4.85180E-02-1.39426E+03-3.55118E+00 1.86788E+02 2.52894E+01
 -1      8110-7.81310E-01-3.83411E-01-1.38879E+03-3.02257E+00 1.92381E+02 2.41808E+01
 -1      8111-2.05797E-01-1.43320E-01-1.31347E+03-2.71717E+00 1.84154E+02 2.40514E+01
 -1      8112-2.42255E-01-2.45796E-02-1.15277E+03-5.03615E+00 2.54158E+02 1.92352E+01
 -1      8113-4.22484E+00 3.01752E-01-1.55711E+03-5.88348E+00 1.86863E+02 2.72166E+01
 -1      8114-3.05994E+00-3.13846E-01-1.54797E+03-5.05164E+00 1.91043E+02 2.64809E+01
 -1      8115-2.23216E+00 1.42576E-02-1.47582E+03-4.61789E+00 1.84368E+02 2.59033E+01
 -1      8116-2.72853E+00 4.46122E-01-1.28890E+03-8.38487E+00 2.54534E+02 2.16354E+01
 -1      8117-1.25930E+01 7.17773E-01-1.72221E+03-9.19630E+00 1.86440E+02 2.71235E+01
 -1      8118-8.55177E+00-1.90347E-01-1.70751E+03-7.92506E+00 1.88342E+02 2.74966E+01
 -1      8119-7.54574E+00 3.96038E-01-1.63961E+03-7.43236E+00 1.84264E+02 2.67429E+01
 -1      8120-9.36985E+00 1.23194E+00-1.42784E+03-1.32473E+01 2.55056E+02 2.27983E+01
 -1      8121-3.09443E+01 2.81184E+00-1.89053E+03-1.32793E+01 1.85583E+02 2.02508E+01
 -1      8122-2.12816E+01 7.09521E-01-1.87080E+03-1.15507E+01 1.83854E+02 2.30371E+01
 -1      8123-2.01300E+01 1.58056E+00-1.80685E+03-1.11707E+01 1.84259E+02 2.31683E+01
 -1      8124-2.61434E+01 2.54170E-01-1.57351E+03-1.94915E+01 2.56906E+02 1.87701E+01
 -1      8125-8.19349E+01-7.52305E+00-2.07573E+03-1.77160E+01 1.86688E+02-6.18870E+00
 -1      8126-5.22175E+01-5.84448E+00-2.04352E+03-1.50608E+01 1.79527E+02 2.55982E+00
 -1      8127-4.98218E+01 4.33474E-01-1.97742E+03-1.55095E+01 1.83952E+02 7.62499E+00
 -1      8128-6.74850E+01-9.60244E+00-1.72902E+03-2.66194E+01 2.64830E+02-1.36058E+00
 -1      8129-1.84838E+02-3.24687E+00-2.26862E+03-2.10202E+01 2.23471E+02-6.42954E+01
 -1      8130-1.35118E+02-8.43879E+00-2.25426E+03-1.84206E+01 2.05835E+02-6.24474E+01
 -1      8131-1.19825E+02 2.84039E+00-2.17014E+03-1.96252E+01 2.04124E+02-3.47063E+01
 -1      8132-1.75561E+02-7.43215E+01-1.89840E+03-3.10950E+01 3.01348E+02-5.02685E+01
 -1      8133-5.96531E+02-3.97784E+02-2.56121E+03-2.11746E+01 4.26104E+02-1.86752E+02
 -1      8134-4.79385E+02-3.79443E+02-2.59015E+03-1.68369E+01 3.89254E+02-2.08916E+02
 -1      8135-3.06884E+02-1.08465E+02-2.30342E+03-2.26041E+01 2.80248E+02-1.21662E+02
 -1      8136-4.18294E+02-2.58951E+02-1.96417E+03-2.64103E+01 3.72154E+02-1.53599E+02
 -1      8137-9.73402E+02-9.73410E+02-2.12460E+03 4.80790E-04 3.45297E+02-2.37826E+02
 -1      8138-9.38593E+02-9.38585E+02-2.04869E+03-6.25226E-04 3.24717E+02-3.13142E+02
 -1      8139-6.96688E+02-4.63673E+02-2.29935E+03-1.72417E+01 4.08167E+02-2.19286E+02
 -1      8140-7.70839E+02-7.70837E+02-1.68253E+03-6.56478E-04 2.38218E+02-1.98247E+02
 -1      8141 1.00825E+03 1.00826E+03 2.20067E+03-2.68054E-04 3.96410E+02-1.15663E+02
 -1      8142 6.97990E+02 4.30836E+02 2.68501E+03 1.24111E+01 4.74961E+02-9.15640E+01
 -1      8143 1.01060E+03 1.01059E+03 2.20587E+03 4.14586E-04 3.84623E+02-1.78900E+02
 -1      8144 6.58643E+02 4.20764E+02 2.67694E+03 1.55927E+01 4.60530E+02-1.39688E+02
 -1      8145 8.04033E+02 8.04028E+02 1.75497E+03 3.42407E-04 2.83923E+02-9.68234E+01
 -1      8146 7.65011E+02 4.97098E+02 2.41144E+03 8.69894E+00 4.57671E+02-1.04724E+02
 -1      8147 5.04315E+02 2.85135E+02 2.07312E+03 1.42897E+01 4.14855E+02-7.62529E+01
 -1      8148 2.84482E+02 1.05871E+01 2.39235E+03 1.29308E+01 2.46322E+02-4.60740E+01
 -1      8149 2.42850E+02 6.95382E+00 2.38589E+03 1.52365E+01 2.37815E+02-5.96550E+01
 -1      8150 4.01001E+02 1.18556E+02 2.40954E+03 1.30789E+01 3.13918E+02-6.81585E+01
 -1      8151 2.65476E+02 8.94869E+01 2.02437E+03 1.72217E+01 3.29267E+02-3.73268E+01
 -1      8152 1.35522E+02 8.54008E+00 2.20660E+03 1.09256E+01 1.96373E+02-1.04521E+01
 -1      8153 1.09955E+02 7.25645E+00 2.19702E+03 1.31349E+01 1.91932E+02-9.91630E+00
 -1      8154 1.94419E+02-1.12172E+00 2.29534E+03 1.20174E+01 2.20238E+02-2.69067E+01
 -1      8155 1.14880E+02 1.30075E+01 1.86230E+03 1.52597E+01 2.79496E+02-6.98446E+00
 -1      8156 5.71921E+01-1.97420E+00 2.02505E+03 8.42003E+00 1.88240E+02 8.98738E+00
 -1      8157 4.59777E+01-1.86097E+00 2.01464E+03 1.02550E+01 1.86374E+02 1.37561E+01
 -1      8158 8.76455E+01 1.55772E-01 2.11095E+03 9.72347E+00 1.90321E+02-1.78161E-01
 -1      8159 4.88202E+01 1.41200E+00 1.70915E+03 1.17866E+01 2.62007E+02 8.65216E+00
 -1      8160 2.29199E+01-8.64993E-01 1.84986E+03 5.93879E+00 1.84888E+02 1.54629E+01
 -1      8161 1.82534E+01-6.22997E-01 1.84144E+03 7.21980E+00 1.84847E+02 2.13372E+01
 -1      8162 3.64502E+01-2.04509E+00 1.93657E+03 7.14958E+00 1.85048E+02 1.21992E+01
 -1      8163 1.78543E+01-1.32782E+00 1.55571E+03 8.24123E+00 2.53907E+02 1.32620E+01
 -1      8164 7.44727E+00-6.66508E-01 1.67813E+03 3.88298E+00 1.82616E+02 1.65886E+01
 -1      8165 6.10661E+00-3.07066E-01 1.67247E+03 4.72398E+00 1.83846E+02 2.21459E+01
 -1      8166 1.35614E+01-7.95041E-01 1.76356E+03 4.85290E+00 1.81473E+02 1.58882E+01
 -1      8167 5.04613E+00-9.32763E-01 1.40983E+03 5.34951E+00 2.49356E+02 1.35238E+01
 -1      8168 1.36169E+00-2.96962E-01 1.51006E+03 2.39290E+00 1.80877E+02 1.57403E+01
 -1      8169 1.22110E+00-2.52919E-02 1.50651E+03 2.90065E+00 1.82953E+02 2.07643E+01
 -1      8170 3.80212E+00-3.36964E-01 1.59411E+03 3.07942E+00 1.79348E+02 1.60030E+01
 -1      8171 2.52728E-01-4.70106E-01 1.26841E+03 3.28268E+00 2.46494E+02 1.23348E+01
 -1      8172-6.99495E-01-1.46200E-01 1.34472E+03 1.40143E+00 1.79646E+02 1.45377E+01
 -1      8173-4.52234E-01 4.37563E-02 1.34266E+03 1.69310E+00 1.82254E+02 1.90765E+01
 -1      8174 1.52930E-01-7.17961E-02 1.42752E+03 1.85042E+00 1.77770E+02 1.50181E+01
 -1      8175-1.15323E+00-1.94376E-01 1.13006E+03 1.91978E+00 2.44713E+02 1.10182E+01
 -1      8176-1.10445E+00-6.99368E-02 1.18128E+03 7.85373E-01 1.78853E+02 1.35205E+01
 -1      8177-8.13051E-01 4.99445E-02 1.18016E+03 9.44647E-01 1.81779E+02 1.77061E+01
 -1      8178-9.12958E-01 6.45428E-03 1.26317E+03 1.06060E+00 1.76738E+02 1.39476E+01
 -1      8179-1.26521E+00-7.30904E-02 9.93621E+02 1.07677E+00 2.43646E+02 9.97599E+00
 -1      8180-9.45871E-01-3.67514E-02 1.01906E+03 4.22391E-01 1.78383E+02 1.28016E+01
 -1      8181-7.13116E-01 3.48279E-02 1.01849E+03 5.05578E-01 1.81489E+02 1.67555E+01
 -1      8182-9.85456E-01 2.39898E-02 1.10032E+03 5.82719E-01 1.76100E+02 1.31112E+01
 -1      8183-9.86341E-01-2.65423E-02 8.58324E+02 5.80676E-01 2.43038E+02 9.26146E+00
 -1      8184-6.65661E-01-2.02242E-02 8.57574E+02 2.18171E-01 1.78122E+02 1.23414E+01
 -1      8185-5.07283E-01 2.03325E-02 8.57311E+02 2.59649E-01 1.81328E+02 1.61542E+01
 -1      8186-7.60811E-01 1.99290E-02 9.38441E+02 3.07448E-01 1.75735E+02 1.25429E+01
 -1      8187-6.64171E-01-1.01344E-02 7.23693E+02 3.01243E-01 2.42708E+02 8.81181E+00
 -1      8188-4.19906E-01-1.13732E-02 6.96505E+02 1.08024E-01 1.77986E+02 1.20667E+01
 -1      8189-3.21919E-01 1.05687E-02 6.96401E+02 1.27693E-01 1.81244E+02 1.57983E+01
 -1      8190-5.07178E-01 1.29021E-02 7.77136E+02 1.55698E-01 1.75538E+02 1.21887E+01
 -1      8191-4.08207E-01-4.32125E-03 5.89435E+02 1.50061E-01 2.42537E+02 8.54618E+00
 -1      8192-2.43579E-01-6.20560E-03 5.35665E+02 5.10107E-02 1.77919E+02 1.19120E+01
 -1      8193-1.87458E-01 5.08777E-03 5.35637E+02 5.98081E-02 1.81203E+02 1.55993E+01
 -1      8194-3.07578E-01 7.40603E-03 6.16157E+02 7.54425E-02 1.75438E+02 1.19817E+01
 -1      8195-2.32772E-01-1.92837E-03 4.55379E+02 7.14081E-02 2.42453E+02 8.39763E+00
 -1      8196-1.28163E-01-3.09218E-03 3.74945E+02 2.26053E-02 1.77887E+02 1.18303E+01
 -1      8197-9.88675E-02 2.31954E-03 3.74946E+02 2.62619E-02 1.81184E+02 1.54948E+01
 -1      8198-1.71193E-01 3.98937E-03 4.55356E+02 3.46801E-02 1.75389E+02 1.18677E+01
 -1      8199-1.21100E-01-7.18787E-04 3.21427E+02 3.19039E-02 2.42414E+02 8.31951E+00
 -1      8200-5.35699E-02-1.16699E-03 2.14281E+02 8.58145E-03 1.77873E+02 1.17918E+01
 -1      8201-4.13412E-02 9.65200E-04 2.14289E+02 9.90710E-03 1.81175E+02 1.54459E+01
 -1      8202-8.31606E-02 2.00781E-03 2.94644E+02 1.45923E-02 1.75367E+02 1.18098E+01
 -1      8203-5.04366E-02-1.15352E-04 1.87525E+02 1.21320E-02 2.42397E+02 8.28282E+00
 -1      8204 5.95175E-04 1.01307E-04 5.36410E+01 5.17491E-04 1.77869E+02 1.17804E+01
 -1      8205 5.74976E-04 1.01165E-04 5.36466E+01 6.65042E-04 1.81173E+02 1.54316E+01
 -1      8206-2.39565E-02 7.40860E-04 1.33975E+02 4.25176E-03 1.75358E+02 1.17858E+01
 -1      8207-1.80675E-05-1.11240E-04 5.36437E+01 5.38221E-04 2.42392E+02 8.27206E+00
 -1      8208 5.27861E-02 1.04940E-03-1.06999E+02-7.44151E-03 1.77873E+02 1.17909E+01
 -1      8209 4.09880E-02-1.03443E-03-1.06997E+02-8.42320E-03 1.81175E+02 1.54449E+01
 -1      8210 2.47646E-02-4.70392E-04-2.66829E+01-3.18432E-03 1.75358E+02 1.17854E+01
 -1      8211 4.81744E-02-1.04242E-03-8.02384E+01-1.09524E-02 2.42397E+02 8.28201E+00
 -1      8212 1.20396E-01 1.84100E-03-2.67663E+02-2.11854E-02 1.77887E+02 1.18270E+01
 -1      8213 9.31770E-02-3.35266E-03-2.67654E+02-2.43521E-02 1.81184E+02 1.54910E+01
 -1      8214 7.98004E-02-2.34721E-03-1.87352E+02-1.33252E-02 1.75366E+02 1.18079E+01
 -1      8215 1.11077E-01-3.68289E-03-2.14141E+02-3.04541E-02 2.42416E+02 8.31641E+00
 -1      8216 2.20445E-01 2.45707E-03-4.28384E+02-4.92751E-02 1.77923E+02 1.19028E+01
 -1      8217 1.69957E-01-8.25273E-03-4.28348E+02-5.73505E-02 1.81207E+02 1.55881E+01
 -1      8218 1.57330E-01-5.89084E-03-3.48064E+02-3.30942E-02 1.75391E+02 1.18618E+01
 -1      8219 2.06045E-01-9.39898E-03-3.48094E+02-6.96751E-02 2.42461E+02 8.38869E+00
 -1      8220 3.66840E-01 2.75392E-03-5.89224E+02-1.06295E-01 1.78002E+02 1.20445E+01
 -1      8221 2.81274E-01-1.79086E-02-5.89118E+02-1.24973E-01 1.81260E+02 1.57708E+01
 -1      8222 2.72178E-01-1.25728E-02-5.08866E+02-7.36512E-02 1.75448E+02 1.19665E+01
 -1      8223 3.49716E-01-2.00563E-02-4.82149E+02-1.48420E-01 2.42561E+02 8.52451E+00
 -1      8224 5.58634E-01 2.81236E-03-7.50294E+02-2.17571E-01 1.78165E+02 1.22941E+01
 -1      8225 4.24663E-01-3.52405E-02-7.50039E+02-2.57908E-01 1.81371E+02 1.60950E+01
 -1      8226 4.31411E-01-2.43052E-02-6.69844E+02-1.54366E-01 1.75567E+02 1.21551E+01
 -1      8227 5.49811E-01-3.69775E-02-6.16401E+02-3.00925E-01 2.42764E+02 8.76537E+00
 -1      8228 7.48405E-01 4.57279E-03-9.11784E+02-4.25669E-01 1.78479E+02 1.27095E+01
 -1      8229 5.59702E-01-6.25000E-02-9.11242E+02-5.08055E-01 1.81584E+02 1.66394E+01
 -1      8230 6.14710E-01-4.24076E-02-8.31150E+02-3.08407E-01 1.75803E+02 1.24754E+01
 -1      8231 7.80844E-01-5.72528E-02-7.51013E+02-5.84625E-01 2.43157E+02 9.17071E+00
 -1      8232 7.67492E-01 1.49303E-02-1.07401E+03-7.98290E-01 1.79047E+02 1.33549E+01
 -1      8233 5.49551E-01-9.74628E-02-1.07295E+03-9.58399E-01 1.81968E+02 1.74957E+01
 -1      8234 7.25801E-01-6.47246E-02-9.93032E+02-5.90056E-01 1.76241E+02 1.29861E+01
 -1      8235 9.23848E-01-6.46304E-02-8.86264E+02-1.09106E+00 2.43877E+02 9.81208E+00
 -1      8236 1.69829E-01 5.93284E-02-1.23745E+03-1.43486E+00 1.80005E+02 1.42618E+01
 -1      8237 3.49162E-02-1.19164E-01-1.23551E+03-1.73185E+00 1.82602E+02 1.87228E+01
 -1      8238 4.86225E-01-7.48584E-02-1.15588E+03-1.08240E+00 1.77006E+02 1.37328E+01
 -1      8239 6.33779E-01-1.24780E-02-1.02261E+03-1.95573E+00 2.45125E+02 1.07440E+01
 -1      8240-2.11141E+00 1.73346E-01-1.40279E+03-2.46546E+00 1.81492E+02 1.53188E+01
 -1      8241-1.81881E+00-8.29547E-02-1.39944E+03-2.98864E+00 1.83547E+02 2.02181E+01
 -1      8242-7.93768E-01-3.36488E-02-1.32024E+03-1.90117E+00 1.78241E+02 1.46778E+01
 -1      8243-9.53702E-01 1.96235E-01-1.16078E+03-3.35930E+00 2.47174E+02 1.19138E+01
 -1      8244-8.34787E+00 5.12906E-01-1.57085E+03-4.02305E+00 1.83589E+02 1.60159E+01
 -1      8245-6.83823E+00 1.71335E-01-1.56551E+03-4.89965E+00 1.84779E+02 2.13912E+01
 -1      8246-4.65099E+00 1.90154E-01-1.48683E+03-3.18252E+00 1.80114E+02 1.55160E+01
 -1      8247-5.81013E+00 6.46813E-01-1.30187E+03-5.49513E+00 2.50381E+02 1.29483E+01
 -1      8248-2.36351E+01 7.41289E-01-1.74254E+03-6.18227E+00 1.86272E+02 1.48301E+01
 -1      8249-1.88775E+01 5.06836E-01-1.73456E+03-7.53564E+00 1.86170E+02 2.04713E+01
 -1      8250-1.44477E+01 6.28303E-01-1.65628E+03-5.04111E+00 1.82609E+02 1.52923E+01
 -1      8251-1.82604E+01 1.21115E+00-1.44721E+03-8.49022E+00 2.55262E+02 1.26203E+01
 -1      8252-5.68634E+01 1.97486E+00-1.91763E+03-8.79618E+00 1.89895E+02 8.58908E+00
 -1      8253-4.58046E+01 1.85373E+00-1.90771E+03-1.07621E+01 1.87949E+02 1.31474E+01
 -1      8254-3.68259E+01 1.91572E+00-1.82924E+03-7.45783E+00 1.86493E+02 1.16793E+01
 -1      8255-4.78086E+01-8.64032E-01-1.59977E+03-1.21636E+01 2.63386E+02 8.23765E+00
 -1      8256-1.31992E+02-7.73753E+00-2.09876E+03-1.14135E+01 1.97587E+02-9.90896E+00
 -1      8257-1.07240E+02-6.52896E+00-2.08947E+03-1.38358E+01 1.93084E+02-9.38771E+00
 -1      8258-8.61355E+01 6.18735E-02-2.00353E+03-1.01612E+01 1.91710E+02-1.46219E-01
 -1      8259-1.10255E+02-1.07543E+01-1.75198E+03-1.57410E+01 2.79863E+02-6.45648E+00
 -1      8260-2.74054E+02-8.73619E+00-2.28350E+03-1.34111E+01 2.44111E+02-4.37165E+01
 -1      8261-2.34028E+02-5.28757E+00-2.27691E+03-1.59770E+01 2.35660E+02-5.65940E+01
 -1      8262-1.88159E+02 1.97285E+00-2.18719E+03-1.25203E+01 2.19744E+02-2.55468E+01
 -1      8263-2.52583E+02-8.20365E+01-1.91279E+03-1.76927E+01 3.25805E+02-3.49600E+01
 -1      8264-6.69557E+02-4.11695E+02-2.57017E+03-1.26661E+01 4.59989E+02-8.70587E+01
 -1      8265-6.31628E+02-4.01811E+02-2.56165E+03-1.60065E+01 4.45748E+02-1.32843E+02
 -1      8266-3.85097E+02-1.12005E+02-2.30261E+03-1.34652E+01 3.07031E+02-6.47579E+01
 -1      8267-4.78082E+02-2.66527E+02-1.96451E+03-1.45746E+01 4.03511E+02-7.17183E+01
 -1      8268-9.65318E+02-9.65329E+02-2.10696E+03 2.72599E-04 3.75976E+02-1.10386E+02
 -1      8269-9.67236E+02-9.67225E+02-2.11121E+03-4.21304E-04 3.64351E+02-1.70746E+02
 -1      8270-7.31887E+02-4.73091E+02-2.30776E+03-8.82188E+00 4.39649E+02-9.97736E+01
 -1      8271-7.61748E+02-7.61744E+02-1.66268E+03-3.49154E-04 2.68331E+02-9.15247E+01
 -1      8272 1.01400E+03 1.01401E+03 2.21320E+03 5.50921E-12 4.03787E+02-9.61320E-12
 -1      8273 7.17172E+02 4.33744E+02 2.68505E+03-4.89612E-12 4.85597E+02-1.27115E-12
 -1      8274 1.01091E+03 1.01089E+03 2.20652E+03 1.48273E-04 4.02730E+02-5.68000E+01
 -1      8275 7.03610E+02 4.28762E+02 2.68162E+03 5.48422E+00 4.82122E+02-4.45512E+01
 -1      8276 8.07859E+02 8.07854E+02 1.76332E+03 2.90416E-12 2.91630E+02-5.44964E-12
 -1      8277 7.77053E+02 4.99673E+02 2.41577E+03 2.48360E-12 4.66859E+02-3.48954E-12
 -1      8278 5.18448E+02 2.84620E+02 2.07004E+03-4.10846E-12 4.24411E+02 5.65800E-12
 -1      8279 3.07215E+02 8.64823E+00 2.39066E+03-3.55434E-12 2.52994E+02 4.67421E-12
 -1      8280 2.91988E+02 5.38493E+00 2.38787E+03 5.95900E+00 2.51167E+02-2.28793E+01
 -1      8281 4.29312E+02 1.21016E+02 2.41132E+03-2.94420E-12 3.21567E+02 9.81909E-13
 -1      8282 2.85137E+02 8.85204E+01 2.02304E+03-3.91448E-12 3.37136E+02 1.03696E-11
 -1      8283 1.54679E+02 8.61594E+00 2.21149E+03-8.00034E-12 2.00096E+02-5.82041E-13
 -1      8284 1.45135E+02 6.76121E+00 2.20874E+03 5.17948E+00 1.99139E+02-5.64393E+00
 -1      8285 2.17016E+02-1.11791E+00 2.29916E+03-7.29609E-12 2.25205E+02 1.63317E-12
 -1      8286 1.31228E+02 1.31177E+01 1.86750E+03-8.34979E-12 2.84459E+02 1.15918E-11
 -1      8287 6.81030E+01-1.63200E+00 2.03294E+03-8.17610E-13 1.90001E+02 8.58991E-12
 -1      8288 6.33298E+01-2.53543E+00 2.03016E+03 4.06792E+00 1.89580E+02 3.99693E+00
 -1      8289 1.01928E+02 1.02793E-01 2.11738E+03-8.52651E-12 1.93096E+02 2.80018E-12
 -1      8290 5.80576E+01 1.78158E+00 1.71698E+03-1.11052E-11 2.64533E+02 1.42441E-11
 -1      8291 2.75830E+01-8.77324E-01 1.85663E+03-1.02252E-11 1.85221E+02 4.40416E-12
 -1      8292 2.59387E+01-1.02277E+00 1.85490E+03 2.90069E+00 1.85162E+02 7.51886E+00
 -1      8293 4.35702E+01-2.16914E+00 1.94348E+03-8.65757E-12 1.86155E+02 2.84311E-12
 -1      8294 2.16339E+01-1.36389E+00 1.56227E+03-7.84688E-12 2.54467E+02 1.06243E-11
 -1      8295 9.24304E+00-7.25496E-01 1.68308E+03-8.00374E-12 1.81917E+02-8.88359E-13
 -1      8296 8.94883E+00-5.97932E-01 1.68209E+03 1.91317E+00 1.82117E+02 8.19616E+00
 -1      8297 1.64916E+01-8.91207E-01 1.76929E+03-9.66218E-12 1.81320E+02 1.83815E-12
 -1      8298 6.40575E+00-1.01250E+00 1.41454E+03-1.10153E-12 2.48455E+02 1.70982E-11
 -1      8299 1.86303E+00-3.72555E-01 1.51328E+03 5.90444E-13 1.79477E+02 1.05243E-11
 -1      8300 2.00813E+00-2.07026E-01 1.51276E+03 1.18493E+00 1.79855E+02 7.83560E+00
 -1      8301 4.82514E+00-4.11078E-01 1.59812E+03-5.89240E-12 1.78315E+02 4.50427E-12
 -1      8302 5.48122E-01-5.61022E-01 1.27145E+03-1.99672E-12 2.44609E+02 1.56355E-11
 -1      8303-6.81828E-01-2.09888E-01 1.34667E+03 4.51102E-11 1.77797E+02 4.99027E-12
 -1      8304-4.36220E-01-6.56925E-02 1.34644E+03 6.97169E-01 1.78288E+02 7.25689E+00
 -1      8305 3.82569E-01-1.17940E-01 1.43010E+03 1.01330E-11 1.76152E+02 1.91114E-11
 -1      8306-1.22431E+00-2.65229E-01 1.13190E+03 1.95426E-11 2.42201E+02 8.61356E-12
 -1      8307-1.22616E+00-1.14826E-01 1.18240E+03 8.58957E-12 1.76732E+02 1.32191E-11
 -1      8308-1.01599E+00-1.36726E-02 1.18233E+03 3.92128E-01 1.77293E+02 6.75487E+00
 -1      8309-9.60103E-01-2.14109E-02 1.26471E+03 1.38842E-11 1.74756E+02 4.26979E-12
 -1      8310-1.42213E+00-1.21490E-01 9.94671E+02 3.15584E-11 2.40756E+02 2.36440E-11
 -1      8311-1.07630E+00-6.58412E-02 1.01967E+03-5.98994E-12 1.76105E+02 2.09619E-11
 -1      8312-9.26771E-01-8.05219E-04 1.01968E+03 2.11619E-01 1.76705E+02 6.39560E+00
 -1      8313-1.09786E+00 7.99854E-03 1.10120E+03 1.36533E-11 1.73902E+02 2.52927E-11
 -1      8314-1.12837E+00-5.70304E-02 8.58898E+02-2.87683E-12 2.39930E+02 3.02466E-11
 -1      8315-7.66003E-01-3.78321E-02 8.57893E+02 3.94323E-11 1.75757E+02 1.80335E-11
 -1      8316-6.70625E-01 1.01722E-03 8.57929E+02 1.09662E-01 1.76380E+02 6.16392E+00
 -1      8317-8.63298E-01 1.10431E-02 9.38918E+02 1.40581E-11 1.73414E+02 1.91190E-11
 -1      8318-7.66889E-01-2.82484E-02 7.23993E+02 2.03985E-11 2.39480E+02 1.49783E-11
 -1      8319-4.86624E-01-2.15002E-02 6.96664E+02-4.06814E-12 1.75574E+02 6.25611E-14
 -1      8320-4.30080E-01 4.67048E-04 6.96709E+02 5.44779E-02 1.76209E+02 6.02483E+00
 -1      8321-5.81164E-01 8.14906E-03 7.77383E+02 2.34173E-11 1.73150E+02-6.59098E-13
 -1      8322-4.74265E-01-1.45702E-02 5.89585E+02-1.77209E-11 2.39245E+02 2.19231E-11
 -1      8323-2.83775E-01-1.17326E-02 5.35740E+02-1.07563E-11 1.75483E+02 9.03005E-12
 -1      8324-2.52403E-01 1.23808E-05 5.35782E+02 2.58144E-02 1.76124E+02 5.94615E+00
 -1      8325-3.54789E-01 4.96073E-03 6.16279E+02-3.11947E-11 1.73014E+02 1.28054E-11
 -1      8326-2.71746E-01-7.44820E-03 4.55450E+02-4.08142E-11 2.39129E+02 3.06968E-11
 -1      8327-1.49964E-01-5.89767E-03 3.74977E+02-1.33919E-11 1.75440E+02 3.46601E-11
 -1      8328-1.33975E-01-8.18049E-05 3.75009E+02 1.14788E-02 1.76084E+02 5.90441E+00
 -1      8329-1.98480E-01 2.79393E-03 4.55412E+02-2.91285E-11 1.72947E+02 1.96568E-11
 -1      8330-1.41955E-01-3.49316E-03 3.21458E+02-6.49451E-11 2.39073E+02 3.28436E-11
 -1      8331-6.29506E-02-2.33888E-03 2.14293E+02 3.00079E-12 1.75421E+02 5.50802E-11
 -1      8332-5.63833E-02 5.32303E-06 2.14312E+02 4.36588E-03 1.76066E+02 5.88468E+00
 -1      8333-9.68289E-02 1.47698E-03 2.94668E+02-2.35778E-11 1.72917E+02 3.12003E-11
 -1      8334-5.93681E-02-1.27739E-03 1.87536E+02-7.67154E-12 2.39049E+02 5.81916E-11
 -1      8335 4.83013E-04 6.15051E-05 5.36404E+01-1.01125E-10 1.75415E+02 8.10132E-11
 -1      8336 4.66694E-04 5.61771E-05 5.36454E+01 2.51010E-04 1.76061E+02 5.87885E+00
 -1      8337-2.80755E-02 5.85974E-04 1.33981E+02-1.11743E-10 1.72905E+02 7.67243E-11
 -1      8338-2.17047E-04-1.81777E-04 5.36430E+01-1.14055E-10 2.39043E+02 6.36112E-11
 -1      8339 6.15508E-02 2.11511E-03-1.07012E+02-6.01858E-11 1.75420E+02 8.38739E-11
 -1      8340 5.51836E-02-1.72968E-04-1.07021E+02-3.81337E-03 1.76065E+02 5.88419E+00
 -1      8341 2.86152E-02-3.39694E-04-2.66899E+01-8.25103E-11 1.72904E+02 8.49670E-11
 -1      8342 5.62982E-02-5.67099E-05-8.02505E+01-2.56754E-11 2.39049E+02 8.87676E-11
 -1      8343 1.40233E-01 4.45420E-03-2.67696E+02-2.26252E-11 1.75439E+02 7.28824E-11
 -1      8344 1.25258E-01-1.07179E-03-2.67717E+02-1.07920E-02 1.76083E+02 5.90265E+00
 -1      8345 9.24116E-02-1.85426E-03-1.87376E+02-2.49351E-11 1.72916E+02 8.67767E-11
 -1      8346 1.29728E-01-1.19620E-03-2.14172E+02 5.05261E-12 2.39075E+02 5.55658E-11
 -1      8347 2.55837E-01 7.62818E-03-4.28457E+02-5.08156E-11 1.75487E+02 1.24300E-10
 -1      8348 2.27242E-01-3.32069E-03-4.28488E+02-2.49777E-02 1.76128E+02 5.94125E+00
 -1      8349 1.81642E-01-4.76335E-03-3.48119E+02-3.68303E-11 1.72949E+02 9.09872E-11
 -1      8350 2.39917E-01-4.36791E-03-3.48163E+02-9.77803E-11 2.39136E+02 9.28215E-11
 -1      8351 4.23482E-01 1.22599E-02-5.89376E+02 2.34918E-11 1.75590E+02 7.60841E-11
 -1      8352 3.73086E-01-7.94183E-03-5.89411E+02-5.36503E-02 1.76225E+02 6.01321E+00
 -1      8353 3.12651E-01-1.02465E-02-5.08982E+02 3.31439E-11 1.73024E+02 1.00341E-10
 -1      8354 4.05393E-01-1.05967E-02-4.82292E+02 4.11335E-11 2.39268E+02 4.70460E-11
 -1      8355 6.39863E-01 1.94187E-02-7.50596E+02-2.87339E-11 1.75800E+02 2.36156E-11
 -1      8356 5.56599E-01-1.59491E-02-7.50623E+02-1.09393E-01 1.76423E+02 6.13937E+00
 -1      8357 4.91928E-01-1.97466E-02-6.70078E+02 5.49942E-11 1.73179E+02 3.77364E-11
 -1      8358 6.33285E-01-2.00287E-02-6.16684E+02 5.37200E-11 2.39536E+02 2.73828E-11
 -1      8359 8.45431E-01 3.21961E-02-9.12359E+02 1.39178E-10 1.76203E+02 4.00627E-11
 -1      8360 7.17815E-01-2.65329E-02-9.12354E+02-2.13249E-01 1.76803E+02 6.34817E+00
 -1      8361 6.92574E-01-3.38117E-02-8.31598E+02 8.47900E-11 1.73483E+02 3.75529E-11
 -1      8362 8.89960E-01-2.82590E-02-7.51550E+02 1.22113E-10 2.40051E+02 2.65817E-11
 -1      8363 8.35379E-01 5.79741E-02-1.07506E+03 1.44855E-10 1.76931E+02 2.75033E-11
 -1      8364 6.61816E-01-3.26406E-02-1.07498E+03-3.98456E-01 1.77490E+02 6.67005E+00
 -1      8365 7.96637E-01-4.91092E-02-9.93855E+02 1.38572E-10 1.74046E+02 1.61693E-11
 -1      8366 1.02903E+00-1.76517E-02-8.87244E+02 1.71046E-10 2.40991E+02 4.51567E-12
 -1      8367 7.35597E-02 1.21314E-01-1.23927E+03 1.75575E-10 1.78166E+02-8.83338E-11
 -1      8368-1.15897E-01-6.64718E-03-1.23905E+03-7.13468E-01 1.78655E+02 7.11644E+00
 -1      8369 4.68997E-01-4.73606E-02-1.15732E+03 1.44186E-10 1.75031E+02-2.42035E-11
 -1      8370 6.31875E-01 5.82704E-02-1.02432E+03 2.31371E-10 2.42623E+02-7.81366E-11
 -1      8371-2.71181E+00 2.48989E-01-1.40580E+03-8.10038E-13 1.80112E+02-1.53367E-10
 -1      8372-2.78089E+00 1.05413E-01-1.40530E+03-1.22019E+00 1.80484E+02 7.62268E+00
 -1      8373-1.11235E+00 1.24589E-02-1.32265E+03 6.16004E-11 1.76638E+02-1.25359E-10
 -1      8374-1.33567E+00 2.91327E-01-1.16361E+03 6.08302E-12 2.45308E+02-1.13483E-10
 -1      8375-1.02346E+01 5.77292E-01-1.57550E+03 2.14536E-11 1.82923E+02-1.11528E-10
 -1      8376-9.85529E+00 4.74930E-01-1.57455E+03-1.98101E+00 1.83113E+02 7.91031E+00
 -1      8377-5.77502E+00 2.65313E-01-1.49059E+03-5.73852E-11 1.79106E+02-1.55860E-10
 -1      8378-7.23516E+00 7.41443E-01-1.30628E+03-1.10111E-10 2.49513E+02-1.03076E-10
 -1      8379-2.83078E+01 7.68494E-01-1.74893E+03 4.78840E-11 1.86655E+02-1.63014E-10
 -1      8380-2.66129E+01 9.30105E-01-1.74727E+03-3.01822E+00 1.86582E+02 7.20915E+00
 -1      8381-1.74454E+01 7.28671E-01-1.66168E+03-1.08583E-11 1.82497E+02-1.22395E-10
 -1      8382-2.20035E+01 1.28082E+00-1.45337E+03-4.63227E-12 2.55870E+02-1.56840E-10
 -1      8383-6.75269E+01 1.67364E+00-1.92514E+03-7.72318E-11 1.91715E+02-2.10433E-10
 -1      8384-6.28331E+01 2.55750E+00-1.92246E+03-4.24839E+00 1.91276E+02 3.82046E+00
 -1      8385-4.38655E+01 2.04980E+00-1.83580E+03-4.81214E-11 1.87654E+02-2.19968E-10
 -1      8386-5.67190E+01-1.15851E+00-1.60718E+03-1.05747E-11 2.65966E+02-1.74532E-10
 -1      8387-1.50521E+02-7.78529E+00-2.10355E+03-3.94110E-11 2.01341E+02-1.81271E-10
 -1      8388-1.41288E+02-5.99767E+00-2.10087E+03-5.41346E+00 2.00375E+02-5.34963E+00
 -1      8389-1.00024E+02 1.33896E-01-2.00973E+03-8.25795E-11 1.94531E+02-1.68545E-10
 -1      8390-1.25871E+02-1.07960E+01-1.75703E+03-8.34586E-11 2.84856E+02-1.65983E-10
 -1      8391-2.95982E+02-6.87393E+00-2.28224E+03 3.29690E-11 2.50736E+02-1.56049E-10
 -1      8392-2.81360E+02-3.75481E+00-2.27948E+03-6.18911E+00 2.48924E+02-2.17029E+01
 -1      8393-2.09963E+02 1.99185E+00-2.19107E+03-1.19352E-12 2.24708E+02-1.65538E-10
 -1      8394-2.71332E+02-8.11142E+01-1.91188E+03 4.97362E-11 3.33635E+02-1.81222E-10
 -1      8395-6.88189E+02-4.14669E+02-2.57083E+03-3.84867E-11 4.70472E+02-1.86975E-10
 -1      8396-6.75130E+02-4.09822E+02-2.56736E+03-5.61294E+00 4.67050E+02-4.23517E+01
 -1      8397-4.12351E+02-1.14397E+02-2.30475E+03 4.52999E-11 3.14590E+02-1.49458E-10
 -1      8398-4.91640E+02-2.66139E+02-1.96205E+03 5.43424E-11 4.12960E+02-2.06367E-10
 -1      8399-9.71055E+02-9.71066E+02-2.11948E+03-4.43223E-12 3.83260E+02-1.67392E-10
 -1      8400-9.68043E+02-9.68031E+02-2.11297E+03-1.50324E-04 3.82216E+02-5.42059E+01
 -1      8401-7.43652E+02-4.75721E+02-2.31249E+03 2.83437E-11 4.48706E+02-2.13570E-10
 -1      8402-7.65559E+02-7.65554E+02-1.67100E+03-2.94946E-12 2.75935E+02-1.72592E-10
 -1      8403 1.00825E+03 1.00826E+03 2.20067E+03 2.68054E-04 3.96410E+02 1.15663E+02
 -1      8404 6.97990E+02 4.30836E+02 2.68501E+03-1.24111E+01 4.74961E+02 9.15640E+01
 -1      8405 1.01091E+03 1.01089E+03 2.20652E+03-1.48273E-04 4.02730E+02 5.68000E+01
 -1      8406 7.03610E+02 4.28762E+02 2.68162E+03-5.48422E+00 4.82122E+02 4.45512E+01
 -1      8407 8.04033E+02 8.04028E+02 1.75497E+03-3.42407E-04 2.83923E+02 9.68234E+01
 -1      8408 7.65011E+02 4.97098E+02 2.41144E+03-8.69894E+00 4.57671E+02 1.04724E+02
 -1      8409 5.04315E+02 2.85135E+02 2.07312E+03-1.42897E+01 4.14855E+02 7.62529E+01
 -1      8410 2.84482E+02 1.05871E+01 2.39235E+03-1.29308E+01 2.46322E+02 4.60740E+01
 -1      8411 2.91988E+02 5.38493E+00 2.38787E+03-5.95900E+00 2.51167E+02 2.28793E+01
 -1      8412 4.01001E+02 1.18556E+02 2.40954E+03-1.30789E+01 3.13918E+02 6.81585E+01
 -1      8413 2.65476E+02 8.94869E+01 2.02437E+03-1.72217E+01 3.29267E+02 3.73268E+01
 -1      8414 1.35522E+02 8.54008E+00 2.20660E+03-1.09256E+01 1.96373E+02 1.04521E+01
 -1      8415 1.45135E+02 6.76121E+00 2.20874E+03-5.17948E+00 1.99139E+02 5.64393E+00
 -1      8416 1.94419E+02-1.12172E+00 2.29534E+03-1.20174E+01 2.20238E+02 2.69067E+01
 -1      8417 1.14880E+02 1.30075E+01 1.86230E+03-1.52597E+01 2.79496E+02 6.98446E+00
 -1      8418 5.71921E+01-1.97420E+00 2.02505E+03-8.42003E+00 1.88240E+02-8.98738E+00
 -1      8419 6.33298E+01-2.53543E+00 2.03016E+03-4.06792E+00 1.89580E+02-3.99693E+00
 -1      8420 8.76455E+01 1.55772E-01 2.11095E+03-9.72347E+00 1.90321E+02 1.78161E-01
 -1      8421 4.88202E+01 1.41200E+00 1.70915E+03-1.17866E+01 2.62007E+02-8.65216E+00
 -1      8422 2.29199E+01-8.64993E-01 1.84986E+03-5.93879E+00 1.84888E+02-1.54629E+01
 -1      8423 2.59387E+01-1.02277E+00 1.85490E+03-2.90069E+00 1.85162E+02-7.51886E+00
 -1      8424 3.64502E+01-2.04509E+00 1.93657E+03-7.14958E+00 1.85048E+02-1.21992E+01
 -1      8425 1.78543E+01-1.32782E+00 1.55571E+03-8.24123E+00 2.53907E+02-1.32620E+01
 -1      8426 7.44727E+00-6.66508E-01 1.67813E+03-3.88298E+00 1.82616E+02-1.65886E+01
 -1      8427 8.94883E+00-5.97932E-01 1.68209E+03-1.91317E+00 1.82117E+02-8.19616E+00
 -1      8428 1.35614E+01-7.95041E-01 1.76356E+03-4.85290E+00 1.81473E+02-1.58882E+01
 -1      8429 5.04613E+00-9.32763E-01 1.40983E+03-5.34951E+00 2.49356E+02-1.35238E+01
 -1      8430 1.36169E+00-2.96962E-01 1.51006E+03-2.39290E+00 1.80877E+02-1.57403E+01
 -1      8431 2.00813E+00-2.07026E-01 1.51276E+03-1.18493E+00 1.79855E+02-7.83560E+00
 -1      8432 3.80212E+00-3.36964E-01 1.59411E+03-3.07942E+00 1.79348E+02-1.60030E+01
 -1      8433 2.52728E-01-4.70106E-01 1.26841E+03-3.28268E+00 2.46494E+02-1.23348E+01
 -1      8434-6.99495E-01-1.46200E-01 1.34472E+03-1.40143E+00 1.79646E+02-1.45377E+01
 -1      8435-4.36220E-01-6.56925E-02 1.34644E+03-6.97169E-01 1.78288E+02-7.25689E+00
 -1      8436 1.52930E-01-7.17961E-02 1.42752E+03-1.85042E+00 1.77770E+02-1.50181E+01
 -1      8437-1.15323E+00-1.94376E-01 1.13006E+03-1.91978E+00 2.44713E+02-1.10182E+01
 -1      8438-1.10445E+00-6.99368E-02 1.18128E+03-7.85373E-01 1.78853E+02-1.35205E+01
 -1      8439-1.01599E+00-1.36726E-02 1.18233E+03-3.92128E-01 1.77293E+02-6.75487E+00
 -1      8440-9.12958E-01 6.45428E-03 1.26317E+03-1.06060E+00 1.76738E+02-1.39476E+01
 -1      8441-1.26521E+00-7.30904E-02 9.93621E+02-1.07677E+00 2.43646E+02-9.97599E+00
 -1      8442-9.45871E-01-3.67514E-02 1.01906E+03-4.22391E-01 1.78383E+02-1.28016E+01
 -1      8443-9.26771E-01-8.05219E-04 1.01968E+03-2.11619E-01 1.76705E+02-6.39560E+00
 -1      8444-9.85456E-01 2.39898E-02 1.10032E+03-5.82719E-01 1.76100E+02-1.31112E+01
 -1      8445-9.86341E-01-2.65423E-02 8.58324E+02-5.80676E-01 2.43038E+02-9.26146E+00
 -1      8446-6.65661E-01-2.02242E-02 8.57574E+02-2.18171E-01 1.78122E+02-1.23414E+01
 -1      8447-6.70625E-01 1.01722E-03 8.57929E+02-1.09662E-01 1.76380E+02-6.16392E+00
 -1      8448-7.60811E-01 1.99290E-02 9.38441E+02-3.07448E-01 1.75735E+02-1.25429E+01
 -1      8449-6.64171E-01-1.01344E-02 7.23693E+02-3.01243E-01 2.42708E+02-8.81181E+00
 -1      8450-4.19906E-01-1.13732E-02 6.96505E+02-1.08024E-01 1.77986E+02-1.20667E+01
 -1      8451-4.30080E-01 4.67048E-04 6.96709E+02-5.44779E-02 1.76209E+02-6.02483E+00
 -1      8452-5.07178E-01 1.29021E-02 7.77136E+02-1.55698E-01 1.75538E+02-1.21887E+01
 -1      8453-4.08207E-01-4.32125E-03 5.89435E+02-1.50061E-01 2.42537E+02-8.54618E+00
 -1      8454-2.43579E-01-6.20560E-03 5.35665E+02-5.10107E-02 1.77919E+02-1.19120E+01
 -1      8455-2.52403E-01 1.23807E-05 5.35782E+02-2.58144E-02 1.76124E+02-5.94615E+00
 -1      8456-3.07578E-01 7.40603E-03 6.16157E+02-7.54425E-02 1.75438E+02-1.19817E+01
 -1      8457-2.32772E-01-1.92837E-03 4.55379E+02-7.14081E-02 2.42453E+02-8.39763E+00
 -1      8458-1.28163E-01-3.09218E-03 3.74945E+02-2.26053E-02 1.77887E+02-1.18303E+01
 -1      8459-1.33975E-01-8.18048E-05 3.75009E+02-1.14788E-02 1.76084E+02-5.90441E+00
 -1      8460-1.71193E-01 3.98937E-03 4.55356E+02-3.46801E-02 1.75389E+02-1.18677E+01
 -1      8461-1.21100E-01-7.18787E-04 3.21427E+02-3.19039E-02 2.42414E+02-8.31951E+00
 -1      8462-5.35699E-02-1.16699E-03 2.14281E+02-8.58145E-03 1.77873E+02-1.17918E+01
 -1      8463-5.63833E-02 5.32321E-06 2.14312E+02-4.36588E-03 1.76066E+02-5.88468E+00
 -1      8464-8.31606E-02 2.00781E-03 2.94644E+02-1.45923E-02 1.75367E+02-1.18098E+01
 -1      8465-5.04366E-02-1.15352E-04 1.87525E+02-1.21320E-02 2.42397E+02-8.28282E+00
 -1      8466 5.95175E-04 1.01307E-04 5.36410E+01-5.17491E-04 1.77869E+02-1.17804E+01
 -1      8467 4.66694E-04 5.61770E-05 5.36454E+01-2.51010E-04 1.76061E+02-5.87885E+00
 -1      8468-2.39565E-02 7.40860E-04 1.33975E+02-4.25176E-03 1.75358E+02-1.17858E+01
 -1      8469-1.80673E-05-1.11239E-04 5.36437E+01-5.38221E-04 2.42392E+02-8.27206E+00
 -1      8470 5.27861E-02 1.04940E-03-1.06999E+02 7.44151E-03 1.77873E+02-1.17909E+01
 -1      8471 5.51836E-02-1.72968E-04-1.07021E+02 3.81337E-03 1.76065E+02-5.88419E+00
 -1      8472 2.47646E-02-4.70391E-04-2.66829E+01 3.18432E-03 1.75358E+02-1.17854E+01
 -1      8473 4.81744E-02-1.04242E-03-8.02384E+01 1.09524E-02 2.42397E+02-8.28201E+00
 -1      8474 1.20396E-01 1.84100E-03-2.67663E+02 2.11854E-02 1.77887E+02-1.18270E+01
 -1      8475 1.25258E-01-1.07179E-03-2.67717E+02 1.07920E-02 1.76083E+02-5.90265E+00
 -1      8476 7.98004E-02-2.34721E-03-1.87352E+02 1.33252E-02 1.75366E+02-1.18079E+01
 -1      8477 1.11077E-01-3.68289E-03-2.14141E+02 3.04541E-02 2.42416E+02-8.31641E+00
 -1      8478 2.20445E-01 2.45707E-03-4.28384E+02 4.92751E-02 1.77923E+02-1.19028E+01
 -1      8479 2.27242E-01-3.32069E-03-4.28488E+02 2.49777E-02 1.76128E+02-5.94125E+00
 -1      8480 1.57330E-01-5.89084E-03-3.48064E+02 3.30942E-02 1.75391E+02-1.18618E+01
 -1      8481 2.06045E-01-9.39898E-03-3.48094E+02 6.96751E-02 2.42461E+02-8.38869E+00
 -1      8482 3.66840E-01 2.75392E-03-5.89224E+02 1.06295E-01 1.78002E+02-1.20445E+01
 -1      8483 3.73086E-01-7.94183E-03-5.89411E+02 5.36503E-02 1.76225E+02-6.01321E+00
 -1      8484 2.72178E-01-1.25728E-02-5.08866E+02 7.36512E-02 1.75448E+02-1.19665E+01
 -1      8485 3.49716E-01-2.00563E-02-4.82149E+02 1.48420E-01 2.42561E+02-8.52451E+00
 -1      8486 5.58634E-01 2.81236E-03-7.50294E+02 2.17571E-01 1.78165E+02-1.22941E+01
 -1      8487 5.56599E-01-1.59491E-02-7.50623E+02 1.09393E-01 1.76423E+02-6.13937E+00
 -1      8488 4.31411E-01-2.43052E-02-6.69844E+02 1.54366E-01 1.75567E+02-1.21551E+01
 -1      8489 5.49811E-01-3.69775E-02-6.16401E+02 3.00925E-01 2.42764E+02-8.76537E+00
 -1      8490 7.48405E-01 4.57279E-03-9.11784E+02 4.25669E-01 1.78479E+02-1.27095E+01
 -1      8491 7.17815E-01-2.65329E-02-9.12354E+02 2.13249E-01 1.76803E+02-6.34817E+00
 -1      8492 6.14710E-01-4.24076E-02-8.31150E+02 3.08407E-01 1.75803E+02-1.24754E+01
 -1      8493 7.80844E-01-5.72528E-02-7.51013E+02 5.84625E-01 2.43157E+02-9.17071E+00
 -1      8494 7.67492E-01 1.49303E-02-1.07401E+03 7.98290E-01 1.79047E+02-1.33549E+01
 -1      8495 6.61816E-01-3.26406E-02-1.07498E+03 3.98456E-01 1.77490E+02-6.67005E+00
 -1      8496 7.25801E-01-6.47246E-02-9.93032E+02 5.90056E-01 1.76241E+02-1.29861E+01
 -1      8497 9.23848E-01-6.46304E-02-8.86264E+02 1.09106E+00 2.43877E+02-9.81208E+00
 -1      8498 1.69829E-01 5.93284E-02-1.23745E+03 1.43486E+00 1.80005E+02-1.42618E+01
 -1      8499-1.15897E-01-6.64718E-03-1.23905E+03 7.13468E-01 1.78655E+02-7.11644E+00
 -1      8500 4.86225E-01-7.48584E-02-1.15588E+03 1.08240E+00 1.77006E+02-1.37328E+01
 -1      8501 6.33779E-01-1.24780E-02-1.02261E+03 1.95573E+00 2.45125E+02-1.07440E+01
 -1      8502-2.11141E+00 1.73346E-01-1.40279E+03 2.46546E+00 1.81492E+02-1.53188E+01
 -1      8503-2.78089E+00 1.05413E-01-1.40530E+03 1.22019E+00 1.80484E+02-7.62268E+00
 -1      8504-7.93768E-01-3.36488E-02-1.32024E+03 1.90117E+00 1.78241E+02-1.46778E+01
 -1      8505-9.53702E-01 1.96235E-01-1.16078E+03 3.35930E+00 2.47174E+02-1.19138E+01
 -1      8506-8.34787E+00 5.12906E-01-1.57085E+03 4.02305E+00 1.83589E+02-1.60159E+01
 -1      8507-9.85529E+00 4.74930E-01-1.57455E+03 1.98101E+00 1.83113E+02-7.91031E+00
 -1      8508-4.65099E+00 1.90154E-01-1.48683E+03 3.18252E+00 1.80114E+02-1.55160E+01
 -1      8509-5.81013E+00 6.46813E-01-1.30187E+03 5.49513E+00 2.50381E+02-1.29483E+01
 -1      8510-2.36351E+01 7.41289E-01-1.74254E+03 6.18227E+00 1.86272E+02-1.48301E+01
 -1      8511-2.66129E+01 9.30105E-01-1.74727E+03 3.01822E+00 1.86582E+02-7.20915E+00
 -1      8512-1.44477E+01 6.28303E-01-1.65628E+03 5.04111E+00 1.82609E+02-1.52923E+01
 -1      8513-1.82604E+01 1.21115E+00-1.44721E+03 8.49022E+00 2.55262E+02-1.26203E+01
 -1      8514-5.68634E+01 1.97486E+00-1.91763E+03 8.79618E+00 1.89895E+02-8.58908E+00
 -1      8515-6.28331E+01 2.55750E+00-1.92246E+03 4.24839E+00 1.91276E+02-3.82046E+00
 -1      8516-3.68259E+01 1.91572E+00-1.82924E+03 7.45783E+00 1.86493E+02-1.16793E+01
 -1      8517-4.78086E+01-8.64032E-01-1.59977E+03 1.21636E+01 2.63386E+02-8.23765E+00
 -1      8518-1.31992E+02-7.73753E+00-2.09876E+03 1.14135E+01 1.97587E+02 9.90896E+00
 -1      8519-1.41288E+02-5.99767E+00-2.10087E+03 5.41346E+00 2.00375E+02 5.34963E+00
 -1      8520-8.61355E+01 6.18735E-02-2.00353E+03 1.01612E+01 1.91710E+02 1.46219E-01
 -1      8521-1.10255E+02-1.07543E+01-1.75198E+03 1.57410E+01 2.79863E+02 6.45648E+00
 -1      8522-2.74054E+02-8.73619E+00-2.28350E+03 1.34111E+01 2.44111E+02 4.37165E+01
 -1      8523-2.81360E+02-3.75481E+00-2.27948E+03 6.18911E+00 2.48924E+02 2.17029E+01
 -1      8524-1.88159E+02 1.97285E+00-2.18719E+03 1.25203E+01 2.19744E+02 2.55468E+01
 -1      8525-2.52583E+02-8.20365E+01-1.91279E+03 1.76927E+01 3.25805E+02 3.49600E+01
 -1      8526-6.69557E+02-4.11695E+02-2.57017E+03 1.26661E+01 4.59989E+02 8.70587E+01
 -1      8527-6.75130E+02-4.09822E+02-2.56736E+03 5.61294E+00 4.67050E+02 4.23517E+01
 -1      8528-3.85097E+02-1.12005E+02-2.30261E+03 1.34652E+01 3.07031E+02 6.47579E+01
 -1      8529-4.78082E+02-2.66527E+02-1.96451E+03 1.45746E+01 4.03511E+02 7.17183E+01
 -1      8530-9.65318E+02-9.65329E+02-2.10696E+03-2.72598E-04 3.75976E+02 1.10386E+02
 -1      8531-9.68043E+02-9.68031E+02-2.11297E+03 1.50324E-04 3.82216E+02 5.42059E+01
 -1      8532-7.31887E+02-4.73091E+02-2.30776E+03 8.82188E+00 4.39649E+02 9.97736E+01
 -1      8533-7.61748E+02-7.61744E+02-1.66268E+03 3.49154E-04 2.68331E+02 9.15247E+01
 -1      8534 1.01755E+03 1.01756E+03 2.22097E+03 4.70242E-04 3.65342E+02 2.49175E+02
 -1      8535 6.22391E+02 4.16876E+02 2.67761E+03-2.05338E+01 4.40652E+02 1.96287E+02
 -1      8536 1.01060E+03 1.01059E+03 2.20587E+03-4.14586E-04 3.84623E+02 1.78900E+02
 -1      8537 6.58643E+02 4.20764E+02 2.67694E+03-1.55927E+01 4.60530E+02 1.39688E+02
 -1      8538 8.14288E+02 8.14285E+02 1.77736E+03-6.43356E-04 2.53482E+02 2.09729E+02
 -1      8539 7.28957E+02 4.87854E+02 2.40456E+03-1.69443E+01 4.25815E+02 2.30092E+02
 -1      8540 4.41633E+02 2.77432E+02 2.07425E+03-2.58025E+01 3.83186E+02 1.63234E+02
 -1      8541 1.91648E+02 4.75266E+00 2.37779E+03-1.99358E+01 2.25572E+02 6.77642E+01
 -1      8542 2.42850E+02 6.95382E+00 2.38589E+03-1.52365E+01 2.37815E+02 5.96550E+01
 -1      8543 3.19749E+02 1.15015E+02 2.41177E+03-2.16921E+01 2.86844E+02 1.27974E+02
 -1      8544 1.84439E+02 8.12131E+01 2.01014E+03-3.01283E+01 3.04722E+02 5.37424E+01
 -1      8545 8.38329E+01 8.22657E+00 2.18280E+03-1.67370E+01 1.85620E+02 6.55688E+00
 -1      8546 1.09955E+02 7.25645E+00 2.19702E+03-1.31349E+01 1.91932E+02 9.91630E+00
 -1      8547 1.23549E+02-2.11898E+00 2.27816E+03-1.85635E+01 2.04645E+02 3.65407E+01
 -1      8548 7.01394E+01 1.15563E+01 1.83841E+03-2.57016E+01 2.64578E+02 1.66378E+00
 -1      8549 3.07762E+01-2.93468E+00 1.99659E+03-1.26036E+01 1.84109E+02-2.11842E+01
 -1      8550 4.59777E+01-1.86097E+00 2.01464E+03-1.02550E+01 1.86374E+02-1.37561E+01
 -1      8551 5.03780E+01-3.07706E-01 2.08373E+03-1.46780E+01 1.82722E+02-7.96170E+00
 -1      8552 2.64493E+01 4.49592E-02 1.68140E+03-1.88271E+01 2.55685E+02-1.97581E+01
 -1      8553 1.19805E+01-8.89040E-01 1.82839E+03-8.78941E+00 1.85191E+02-2.82482E+01
 -1      8554 1.82534E+01-6.22997E-01 1.84144E+03-7.21980E+00 1.84847E+02-2.13372E+01
 -1      8555 1.96656E+01-1.74450E+00 1.91300E+03-1.06358E+01 1.82967E+02-2.41798E+01
 -1      8556 8.94785E+00-1.46259E+00 1.53511E+03-1.28334E+01 2.53825E+02-2.39539E+01
 -1      8557 3.60279E+00-4.70453E-01 1.66356E+03-5.66339E+00 1.85975E+02-2.81489E+01
 -1      8558 6.10661E+00-3.07066E-01 1.67247E+03-4.72398E+00 1.83846E+02-2.21459E+01
 -1      8559 6.89094E+00-5.79828E-01 1.74593E+03-7.12630E+00 1.83236E+02-2.77490E+01
 -1      8560 2.18302E+00-7.79256E-01 1.39599E+03-8.15430E+00 2.53589E+02-2.25809E+01
 -1      8561 4.56460E-01-7.53946E-02 1.50100E+03-3.44416E+00 1.86218E+02-2.59455E+01
 -1      8562 1.22110E+00-2.52919E-02 1.50651E+03-2.90065E+00 1.82953E+02-2.07643E+01
 -1      8563 1.66900E+00-1.67081E-01 1.58243E+03-4.46009E+00 1.83667E+02-2.66761E+01
 -1      8564-2.15402E-01-2.63343E-01 1.25986E+03-4.92051E+00 2.53521E+02-1.98949E+01
 -1      8565-5.57663E-01 3.06595E-02 1.33940E+03-1.98985E+00 1.86217E+02-2.36836E+01
 -1      8566-4.52234E-01 4.37563E-02 1.34266E+03-1.69310E+00 1.82254E+02-1.90765E+01
 -1      8567-1.98507E-01 3.64057E-02 1.42033E+03-2.64477E+00 1.83716E+02-2.45727E+01
 -1      8568-8.32453E-01-2.65771E-02 1.12506E+03-2.83560E+00 2.53459E+02-1.74787E+01
 -1      8569-7.06056E-01 5.17876E-02 1.17831E+03-1.10009E+00 1.86149E+02-2.19402E+01
 -1      8570-8.13051E-01 4.99445E-02 1.18016E+03-9.44647E-01 1.81779E+02-1.77061E+01
 -1      8571-6.79208E-01 7.25245E-02 1.25898E+03-1.49551E+00 1.83668E+02-2.26608E+01
 -1      8572-8.04185E-01 4.27380E-02 9.90828E+02-1.56878E+00 2.53401E+02-1.57080E+01
 -1      8573-5.74002E-01 4.03392E-02 1.01747E+03-5.83255E-01 1.86088E+02-2.07641E+01
 -1      8574-7.13116E-01 3.48279E-02 1.01849E+03-5.05578E-01 1.81489E+02-1.67555E+01
 -1      8575-6.46920E-01 6.22984E-02 1.09800E+03-8.10339E-01 1.83601E+02-2.12647E+01
 -1      8576-5.99040E-01 4.65682E-02 8.56833E+02-8.34617E-01 2.53361E+02-1.45435E+01
 -1      8577-3.93801E-01 2.56540E-02 8.56763E+02-2.96633E-01 1.86049E+02-2.00333E+01
 -1      8578-5.07283E-01 2.03325E-02 8.57311E+02-2.59649E-01 1.81328E+02-1.61542E+01
 -1      8579-4.77292E-01 4.11760E-02 9.37211E+02-4.21234E-01 1.83552E+02-2.03506E+01
 -1      8580-3.93450E-01 3.31522E-02 7.22931E+02-4.26905E-01 2.53339E+02-1.38307E+01
 -1      8581-2.44248E-01 1.45511E-02 6.96112E+02-1.44317E-01 1.86028E+02-1.96068E+01
 -1      8582-3.21919E-01 1.05687E-02 6.96401E+02-1.27693E-01 1.81244E+02-1.57983E+01
 -1      8583-3.10137E-01 2.41888E-02 7.76514E+02-2.09832E-01 1.83524E+02-1.97952E+01
 -1      8584-2.37656E-01 1.99927E-02 5.89065E+02-2.09388E-01 2.53328E+02-1.34185E+01
 -1      8585-1.39807E-01 7.70775E-03 5.35486E+02-6.67721E-02 1.86019E+02-1.93711E+01
 -1      8586-1.87458E-01 5.08777E-03 5.35637E+02-5.98081E-02 1.81203E+02-1.55993E+01
 -1      8587-1.84733E-01 1.31230E-02 6.15858E+02-9.97562E-02 1.83510E+02-1.94771E+01
 -1      8588-1.33654E-01 1.10366E-02 4.55209E+02-9.79087E-02 2.53325E+02-1.31921E+01
 -1      8589-7.27087E-02 3.85853E-03 3.74869E+02-2.89351E-02 1.86014E+02-1.92486E+01
 -1      8590-9.88675E-02 2.31954E-03 3.74946E+02-2.62619E-02 1.81184E+02-1.54948E+01
 -1      8591-1.01357E-01 6.72919E-03 4.55221E+02-4.48649E-02 1.83503E+02-1.93050E+01
 -1      8592-6.86928E-02 5.73283E-03 3.21355E+02-4.29259E-02 2.53324E+02-1.30750E+01
 -1      8593-2.99991E-02 1.70595E-03 2.14256E+02-1.08257E-02 1.86013E+02-1.91918E+01
 -1      8594-4.13412E-02 9.65200E-04 2.14289E+02-9.90710E-03 1.81175E+02-1.54459E+01
 -1      8595-4.86228E-02 3.20238E-03 2.94590E+02-1.84860E-02 1.83501E+02-1.92188E+01
 -1      8596-2.82334E-02 2.58523E-03 1.87501E+02-1.61026E-02 2.53323E+02-1.30208E+01
 -1      8597 7.11127E-04 2.13301E-04 5.36430E+01-8.46850E-04 1.86012E+02-1.91753E+01
 -1      8598 5.74976E-04 1.01165E-04 5.36466E+01-6.65042E-04 1.81173E+02-1.54316E+01
 -1      8599-1.37117E-02 1.09871E-03 1.33962E+02-5.42046E-03 1.83500E+02-1.91836E+01
 -1      8600 3.15389E-04 1.14999E-04 5.36458E+01-8.75921E-04 2.53323E+02-1.30052E+01
 -1      8601 3.03875E-02-1.52666E-03-1.06970E+02 8.91774E-03 1.86012E+02-1.91910E+01
 -1      8602 4.09880E-02-1.03443E-03-1.06997E+02 8.42320E-03 1.81175E+02-1.54449E+01
 -1      8603 1.48664E-02-7.24450E-04-2.66665E+01 3.65864E-03 1.83499E+02-1.91832E+01
 -1      8604 2.76343E-02-3.18248E-03-8.02102E+01 1.41486E-02 2.53323E+02-1.30201E+01
 -1      8605 6.93741E-02-4.57710E-03-2.67586E+02 2.64208E-02 1.86015E+02-1.92449E+01
 -1      8606 9.31770E-02-3.35266E-03-2.67654E+02 2.43521E-02 1.81184E+02-1.54910E+01
 -1      8607 4.75011E-02-3.39268E-03-1.87296E+02 1.63060E-02 1.83501E+02-1.92166E+01
 -1      8608 6.37519E-02-9.23440E-03-2.14067E+02 4.04125E-02 2.53326E+02-1.30715E+01
 -1      8609 1.28062E-01-1.04775E-02-4.28208E+02 6.34219E-02 1.86024E+02-1.93592E+01
 -1      8610 1.69957E-01-8.25273E-03-4.28348E+02 5.73505E-02 1.81207E+02-1.55881E+01
 -1      8611 9.43817E-02-8.38581E-03-3.47931E+02 4.19376E-02 1.83506E+02-1.92975E+01
 -1      8612 1.19189E-01-2.08568E-02-3.47926E+02 9.46767E-02 2.53333E+02-1.31808E+01
 -1      8613 2.15674E-01-2.14725E-02-5.88847E+02 1.40370E-01 1.86045E+02-1.95766E+01
 -1      8614 2.81274E-01-1.79086E-02-5.89118E+02 1.24973E-01 1.81260E+02-1.57708E+01
 -1      8615 1.65467E-01-1.78937E-02-5.08577E+02 9.60440E-02 1.83520E+02-1.94569E+01
 -1      8616 2.04699E-01-4.19709E-02-4.81792E+02 2.05816E-01 2.53353E+02-1.33893E+01
 -1      8617 3.34074E-01-4.03423E-02-7.49524E+02 2.93470E-01 1.86092E+02-1.99668E+01
 -1      8618 4.24663E-01-3.52405E-02-7.50039E+02 2.57908E-01 1.81371E+02-1.60950E+01
 -1      8619 2.67292E-01-3.49969E-02-6.69252E+02 2.06057E-01 1.83553E+02-1.97486E+01
 -1      8620 3.27263E-01-7.67819E-02-6.15677E+02 4.24630E-01 2.53395E+02-1.37656E+01
 -1      8621 4.60600E-01-6.85587E-02-9.10283E+02 5.84716E-01 1.86182E+02-2.06313E+01
 -1      8622 5.59702E-01-6.25000E-02-9.11242E+02 5.08055E-01 1.81584E+02-1.66394E+01
 -1      8623 3.92395E-01-6.28646E-02-8.29987E+02 4.19841E-01 1.83618E+02-2.02543E+01
 -1      8624 4.77346E-01-1.26012E-01-7.49607E+02 8.37906E-01 2.53477E+02-1.44126E+01
 -1      8625 5.07078E-01-1.01841E-01-1.07121E+03 1.11482E+00 1.86334E+02-2.16958E+01
 -1      8626 5.49551E-01-9.74628E-02-1.07295E+03 9.58399E-01 1.81968E+02-1.74957E+01
 -1      8627 4.92348E-01-1.02204E-01-9.90845E+02 8.17293E-01 1.83735E+02-2.10821E+01
 -1      8628 5.97171E-01-1.76573E-01-8.83645E+02 1.58691E+00 2.53622E+02-1.54655E+01
 -1      8629 2.34665E-01-1.13053E-01-1.23244E+03 2.03511E+00 1.86554E+02-2.32666E+01
 -1      8630 3.49162E-02-1.19164E-01-1.23551E+03 1.73185E+00 1.82602E+02-1.87228E+01
 -1      8631 4.18587E-01-1.40587E-01-1.15194E+03 1.52333E+00 1.83920E+02-2.23401E+01
 -1      8632 5.08126E-01-1.80748E-01-1.01793E+03 2.88660E+00 2.53850E+02-1.70623E+01
 -1      8633-9.34581E-01-4.85180E-02-1.39426E+03 3.55118E+00 1.86788E+02-2.52894E+01
 -1      8634-1.81881E+00-8.29547E-02-1.39944E+03 2.98864E+00 1.83547E+02-2.02181E+01
 -1      8635-2.05797E-01-1.43320E-01-1.31347E+03 2.71717E+00 1.84154E+02-2.40514E+01
 -1      8636-2.42255E-01-2.45796E-02-1.15277E+03 5.03615E+00 2.54158E+02-1.92352E+01
 -1      8637-4.22484E+00 3.01752E-01-1.55711E+03 5.88348E+00 1.86863E+02-2.72166E+01
 -1      8638-6.83823E+00 1.71335E-01-1.56551E+03 4.89965E+00 1.84779E+02-2.13912E+01
 -1      8639-2.23216E+00 1.42576E-02-1.47582E+03 4.61789E+00 1.84368E+02-2.59033E+01
 -1      8640-2.72853E+00 4.46122E-01-1.28890E+03 8.38487E+00 2.54534E+02-2.16354E+01
 -1      8641-1.25930E+01 7.17773E-01-1.72221E+03 9.19630E+00 1.86440E+02-2.71235E+01
 -1      8642-1.88775E+01 5.06836E-01-1.73456E+03 7.53564E+00 1.86170E+02-2.04713E+01
 -1      8643-7.54574E+00 3.96038E-01-1.63961E+03 7.43236E+00 1.84264E+02-2.67429E+01
 -1      8644-9.36985E+00 1.23194E+00-1.42784E+03 1.32473E+01 2.55056E+02-2.27983E+01
 -1      8645-3.09443E+01 2.81184E+00-1.89053E+03 1.32793E+01 1.85583E+02-2.02508E+01
 -1      8646-4.58046E+01 1.85373E+00-1.90771E+03 1.07621E+01 1.87949E+02-1.31474E+01
 -1      8647-2.01300E+01 1.58056E+00-1.80685E+03 1.11707E+01 1.84259E+02-2.31683E+01
 -1      8648-2.61434E+01 2.54170E-01-1.57351E+03 1.94915E+01 2.56906E+02-1.87701E+01
 -1      8649-8.19349E+01-7.52305E+00-2.07573E+03 1.77160E+01 1.86688E+02 6.18870E+00
 -1      8650-1.07240E+02-6.52896E+00-2.08947E+03 1.38358E+01 1.93084E+02 9.38771E+00
 -1      8651-4.98218E+01 4.33474E-01-1.97742E+03 1.55095E+01 1.83952E+02-7.62499E+00
 -1      8652-6.74850E+01-9.60244E+00-1.72902E+03 2.66194E+01 2.64830E+02 1.36058E+00
 -1      8653-1.84838E+02-3.24687E+00-2.26862E+03 2.10202E+01 2.23471E+02 6.42954E+01
 -1      8654-2.34028E+02-5.28757E+00-2.27691E+03 1.59770E+01 2.35660E+02 5.65940E+01
 -1      8655-1.19825E+02 2.84039E+00-2.17014E+03 1.96252E+01 2.04124E+02 3.47063E+01
 -1      8656-1.75561E+02-7.43215E+01-1.89840E+03 3.10950E+01 3.01348E+02 5.02685E+01
 -1      8657-5.96531E+02-3.97784E+02-2.56121E+03 2.11746E+01 4.26104E+02 1.86752E+02
 -1      8658-6.31628E+02-4.01811E+02-2.56165E+03 1.60065E+01 4.45748E+02 1.32843E+02
 -1      8659-3.06884E+02-1.08465E+02-2.30342E+03 2.26041E+01 2.80248E+02 1.21662E+02
 -1      8660-4.18294E+02-2.58951E+02-1.96417E+03 2.64103E+01 3.72154E+02 1.53599E+02
 -1      8661-9.73402E+02-9.73410E+02-2.12460E+03-4.80790E-04 3.45297E+02 2.37826E+02
 -1      8662-9.67236E+02-9.67225E+02-2.11121E+03 4.21305E-04 3.64351E+02 1.70746E+02
 -1      8663-6.96688E+02-4.63673E+02-2.29935E+03 1.72417E+01 4.08167E+02 2.19286E+02
 -1      8664-7.70839E+02-7.70837E+02-1.68253E+03 6.56478E-04 2.38218E+02 1.98247E+02
 -1      8665 9.84003E+02 9.84005E+02 2.14772E+03 5.99696E-04 3.10514E+02 4.31380E+02
 -1      8666 4.92725E+02 4.40425E+02 2.80652E+03-2.70261E+01 3.52296E+02 2.87249E+02
 -1      8667 9.81672E+02 9.81663E+02 2.14272E+03-6.12367E-04 3.44609E+02 3.28109E+02
 -1      8668 5.00189E+02 3.98198E+02 2.70953E+03-1.59592E+01 4.03428E+02 2.19548E+02
 -1      8669 7.90046E+02 7.90048E+02 1.72447E+03-6.68705E-04 1.96994E+02 3.62443E+02
 -1      8670 5.14929E+02 4.52782E+02 2.43399E+03-1.32872E+01 3.53373E+02 3.63476E+02
 -1      8671 3.42038E+02 3.11678E+02 2.19796E+03-4.21408E+01 3.04037E+02 2.41761E+02
 -1      8672 2.87626E+01-1.26928E+01 2.29694E+03-1.32252E+01 1.86021E+02 3.95783E+01
 -1      8673 1.40021E+02 1.00295E+01 2.36342E+03-1.71441E+01 2.07935E+02 6.58210E+01
 -1      8674 1.33649E+02 8.59229E+01 2.35225E+03-1.97703E+01 2.32117E+02 1.29011E+02
 -1      8675 3.81549E+01 4.80383E+01 1.93496E+03-3.16554E+01 2.57998E+02 2.87419E+01
 -1      8676 2.11136E+01 1.05789E+00 2.10088E+03-1.27939E+01 1.69999E+02-1.78451E+01
 -1      8677 5.32197E+01 6.32643E+00 2.14919E+03-1.40324E+01 1.78605E+02-2.62472E+00
 -1      8678 2.50909E+01-4.53923E+00 2.21045E+03-1.30197E+01 1.76155E+02 1.26803E+01
 -1      8679 1.59059E+01 1.20374E-01 1.76071E+03-2.44045E+01 2.41480E+02-1.99676E+01
 -1      8680 5.45304E+00-3.98098E+00 1.94027E+03-9.32302E+00 1.81926E+02-2.91015E+01
 -1      8681 2.11357E+01-8.31526E-01 1.97587E+03-1.08861E+01 1.82502E+02-2.40900E+01
 -1      8682 1.15672E+01-2.07912E+00 2.01901E+03-1.10162E+01 1.73920E+02-2.21147E+01
 -1      8683 4.34568E+00-4.40799E+00 1.62727E+03-1.65566E+01 2.50361E+02-2.65250E+01
 -1      8684 2.61561E+00-1.10399E+00 1.79170E+03-6.43807E+00 1.91087E+02-2.92063E+01
 -1      8685 8.12818E+00 7.37900E-04 1.81287E+03-7.54547E+00 1.87170E+02-2.86226E+01
 -1      8686 3.70105E+00-2.23634E+00 1.86717E+03-7.80468E+00 1.84601E+02-2.75957E+01
 -1      8687 1.38669E+00-3.07058E+00 1.50036E+03-1.07603E+01 2.59540E+02-2.45187E+01
 -1      8688 8.62317E-01-2.30147E-01 1.64146E+03-4.05674E+00 1.96870E+02-2.62610E+01
 -1      8689 2.65485E+00 1.39624E-01 1.65388E+03-4.85584E+00 1.90196E+02-2.73719E+01
 -1      8690 1.31775E+00-7.20042E-01 1.71676E+03-5.15747E+00 1.91603E+02-2.68972E+01
 -1      8691 1.89033E-01-1.34166E+00 1.37513E+03-6.59764E+00 2.66180E+02-2.06789E+01
 -1      8692 2.14010E-01 1.68944E-01 1.48825E+03-2.40324E+00 2.00088E+02-2.31038E+01
 -1      8693 4.75270E-01 2.56688E-01 1.49521E+03-2.93249E+00 1.91831E+02-2.47932E+01
 -1      8694 2.07745E-01-1.79637E-01 1.56491E+03-3.15177E+00 1.96036E+02-2.41303E+01
 -1      8695-1.50429E-01-4.30047E-01 1.24787E+03-3.86330E+00 2.70196E+02-1.72174E+01
 -1      8696-3.61983E-02 2.26077E-01 1.33239E+03-1.35240E+00 2.01789E+02-2.06266E+01
 -1      8697-2.58564E-01 2.12887E-01 1.33615E+03-1.68267E+00 1.92643E+02-2.24406E+01
 -1      8698-1.30424E-01 5.68356E-02 1.41033E+03-1.82014E+00 1.98439E+02-2.15507E+01
 -1      8699-2.16062E-01-5.24777E-02 1.11847E+03-2.16650E+00 2.72478E+02-1.46615E+01
 -1      8700-9.71955E-02 1.81964E-01 1.17461E+03-7.26590E-01 2.02658E+02-1.89261E+01
 -1      8701-4.03394E-01 1.46395E-01 1.17658E+03-9.22622E-01 1.93035E+02-2.07121E+01
 -1      8702-2.04263E-01 9.40646E-02 1.25352E+03-1.00115E+00 1.99712E+02-1.95986E+01
 -1      8703-1.80743E-01 5.79671E-02 9.87350E+02-1.16750E+00 2.73714E+02-1.29616E+01
 -1      8704-9.03061E-02 1.20293E-01 1.01561E+03-3.73751E-01 2.03094E+02-1.78543E+01
 -1      8705-3.44320E-01 8.75428E-02 1.01661E+03-4.84772E-01 1.93223E+02-1.95754E+01
 -1      8706-1.73549E-01 7.72221E-02 1.09515E+03-5.26455E-01 2.00362E+02-1.82959E+01
 -1      8707-1.26765E-01 6.76426E-02 8.55079E+02-6.04713E-01 2.74365E+02-1.19091E+01
 -1      8708-6.53928E-02 7.13605E-02 8.55875E+02-1.83711E-01 2.03309E+02-1.72198E+01
 -1      8709-2.41719E-01 4.79357E-02 8.56367E+02-2.43985E-01 1.93314E+02-1.88816E+01
 -1      8710-1.22255E-01 4.96897E-02 9.35791E+02-2.64865E-01 2.00688E+02-1.74894E+01
 -1      8711-8.01816E-02 4.95929E-02 7.22090E+02-3.00539E-01 2.74697E+02-1.12927E+01
 -1      8712-4.16579E-02 3.92293E-02 6.95714E+02-8.58783E-02 2.03413E+02-1.68638E+01
 -1      8713-1.51976E-01 2.44006E-02 6.95953E+02-1.17238E-01 1.93358E+02-1.84821E+01
 -1      8714-7.70878E-02 2.83750E-02 7.75842E+02-1.27060E-01 2.00848E+02-1.70194E+01
 -1      8715-4.70921E-02 3.05582E-02 5.88686E+02-1.42674E-01 2.74862E+02-1.09491E+01
 -1      8716-2.41507E-02 2.02798E-02 5.35322E+02-3.78338E-02 2.03461E+02-1.66739E+01
 -1      8717-8.78061E-02 1.16893E-02 5.35437E+02-5.34230E-02 1.93379E+02-1.82641E+01
 -1      8718-4.48863E-02 1.48772E-02 6.15561E+02-5.77271E-02 2.00925E+02-1.67594E+01
 -1      8719-2.58461E-02 1.70722E-02 4.55051E+02-6.41944E-02 2.74940E+02-1.07666E+01
 -1      8720-1.25797E-02 9.81851E-03 3.74810E+02-1.54807E-02 2.03483E+02-1.65783E+01
 -1      8721-4.59639E-02 5.28259E-03 3.74864E+02-2.27454E-02 1.93389E+02-1.81520E+01
 -1      8722-2.41355E-02 7.32364E-03 4.55101E+02-2.45619E-02 2.00960E+02-1.66230E+01
 -1      8723-1.29696E-02 8.86326E-03 3.21297E+02-2.69409E-02 2.74976E+02-1.06750E+01
 -1      8724-5.07500E-03 4.09717E-03 2.14240E+02-5.57157E-03 2.03491E+02-1.65353E+01
 -1      8725-1.90273E-02 2.12818E-03 2.14263E+02-8.40706E-03 1.93393E+02-1.81005E+01
 -1      8726-1.13389E-02 3.37146E-03 2.94548E+02-9.56133E-03 2.00976E+02-1.65567E+01
 -1      8727-5.15906E-03 4.00882E-03 1.87485E+02-9.77848E-03 2.74990E+02-1.06338E+01
 -1      8728 4.12372E-04 4.12372E-04 5.36462E+01-7.40922E-04 2.03493E+02-1.65233E+01
 -1      8729 5.08932E-04 2.44921E-04 5.36492E+01-7.83961E-04 1.93394E+02-1.80858E+01
 -1      8730-3.02833E-03 1.21985E-03 1.33954E+02-2.86723E-03 2.00981E+02-1.65302E+01
 -1      8731 2.44921E-04 5.08931E-04 5.36492E+01-7.83961E-04 2.74994E+02-1.06224E+01
 -1      8732 5.77164E-03-3.40053E-03-1.06948E+02 3.83148E-03 2.03491E+02-1.65354E+01
 -1      8733 1.94206E-02-1.87395E-03-1.06965E+02 6.60953E-03 1.93393E+02-1.81000E+01
 -1      8734 3.75279E-03-4.95389E-04-2.66525E+01 1.29551E-03 2.00981E+02-1.65303E+01
 -1      8735 5.41329E-03-3.61547E-03-8.01873E+01 7.98094E-03 2.74991E+02-1.06341E+01
 -1      8736 1.27613E-02-9.63685E-03-2.67521E+02 1.29630E-02 2.03484E+02-1.65771E+01
 -1      8737 4.40950E-02-5.89063E-03-2.67569E+02 2.02774E-02 1.93390E+02-1.81492E+01
 -1      8738 1.16413E-02-3.06899E-03-1.87249E+02 7.46805E-03 2.00976E+02-1.65561E+01
 -1      8739 1.23615E-02-1.07321E-02-2.14002E+02 2.44729E-02 2.74979E+02-1.06741E+01
 -1      8740 2.29960E-02-2.14345E-02-4.28042E+02 3.40525E-02 2.03468E+02-1.66675E+01
 -1      8741 8.07850E-02-1.42894E-02-4.28150E+02 4.99461E-02 1.93385E+02-1.82543E+01
 -1      8742 2.32684E-02-8.19065E-03-3.47807E+02 2.14323E-02 2.00964E+02-1.66193E+01
 -1      8743 2.32460E-02-2.40934E-02-3.47764E+02 6.07175E-02 2.74950E+02-1.07609E+01
 -1      8744 3.74799E-02-4.34074E-02-5.88455E+02 8.05621E-02 2.03432E+02-1.68450E+01
 -1      8745 1.34559E-01-3.10768E-02-5.88684E+02 1.12762E-01 1.93376E+02-1.84563E+01
 -1      8746 4.13618E-02-1.84016E-02-5.08283E+02 5.31507E-02 2.00937E+02-1.67472E+01
 -1      8747 4.04159E-02-4.79757E-02-4.81417E+02 1.38198E-01 2.74888E+02-1.09314E+01
 -1      8748 5.50055E-02-8.17477E-02-7.48666E+02 1.77301E-01 2.03354E+02-1.71747E+01
 -1      8749 2.04905E-01-6.23143E-02-7.49138E+02 2.39451E-01 1.93357E+02-1.88232E+01
 -1      8750 6.80951E-02-3.73677E-02-6.68600E+02 1.21051E-01 2.00879E+02-1.69885E+01
 -1      8751 6.58029E-02-8.64071E-02-6.14861E+02 2.96004E-01 2.74756E+02-1.12491E+01
 -1      8752 6.81541E-02-1.42445E-01-9.08504E+02 3.68498E-01 2.03190E+02-1.77590E+01
 -1      8753 2.73825E-01-1.15469E-01-9.09459E+02 4.83247E-01 1.93316E+02-1.94570E+01
 -1      8754 1.02864E-01-6.90813E-02-8.28625E+02 2.58630E-01 2.00756E+02-1.74217E+01
 -1      8755 9.88386E-02-1.38138E-01-7.47927E+02 6.03188E-01 2.74483E+02-1.18154E+01
 -1      8756 5.43372E-02-2.24822E-01-1.06769E+03 7.28708E-01 2.02842E+02-1.87426E+01
 -1      8757 2.78699E-01-1.96423E-01-1.06957E+03 9.31520E-01 1.93217E+02-2.04910E+01
 -1      8758 1.35791E-01-1.14980E-01-9.88130E+02 5.23977E-01 2.00496E+02-1.81618E+01
 -1      8759 1.30714E-01-1.82662E-01-8.80339E+02 1.17639E+00 2.73936E+02-1.27791E+01
 -1      8760-4.05419E-02-3.02818E-01-1.22579E+03 1.37589E+00 2.02116E+02-2.02997E+01
 -1      8761 5.43811E-02-2.96031E-01-1.22937E+03 1.71750E+00 1.92972E+02-2.20580E+01
 -1      8762 1.36312E-01-1.62016E-01-1.14676E+03 1.01214E+00 1.99958E+02-1.93532E+01
 -1      8763 1.32918E-01-1.51706E-01-1.01169E+03 2.20133E+00 2.72860E+02-1.43326E+01
 -1      8764-3.41442E-01-2.96376E-01-1.38218E+03 2.47629E+00 2.00629E+02-2.25635E+01
 -1      8765-7.81310E-01-3.83411E-01-1.38879E+03 3.02257E+00 1.92381E+02-2.41808E+01
 -1      8766 1.72039E-02-1.70056E-01-1.30400E+03 1.86510E+00 1.98856E+02-2.11340E+01
 -1      8767 2.37063E-02 1.24007E-01-1.14145E+03 3.95338E+00 2.70808E+02-1.66676E+01
 -1      8768-1.05901E+00 3.34531E-02-1.53615E+03 4.23086E+00 1.97691E+02-2.54400E+01
 -1      8769-3.05994E+00-3.13846E-01-1.54797E+03 5.05164E+00 1.91043E+02-2.64809E+01
 -1      8770-3.82674E-01 4.70764E-03-1.45921E+03 3.26987E+00 1.96689E+02-2.34777E+01
 -1      8771-3.63255E-01 9.36571E-01-1.26921E+03 6.79345E+00 2.67071E+02-1.98322E+01
 -1      8772-2.87905E+00 8.40552E-01-1.68735E+03 6.79982E+00 1.92202E+02-2.80914E+01
 -1      8773-8.55177E+00-1.90347E-01-1.70751E+03 7.92506E+00 1.88342E+02-2.74966E+01
 -1      8774-1.55633E+00 4.81456E-01-1.61191E+03 5.41737E+00 1.92532E+02-2.59685E+01
 -1      8775-1.57630E+00 2.64699E+00-1.39500E+03 1.11399E+01 2.60666E+02-2.33472E+01
 -1      8776-5.78164E+00 3.65238E+00-1.83682E+03 1.00056E+01 1.83172E+02-2.78553E+01
 -1      8777-2.12816E+01 7.09521E-01-1.87080E+03 1.15507E+01 1.83854E+02-2.30371E+01
 -1      8778-3.98564E+00 1.95174E+00-1.76319E+03 8.31751E+00 1.85717E+02-2.64792E+01
 -1      8779-4.46769E+00 4.26208E+00-1.52220E+03 1.72211E+01 2.51414E+02-2.51730E+01
 -1      8780-2.09497E+01-8.94025E-01-1.99718E+03 1.39341E+01 1.70765E+02-1.70796E+01
 -1      8781-5.22175E+01-5.84448E+00-2.04352E+03 1.50608E+01 1.79527E+02-2.55982E+00
 -1      8782-1.16767E+01 1.96962E+00-1.91547E+03 1.19256E+01 1.74886E+02-2.11482E+01
 -1      8783-1.54240E+01 8.81838E-01-1.65504E+03 2.54329E+01 2.41545E+02-1.90464E+01
 -1      8784-2.83478E+01 1.31076E+01-2.19000E+03 1.49160E+01 1.83882E+02 3.74396E+01
 -1      8785-1.35118E+02-8.43879E+00-2.25426E+03 1.84206E+01 2.05835E+02 6.24474E+01
 -1      8786-2.47484E+01 4.88175E+00-2.10462E+03 1.44647E+01 1.75461E+02 1.19863E+01
 -1      8787-3.65642E+01-4.31357E+01-1.82580E+03 3.29319E+01 2.54624E+02 2.66418E+01
 -1      8788-4.71309E+02-4.19008E+02-2.68078E+03 2.82628E+01 3.38496E+02 2.73449E+02
 -1      8789-4.79385E+02-3.79443E+02-2.59015E+03 1.68369E+01 3.89254E+02 2.08916E+02
 -1      8790-1.28286E+02-8.05602E+01-2.24462E+03 2.13495E+01 2.25779E+02 1.22673E+02
 -1      8791-3.23282E+02-2.90874E+02-2.07858E+03 4.30185E+01 2.93405E+02 2.27587E+02
 -1      8792-9.40088E+02-9.40091E+02-2.05187E+03-6.09655E-04 2.90785E+02 4.11652E+02
 -1      8793-9.38593E+02-9.38585E+02-2.04869E+03 6.25226E-04 3.24717E+02 3.13142E+02
 -1      8794-4.91491E+02-4.29344E+02-2.32429E+03 1.38971E+01 3.36340E+02 3.46444E+02
 -1      8795-7.46967E+02-7.46969E+02-1.63044E+03 6.81563E-04 1.82027E+02 3.42551E+02
 -1      8796 1.68178E+03 1.68178E+03 3.67073E+03 4.70634E-04 1.08253E+02 1.07900E+03
 -1      8797-9.32459E+01 1.72426E+02 2.41396E+03 9.49025E+00 1.91546E+02-8.01562E+01
 -1      8798 1.25492E+03 1.25492E+03 2.73916E+03-5.73287E-04 2.23671E+02 7.33568E+02
 -1      8799 2.57925E+02 3.42378E+02 2.63715E+03-6.65047E+00 2.92458E+02 1.30121E+02
 -1      8800 1.37396E+03 1.37396E+03 2.99897E+03-7.14366E-04-4.58852E+00 9.13110E+02
 -1      8801 3.57134E+02 5.21573E+02 2.87153E+03-2.17335E+01 1.64263E+02 4.23357E+02
 -1      8802-1.43114E+02 6.58608E+01 1.87771E+03-1.00628E+01 1.67258E+02-6.86872E+01
 -1      8803 9.29095E+00-6.28239E+01 2.00092E+03-3.63436E+00 1.19919E+02-2.82748E+01
 -1      8804 3.31195E+01-6.11239E+00 2.22830E+03-7.56711E+00 1.55949E+02 8.59682E+00
 -1      8805-1.74346E+02-6.93586E+01 2.00713E+03 9.23285E-01 1.13421E+02-5.66854E+01
 -1      8806 1.09275E+01-3.10084E+01 1.66465E+03-8.66377E+00 1.85306E+02-2.62220E+01
 -1      8807-2.22991E+01-3.13212E+01 1.94624E+03 1.06419E+00 1.53025E+02-6.51295E+00
 -1      8808 9.54273E+00-3.23703E+00 2.03986E+03-5.44977E+00 1.61751E+02-1.53329E+01
 -1      8809 8.94201E+00-3.69535E+01 2.00531E+03-1.42836E+00 1.34846E+02-1.53280E+00
 -1      8810-2.26331E+01-4.25230E+01 1.62151E+03-2.64065E+00 2.20728E+02-7.59260E+00
 -1      8811 3.30894E-01-1.44570E+01 1.85730E+03-3.98080E-02 1.91085E+02-5.78633E+00
 -1      8812 4.23966E+00-5.49511E+00 1.90324E+03-4.36791E+00 1.84322E+02-1.81371E+01
 -1      8813-8.82455E+00-2.13260E+01 1.90495E+03 6.21700E-01 1.70156E+02-5.17854E+00
 -1      8814-8.70373E-01-2.15470E+01 1.55201E+03-1.73642E+00 2.56811E+02-5.05597E+00
 -1      8815-1.02972E+00-7.49243E+00 1.74558E+03-2.66805E-03 2.14562E+02-3.54363E+00
 -1      8816 1.91552E+00-2.15753E+00 1.77020E+03-3.08348E+00 1.99807E+02-1.70668E+01
 -1      8817-7.16042E-01-1.13664E+01 1.80208E+03 3.16387E-02 2.01112E+02-2.55288E+00
 -1      8818-1.71192E+00-1.25198E+01 1.45886E+03-9.23246E-01 2.81747E+02-2.75261E+00
 -1      8819 4.62270E-01-3.34703E+00 1.61717E+03-1.65780E-02 2.27981E+02-2.61274E+00
 -1      8820 8.15179E-01-9.46810E-01 1.62933E+03-1.95199E+00 2.09027E+02-1.47524E+01
 -1      8821-6.71268E-01-5.77707E+00 1.68152E+03 7.06735E-02 2.19041E+02-2.13546E+00
 -1      8822-8.96002E-02-6.09106E+00 1.35319E+03-5.20165E-01 2.96848E+02-1.58419E+00
 -1      8823 3.69956E-01-1.51932E+00 1.47584E+03-6.88943E-03 2.35123E+02-1.97429E+00
 -1      8824 2.91774E-01-2.98367E-01 1.48175E+03-1.15956E+00 2.14098E+02-1.27244E+01
 -1      8825-2.81768E-02-2.85955E+00 1.54637E+03 5.00817E-02 2.29186E+02-1.70349E+00
 -1      8826 6.38688E-02-2.94285E+00 1.23664E+03-2.71327E-01 3.05323E+02-8.91274E-01
 -1      8827 3.45118E-01-6.40501E-01 1.32636E+03 1.96412E-03 2.38778E+02-1.63750E+00
 -1      8828 7.29869E-02-7.19176E-02 1.32905E+03-6.49354E-01 2.16758E+02-1.12227E+01
 -1      8829 5.44337E-02-1.38247E+00 1.40101E+03 4.10071E-02 2.34493E+02-1.50216E+00
 -1      8830 1.67552E-01-1.34239E+00 1.11300E+03-1.37363E-01 3.09860E+02-5.13721E-01
 -1      8831 2.34186E-01-2.63015E-01 1.17186E+03 4.43926E-03 2.40589E+02-1.44889E+00
 -1      8832-7.41252E-03 1.14695E-04 1.17301E+03-3.46813E-01 2.18109E+02-1.02306E+01
 -1      8833 8.75415E-02-6.59292E-01 1.24906E+03 3.05344E-02 2.37194E+02-1.38391E+00
 -1      8834 1.40500E-01-6.00688E-01 9.84837E+02-6.59218E-02 3.12197E+02-3.07113E-01
 -1      8835 1.51025E-01-1.01412E-01 1.01445E+03 4.64886E-03 2.41461E+02-1.35187E+00
 -1      8836-2.76547E-02 1.28750E-02 1.01490E+03-1.76731E-01 2.18779E+02-9.61961E+00
 -1      8837 7.09814E-02-3.09754E-01 1.09315E+03 2.07219E-02 2.38521E+02-1.32320E+00
 -1      8838 1.02576E-01-2.60643E-01 8.54016E+02-3.00412E-02 3.13361E+02-1.99401E-01
 -1      8839 8.96531E-02-3.65477E-02 8.55448E+02 3.57487E-03 2.41869E+02-1.30354E+00
 -1      8840-2.60553E-02 1.01960E-02 8.55600E+02-8.58558E-02 2.19102E+02-9.26483E+00
 -1      8841 5.01670E-02-1.43404E-01 9.34970E+02 1.32022E-02 2.39156E+02-1.29240E+00
 -1      8842 6.57572E-02-1.10339E-01 7.21696E+02-1.27756E-02 3.13921E+02-1.45159E-01
 -1      8843 5.05994E-02-1.15654E-02 6.95596E+02 2.41864E-03 2.42052E+02-1.28104E+00
 -1      8844-1.87755E-02 5.61458E-03 6.95638E+02-3.95001E-02 2.19254E+02-9.06892E+00
 -1      8845 3.17079E-02-6.49910E-02 7.75554E+02 7.89698E-03 2.39450E+02-1.27787E+00
 -1      8846 3.92492E-02-4.49533E-02 5.88574E+02-4.93520E-03 3.14179E+02-1.19229E-01
 -1      8847 2.69379E-02-2.74416E-03 5.35317E+02 1.46810E-03 2.42131E+02-1.27128E+00
 -1      8848-1.17475E-02 2.56287E-03 5.35324E+02-1.70307E-02 2.19322E+02-8.96598E+00
 -1      8849 1.86424E-02-2.85601E-02 6.15491E+02 4.48217E-03 2.39581E+02-1.27146E+00
 -1      8850 2.18195E-02-1.72534E-02 4.55044E+02-1.62973E-03 3.14292E+02-1.07536E-01
 -1      8851 1.32718E-02-4.48934E-05 3.74833E+02 7.92398E-04 2.42162E+02-1.26749E+00
 -1      8852-6.45835E-03 1.08688E-03 3.74833E+02-6.77742E-03 2.19351E+02-8.91498E+00
 -1      8853 1.01353E-02-1.19261E-02 4.55105E+02 2.38710E-03 2.39636E+02-1.26891E+00
 -1      8854 1.11212E-02-5.81395E-03 3.21317E+02-4.03678E-04 3.14337E+02-1.02674E-01
 -1      8855 5.30146E-03 5.03793E-04 2.14258E+02 3.10736E-04 2.42173E+02-1.26625E+00
 -1      8856-2.71781E-03 5.85950E-04 2.14259E+02-2.39731E-03 2.19362E+02-8.89232E+00
 -1      8857 4.83105E-03-4.42580E-03 2.94567E+02 1.12130E-03 2.39657E+02-1.26805E+00
 -1      8858 4.54112E-03-1.16054E-03 1.87501E+02-7.33743E-05 3.14354E+02-1.00912E-01
 -1      8859-4.47798E-05 4.57553E-04 5.36499E+01-8.98477E-05 2.42175E+02-1.26606E+00
 -1      8860 1.75973E-04 4.86199E-04 5.36528E+01-4.12510E-04 2.19364E+02-8.88610E+00
 -1      8861 1.35407E-03-8.17958E-04 1.33965E+02 2.84675E-04 2.39664E+02-1.26785E+00
 -1      8862-6.47987E-05 1.01040E-03 5.36530E+01-7.92742E-05 3.14357E+02-1.00572E-01
 -1      8863-5.17494E-03 5.05963E-04-1.06958E+02-5.34794E-04 2.42173E+02-1.26649E+00
 -1      8864 3.01454E-03 2.68355E-04-1.06954E+02 1.41419E-03 2.19362E+02-8.89252E+00
 -1      8865-1.45826E-03 1.73542E-03-2.66551E+01-4.45917E-04 2.39664E+02-1.26793E+00
 -1      8866-4.50211E-03 2.95493E-03-8.01950E+01-1.14157E-04 3.14354E+02-1.01185E-01
 -1      8867-1.23841E-02 1.30940E-03-2.67532E+02-1.15631E-03 2.42163E+02-1.26798E+00
 -1      8868 6.53340E-03-7.24751E-04-2.67530E+02 5.31143E-03 2.19352E+02-8.91463E+00
 -1      8869-4.63360E-03 5.35687E-03-1.87257E+02-1.37354E-03 2.39657E+02-1.26830E+00
 -1      8870-1.04833E-02 6.65215E-03-2.14010E+02 1.28214E-04 3.14340E+02-1.03232E-01
 -1      8871-2.43872E-02 4.30565E-03-4.28020E+02-2.08370E-03 2.42137E+02-1.27197E+00
 -1      8872 1.12480E-02-3.52845E-03-4.28029E+02 1.47535E-02 2.19329E+02-8.96321E+00
 -1      8873-9.17036E-03 1.27399E-02-3.47798E+02-2.83909E-03 2.39640E+02-1.26934E+00
 -1      8874-1.98565E-02 1.54763E-02-3.47740E+02 1.20880E-03 3.14302E+02-1.08367E-01
 -1      8875-4.48306E-02 1.31610E-02-5.88318E+02-3.40807E-03 2.42072E+02-1.28171E+00
 -1      8876 1.69777E-02-9.67289E-03-5.88366E+02 3.61635E-02 2.19274E+02-9.05982E+00
 -1      8877-1.60847E-02 2.87643E-02-5.08196E+02-5.27161E-03 2.39594E+02-1.27206E+00
 -1      8878-3.46871E-02 3.70256E-02-4.81283E+02 4.33044E-03 3.14206E+02-1.20196E-01
 -1      8879-7.81323E-02 3.72168E-02-7.48220E+02-5.02894E-03 2.41918E+02-1.30364E+00
 -1      8880 2.15930E-02-2.07445E-02-7.48385E+02 8.15501E-02 2.19149E+02-9.24207E+00
 -1      8881-2.61320E-02 6.33564E-02-6.68294E+02-9.18294E-03 2.39483E+02-1.27855E+00
 -1      8882-5.64886E-02 8.94078E-02-6.14443E+02 1.20193E-02 3.13984E+02-1.45799E-01
 -1      8883-1.29897E-01 9.87729E-02-9.07343E+02-6.50222E-03 2.41565E+02-1.35009E+00
 -1      8884 1.81485E-02-3.59456E-02-9.07804E+02 1.72485E-01 2.18878E+02-9.57035E+00
 -1      8885-3.92619E-02 1.37325E-01-8.27795E+02-1.51093E-02 2.39230E+02-1.29280E+00
 -1      8886-8.53304E-02 2.14507E-01-7.46853E+02 2.93533E-02 3.13491E+02-1.98533E-01
 -1      8887-1.98508E-01 2.51875E-01-1.06499E+03-6.20726E-03 2.40791E+02-1.44254E+00
 -1      8888-1.09754E-02-4.55974E-02-1.06614E+03 3.45804E-01 2.18299E+02-1.01339E+01
 -1      8889-5.13883E-02 2.94223E-01-9.86154E+02-2.31892E-02 2.38668E+02-1.32242E+00
 -1      8890-1.10984E-01 5.09124E-01-8.77863E+02 6.59449E-02 3.12442E+02-3.02170E-01
 -1      8891-2.88892E-01 6.10921E-01-1.21995E+03-2.13163E-03 2.39139E+02-1.62135E+00
 -1      8892-1.05852E-01-1.09810E-02-1.22260E+03 6.59173E-01 2.17094E+02-1.10475E+01
 -1      8893-5.47746E-02 6.25339E-01-1.14241E+03-3.29371E-02 2.37464E+02-1.38006E+00
 -1      8894-1.20226E-01 1.17504E+00-1.00638E+03 1.39593E-01 3.10286E+02-4.99532E-01
 -1      8895-2.93203E-01 1.45173E+00-1.37021E+03 1.17987E-02 2.35720E+02-1.93961E+00
 -1      8896-3.46543E-01 1.58095E-01-1.37597E+03 1.19595E+00 2.14652E+02-1.24293E+01
 -1      8897-4.87236E-03 1.31506E+00-1.29498E+03-4.14555E-02 2.34953E+02-1.49132E+00
 -1      8898 1.95722E-03 2.65696E+00-1.13065E+03 2.78863E-01 3.06011E+02-8.58543E-01
 -1      8899-3.61698E-01 3.21138E+00-1.51282E+03 3.44126E-02 2.28891E+02-2.54262E+00
 -1      8900-8.98661E-01 7.24783E-01-1.52459E+03 2.04518E+00 2.09864E+02-1.42942E+01
 -1      8901 9.82876E-02 2.73443E+00-1.44137E+03-4.37996E-02 2.29911E+02-1.67935E+00
 -1      8902 1.80125E-01 5.64351E+00-1.24823E+03 5.38843E-01 2.97859E+02-1.51542E+00
 -1      8903 1.06910E+00 7.21727E+00-1.64313E+03 4.85245E-02 2.15804E+02-3.42045E+00
 -1      8904-2.03247E+00 1.84572E+00-1.66685E+03 3.28520E+00 2.00934E+02-1.64200E+01
 -1      8905 7.38574E-01 5.55741E+00-1.57809E+03-4.72554E-02 2.20076E+02-2.08261E+00
 -1      8906 1.75181E+00 1.18549E+01-1.35545E+03 9.63435E-01 2.83044E+02-2.62262E+00
 -1      8907-2.45355E-01 1.39960E+01-1.75730E+03 1.41160E-01 1.92470E+02-5.54690E+00
 -1      8908-4.36387E+00 5.08221E+00-1.80145E+03 4.76588E+00 1.85555E+02-1.73710E+01
 -1      8909 8.02489E-01 1.09979E+01-1.70078E+03 2.88909E-02 2.02364E+02-2.46521E+00
 -1      8910 9.97111E-01 2.07923E+01-1.45059E+03 1.81450E+00 2.58067E+02-4.80473E+00
 -1      8911 2.12368E+01 3.03770E+01-1.84893E+03-8.30092E-01 1.53900E+02-6.21735E+00
 -1      8912-9.59239E+00 3.14507E+00-1.93874E+03 6.15117E+00 1.62457E+02-1.46727E+01
 -1      8913 8.52254E+00 2.07379E+01-1.80607E+03-4.67642E-01 1.71259E+02-4.93987E+00
 -1      8914 2.15684E+01 4.15119E+01-1.52270E+03 2.77518E+00 2.20958E+02-7.21870E+00
 -1      8915-8.95061E+00 6.11907E+01-1.90604E+03 3.92121E+00 1.17510E+02-2.69688E+01
 -1      8916-3.21148E+01 6.78212E+00-2.12381E+03 8.63446E+00 1.53606E+02 8.00042E+00
 -1      8917-8.48068E+00 3.62074E+01-1.90769E+03 1.67720E+00 1.34139E+02-1.42806E+00
 -1      8918-1.00881E+01 3.21330E+01-1.56873E+03 8.82500E+00 1.81823E+02-2.48394E+01
 -1      8919 8.84947E+01-1.61576E+02-2.30181E+03-8.85722E+00 1.77756E+02-7.64318E+01
 -1      8920-2.46969E+02-3.24934E+02-2.51720E+03 7.58303E+00 2.78946E+02 1.23853E+02
 -1      8921 1.65910E+02 6.80479E+01-1.91316E+03-2.89130E-01 1.07010E+02-5.39933E+01
 -1      8922 1.35356E+02-5.75706E+01-1.77242E+03 9.90476E+00 1.56317E+02-6.50124E+01
 -1      8923-1.60379E+03-1.60379E+03-3.50050E+03-4.76981E-04 8.86057E+01 1.02859E+03
 -1      8924-1.19768E+03-1.19768E+03-2.61424E+03 5.78644E-04 2.04179E+02 6.99562E+02
 -1      8925-3.39342E+02-4.92317E+02-2.73656E+03 2.16844E+01 1.47099E+02 4.03487E+02
 -1      8926-1.29664E+03-1.29664E+03-2.83020E+03 7.27343E-04-1.97261E+01 8.61958E+02
 -1      8927 2.84736E+03 2.84736E+03 6.21481E+03-2.43851E-04 1.05154E+03-1.47471E+03
 -1      8928-2.09488E+02-2.07161E+02 3.11813E+03-3.33427E+01-1.75032E+02 9.07706E+01
 -1      8929 2.12968E+03 2.12969E+03 4.64836E+03-4.65567E-04 1.18803E+03-5.79810E+02
 -1      8930 3.84954E+02-1.09034E+02 3.46184E+03-3.51472E+00-1.09253E+02-4.17596E+02
 -1      8931 2.21521E+03 2.21521E+03 4.83519E+03 7.53854E-04 5.47343E+02-1.27355E+03
 -1      8932 5.63778E+02 5.29369E+02 4.25842E+03 4.91243E+01 3.27911E+02-5.73924E+02
 -1      8933-1.16637E+02 5.93309E+01 2.78351E+03-2.33816E+01 1.91102E+01 1.11355E+02
 -1      8934 2.38400E+03 2.38400E+03 5.20362E+03 6.73328E-04 1.13050E+03-1.00012E+03
 -1      8935 1.67304E+02-1.15498E+02 3.31633E+03-3.05301E+01-1.19807E+02-2.01025E+02
 -1      8936 1.46589E+03 1.46588E+03 3.19965E+03 4.90628E-04 7.09807E+02-5.04263E+02
 -1      8937 8.36130E+02 4.67437E+02 3.86575E+03 7.38277E+00 4.69248E+02-5.12189E+02
 -1      8938 4.66716E+02 2.30889E+02 3.14056E+03 1.52975E+01 1.43848E+02-3.34162E+02
 -1      8939 2.53538E+01 3.82725E+01 2.66175E+03-1.59314E+01-3.03612E+01 2.12006E+01
 -1      8940 2.66985E+01 2.65489E+01 2.93796E+03-3.50331E+00-2.22596E+01-9.96609E+01
 -1      8941-2.47802E+02-2.23574E+02 2.68540E+03-2.40146E+01-6.17194E+01 2.25024E+01
 -1      8942 2.37273E+01-1.93260E+01 2.34806E+03-4.17591E+00 4.83017E+01 2.81123E+01
 -1      8943 4.05225E+01 6.09494E+01 2.89817E+03-8.18568E+00-1.90400E+01-4.58233E+01
 -1      8944 4.76477E+01-1.98889E+02 2.96134E+03-8.11439E+00-6.23079E+01-2.20758E+02
 -1      8945 5.05348E+01 1.06888E+01 2.67329E+03 4.77343E+00 8.78003E+01-6.57740E+01
 -1      8946-3.63427E+01-2.86344E+01 2.61665E+03-1.35243E+00 4.08230E+00 7.71759E+00
 -1      8947 1.22583E+01-2.26297E+01 2.77232E+03-2.53382E+00 3.61592E+00 6.10957E+00
 -1      8948 6.86572E+00 1.74999E+01 2.67508E+03-5.15722E+00-2.74408E+00-1.27491E+00
 -1      8949-2.62957E+01-2.58480E+01 2.27427E+03-8.13306E-01 7.61263E+01 7.62466E+00
 -1      8950 4.01295E+00-9.33270E+00 2.72502E+03-3.18892E+00 3.04314E+00 1.02719E+01
 -1      8951 2.61473E+01 1.72272E+01 2.88629E+03-2.10011E+00 4.17128E+00-4.68537E+01
 -1      8952 2.19538E+01-5.20912E+00 2.43780E+03 5.62910E+00 8.51072E+01 1.25604E+01
 -1      8953 6.70874E-01 4.67506E+00 2.49922E+03-1.37924E+00 9.35663E+00 1.10556E+01
 -1      8954 6.90820E+00 2.12127E+00 2.58217E+03-1.07043E+00 4.19302E+00 3.67280E+01
 -1      8955-1.18478E+01-5.92201E+00 2.56903E+03-1.17142E+00 4.35998E+00 7.04895E+00
 -1      8956-1.33251E+00-7.92921E+00 2.16825E+03-1.47244E-01 1.01475E+02 6.20055E+00
 -1      8957 6.03029E+00 7.15000E+00 2.54950E+03-1.29464E+00 4.76961E+00 2.49713E+01
 -1      8958 9.49322E+00-7.74002E+00 2.67988E+03-1.42709E+00 2.99798E-01 2.03341E+01
 -1      8959 6.43388E+00-2.46827E+00 2.25760E+03 4.35323E+00 9.39734E+01 3.18063E+01
 -1      8960-2.26323E+00-3.36640E-01 2.33678E+03-5.76444E-01 1.31426E+01 1.09661E+01
 -1      8961 1.96825E+00-1.05008E+00 2.38309E+03-5.09659E-01 5.77026E+00 4.71014E+01
 -1      8962-2.18856E+00 7.03758E-01 2.41716E+03-7.36453E-01 9.31054E+00 8.98566E+00
 -1      8963-2.06279E+00-4.73770E+00 2.03622E+03-1.01125E-01 1.15180E+02 4.22535E+00
 -1      8964 1.84225E+00 1.94005E+00 2.36425E+03-7.59311E-01 6.04518E+00 3.06329E+01
 -1      8965 3.30974E+00 3.53226E-01 2.48300E+03-6.07833E-01 3.23278E+00 4.03735E+01
 -1      8966 2.75330E+00-1.17899E+00 2.08543E+03 3.12378E+00 9.89654E+01 3.62164E+01
 -1      8967 6.78181E-02 8.81384E-01 2.15552E+03-2.92303E-01 1.44127E+01 1.10183E+01
 -1      8968 4.76619E-01 2.93021E-01 2.17973E+03-2.79302E-01 6.00223E+00 4.91257E+01
 -1      8969-1.42774E+00-1.50411E-01 2.24649E+03-3.78499E-01 1.13240E+01 9.91338E+00
 -1      8970-1.07561E-01-1.98138E+00 1.88344E+03-3.38929E-02 1.22914E+02 3.28211E+00
 -1      8971 7.67999E-01 1.57850E+00 2.16885E+03-3.83686E-01 6.35988E+00 3.14498E+01
 -1      8972 6.79387E-01-4.81009E-01 2.28161E+03-3.24803E-01 3.36259E+00 4.72774E+01
 -1      8973 7.79603E-01-3.25627E-01 1.90931E+03 1.96411E+00 1.02146E+02 3.52672E+01
 -1      8974 9.21029E-02 3.94762E-01 1.95979E+03-1.49801E-01 1.49905E+01 1.08381E+01
 -1      8975-2.44551E-01 8.26255E-02 1.97203E+03-1.47882E-01 6.11947E+00 4.84520E+01
 -1      8976-4.34285E-01 4.95490E-02 2.05739E+03-1.97886E-01 1.21902E+01 1.03082E+01
 -1      8977 8.56981E-02-9.11452E-01 1.71643E+03-2.65796E-02 1.26859E+02 2.63963E+00
 -1      8978 1.16458E-01 7.11621E-01 1.96623E+03-2.15744E-01 6.48914E+00 3.09831E+01
 -1      8979-3.15357E-01-5.66942E-02 2.07583E+03-1.92201E-01 3.56272E+00 4.82330E+01
 -1      8980 8.20104E-02-2.47411E-02 1.72956E+03 1.16387E+00 1.03786E+02 3.30695E+01
 -1      8981 2.06971E-01 2.87418E-01 1.75599E+03-6.87295E-02 1.51859E+01 1.07005E+01
 -1      8982-3.69554E-01 1.10431E-01 1.76184E+03-8.38644E-02 6.11039E+00 4.71735E+01
 -1      8983-1.42571E-01-4.67672E-03 1.85780E+03-1.05260E-01 1.25529E+01 1.04386E+01
 -1      8984 2.05914E-01-3.66723E-01 1.54054E+03-1.50950E-02 1.28836E+02 2.28694E+00
 -1      8985-6.70925E-02 3.79570E-01 1.75888E+03-1.13900E-01 6.50145E+00 3.02178E+01
 -1      8986-5.40542E-01-6.27698E-02 1.86695E+03-1.12744E-01 3.57867E+00 4.74953E+01
 -1      8987-1.51884E-01 7.30179E-02 1.54687E+03 6.48942E-01 1.04631E+02 3.10326E+01
 -1      8988 1.62039E-01 1.62632E-01 1.54737E+03-3.12276E-02 1.52532E+01 1.05996E+01
 -1      8989-3.21712E-01 6.64040E-02 1.54999E+03-4.59754E-02 6.09315E+00 4.60471E+01
 -1      8990-5.41905E-03 9.93170E-04 1.65163E+03-5.08238E-02 1.26951E+01 1.04792E+01
 -1      8991 1.69583E-01-1.40419E-01 1.35937E+03-9.47889E-03 1.29791E+02 2.08707E+00
 -1      8992-1.05824E-01 1.78932E-01 1.54860E+03-6.02563E-02 6.49476E+00 2.95737E+01
 -1      8993-4.79892E-01-2.29658E-02 1.65595E+03-6.77316E-02 3.58094E+00 4.64311E+01
 -1      8994-1.78867E-01 7.78545E-02 1.36224E+03 3.45466E-01 1.05048E+02 2.95322E+01
 -1      8995 1.16890E-01 9.59789E-02 1.33609E+03-1.21976E-02 1.52707E+01 1.05399E+01
 -1      8996-2.24810E-01 4.50010E-02 1.33715E+03-2.51390E-02 6.07611E+00 4.52454E+01
 -1      8997 3.07936E-02 5.53067E-04 1.44174E+03-2.37520E-02 1.27502E+01 1.04864E+01
 -1      8998 1.21667E-01-4.56736E-02 1.17521E+03-5.22560E-03 1.30242E+02 1.98269E+00
 -1      8999-8.63953E-02 8.60828E-02 1.33656E+03-3.05848E-02 6.48377E+00 2.91236E+01
 -1      9000-3.43622E-01-1.16615E-02 1.44363E+03-3.92468E-02 3.57476E+00 4.55516E+01
 -1      9001-1.42128E-01 5.84915E-02 1.17640E+03 1.75473E-01 1.05252E+02 2.85491E+01
 -1      9002 7.43508E-02 5.35125E-02 1.12335E+03-4.04997E-03 1.52735E+01 1.05075E+01
 -1      9003-1.40583E-01 2.73066E-02 1.12372E+03-1.32929E-02 6.06541E+00 4.47365E+01
 -1      9004 3.42424E-02 2.36043E-03 1.22975E+03-9.92553E-03 1.27704E+01 1.04858E+01
 -1      9005 7.67327E-02-1.07581E-02 9.89411E+02-2.76628E-03 1.30449E+02 1.93017E+00
 -1      9006-5.82103E-02 3.95461E-02 1.12351E+03-1.50964E-02 6.47595E+00 2.88426E+01
 -1      9007-2.19263E-01-3.76043E-03 1.23050E+03-2.22318E-02 3.57032E+00 4.49435E+01
 -1      9008-9.57094E-02 3.75581E-02 9.89843E+02 8.49914E-02 1.05351E+02 2.79535E+01
 -1      9009 4.43193E-02 2.91369E-02 9.09858E+02-7.19687E-04 1.52724E+01 1.04917E+01
 -1      9010-8.09092E-02 1.62008E-02 9.09939E+02-6.83416E-03 6.05924E+00 4.44382E+01
 -1      9011 2.63358E-02 2.65328E-03 1.01665E+03-3.67864E-03 1.27776E+01 1.04843E+01
 -1      9012 4.50653E-02 5.13431E-04 8.02765E+02-1.34447E-03 1.30541E+02 1.90545E+00
 -1      9013-3.49243E-02 1.77910E-02 9.09903E+02-7.14179E-03 6.47106E+00 2.86801E+01
 -1      9014-1.28969E-01-6.87728E-04 1.01689E+03-1.21343E-02 3.56756E+00 4.45655E+01
 -1      9015-5.83112E-02 2.19959E-02 8.02879E+02 3.89806E-02 1.05399E+02 2.76142E+01
 -1      9016 2.46089E-02 1.50960E-02 6.95987E+02 3.21753E-04 1.52709E+01 1.04849E+01
 -1      9017-4.34131E-02 9.01577E-03 6.95971E+02-3.36908E-03 6.05599E+00 4.42745E+01
 -1      9018 1.73619E-02 2.26652E-03 8.02967E+02-1.03299E-03 1.27801E+01 1.04835E+01
 -1      9019 2.46615E-02 2.88594E-03 6.15693E+02-6.11093E-04 1.30580E+02 1.89460E+00
 -1      9020-1.92624E-02 7.60351E-03 6.95996E+02-3.23086E-03 6.46833E+00 2.85922E+01
 -1      9021-7.09642E-02 4.44752E-04 8.03009E+02-6.39065E-03 3.56613E+00 4.43476E+01
 -1      9022-3.27492E-02 1.20037E-02 6.15693E+02 1.67482E-02 1.05420E+02 2.74314E+01
 -1      9023 1.24994E-02 7.24006E-03 4.81937E+02 4.53889E-04 1.52699E+01 1.04823E+01
 -1      9024-2.13418E-02 4.61075E-03 4.81903E+02-1.55258E-03 6.05436E+00 4.41907E+01
 -1      9025 1.01627E-02 1.53356E-03 5.88999E+02-1.08096E-04 1.27809E+01 1.04834E+01
 -1      9026 1.23981E-02 2.42821E-03 4.28418E+02-2.55170E-04 1.30596E+02 1.89030E+00
 -1      9027-9.67365E-03 3.01288E-03 4.81939E+02-1.37005E-03 6.46687E+00 2.85479E+01
 -1      9028-3.64119E-02 5.71085E-04 5.88979E+02-3.20051E-03 3.56542E+00 4.42303E+01
 -1      9029-1.66764E-02 6.07189E-03 4.28391E+02 6.63796E-03 1.05430E+02 2.73389E+01
 -1      9030 5.02641E-03 2.74110E-03 2.67809E+02 2.50469E-04 1.52693E+01 1.04816E+01
 -1      9031-8.39872E-03 1.85840E-03 2.67786E+02-5.67351E-04 6.05359E+00 4.41526E+01
 -1      9032 5.04820E-03 7.70557E-04 3.74899E+02 8.92512E-05 1.27811E+01 1.04836E+01
 -1      9033 5.02583E-03 1.29025E-03 2.41054E+02-9.07467E-05 1.30601E+02 1.88884E+00
 -1      9034-3.90727E-03 9.65758E-04 2.67811E+02-4.92225E-04 6.46616E+00 2.85280E+01
 -1      9035-1.65452E-02 3.50638E-04 3.74872E+02-1.43688E-03 3.56509E+00 4.41722E+01
 -1      9036-6.65346E-03 2.57622E-03 2.41033E+02 2.34147E-03 1.05434E+02 2.72971E+01
 -1      9037-2.15598E-04-2.15599E-04 5.36536E+01-4.26517E-05 1.52691E+01 1.04815E+01
 -1      9038 4.57552E-04-4.47803E-05 5.36499E+01 8.98472E-05 6.05328E+00 4.41420E+01
 -1      9039 1.35625E-03 8.06692E-05 1.60743E+02 8.01702E-06 1.27812E+01 1.04838E+01
 -1      9040-4.74025E-05 9.76654E-05 5.36566E+01 5.80705E-06 1.30602E+02 1.88857E+00
 -1      9041 9.76655E-05-4.74024E-05 5.36566E+01 5.80689E-06 6.46589E+00 2.85226E+01
 -1      9042-4.41899E-03 5.73034E-05 1.60730E+02-3.65342E-04 3.56493E+00 4.41489E+01
 -1      9043 4.86199E-04 1.75973E-04 5.36528E+01 4.12510E-04 1.05434E+02 2.72854E+01
 -1      9044-5.24050E-03-2.95519E-03-1.60501E+02-3.14187E-04 1.52691E+01 1.04818E+01
 -1      9045 9.40847E-03-1.73188E-03-1.60486E+02 7.91410E-04 6.05334E+00 4.41528E+01
 -1      9046-1.78308E-03-5.07495E-04-5.34262E+01-1.30489E-04 1.27811E+01 1.04838E+01
 -1      9047-4.98259E-03-1.04865E-03-1.33740E+02 1.29473E-04 1.30601E+02 1.88902E+00
 -1      9048 4.14887E-03-9.22514E-04-1.60498E+02 5.30951E-04 6.46597E+00 2.85283E+01
 -1      9049 5.33645E-03-1.61496E-04-5.34211E+01 5.26584E-04 3.56485E+00 4.41490E+01
 -1      9050 7.50776E-03-2.27949E-03-1.33728E+02-1.35835E-03 1.05433E+02 2.72971E+01
 -1      9051-1.19206E-02-6.66134E-03-3.74626E+02-4.35175E-04 1.52694E+01 1.04828E+01
 -1      9052 2.26063E-02-3.72310E-03-3.74603E+02 1.91649E-03 6.05387E+00 4.41895E+01
 -1      9053-5.21149E-03-9.33853E-04-2.67580E+02-1.61675E-04 1.27809E+01 1.04838E+01
 -1      9054-1.18656E-02-2.04125E-03-3.21104E+02 3.87528E-04 1.30596E+02 1.89066E+00
 -1      9055 1.00606E-02-2.48032E-03-3.74625E+02 1.50240E-03 6.46651E+00 2.85475E+01
 -1      9056 1.74762E-02-1.53184E-04-2.67563E+02 1.68912E-03 3.56485E+00 4.41717E+01
 -1      9057 1.70386E-02-5.99684E-03-3.21088E+02-5.17197E-03 1.05430E+02 2.73374E+01
 -1      9058-2.22050E-02-1.26921E-02-5.88677E+02-1.01967E-04 1.52703E+01 1.04855E+01
 -1      9059 4.49746E-02-6.46507E-03-5.88675E+02 3.98468E-03 6.05531E+00 4.42679E+01
 -1      9060-9.59996E-03-9.70775E-04-4.81681E+02 1.80478E-04 1.27805E+01 1.04838E+01
 -1      9061-2.30499E-02-2.23951E-03-5.08384E+02 9.41901E-04 1.30583E+02 1.89508E+00
 -1      9062 1.99089E-02-5.99185E-03-5.88687E+02 3.56167E-03 6.46784E+00 2.85892E+01
 -1      9063 3.72258E-02 3.93858E-04-4.81672E+02 3.65251E-03 3.56500E+00 4.42265E+01
 -1      9064 3.17836E-02-1.25031E-02-5.08398E+02-1.44710E-02 1.05423E+02 2.74246E+01
 -1      9065-3.81905E-02-2.30082E-02-8.02565E+02 1.37286E-03 1.52718E+01 1.04922E+01
 -1      9066 8.25047E-02-1.04321E-02-8.02661E+02 7.82359E-03 6.05856E+00 4.44180E+01
 -1      9067-1.51584E-02-6.29985E-05-6.95659E+02 1.44832E-03 1.27795E+01 1.04841E+01
 -1      9068-4.13444E-02 5.14250E-04-6.95477E+02 2.04634E-03 1.30551E+02 1.90586E+00
 -1      9069 3.59520E-02-1.40701E-02-8.02614E+02 7.84367E-03 6.47065E+00 2.86702E+01
 -1      9070 7.11685E-02 2.11292E-03-6.95713E+02 7.18009E-03 3.56552E+00 4.43347E+01
 -1      9071 5.42529E-02-2.37936E-02-6.95608E+02-3.56441E-02 1.05408E+02 2.75943E+01
 -1      9072-6.12115E-02-4.03732E-02-1.01612E+03 5.55747E-03 1.52737E+01 1.05073E+01
 -1      9073 1.41252E-01-1.57858E-02-1.01649E+03 1.47470E-02 6.06531E+00 4.46875E+01
 -1      9074-2.07726E-02 2.90991E-03-9.09380E+02 4.82250E-03 1.27771E+01 1.04848E+01
 -1      9075-6.92049E-02 1.22460E-02-8.82183E+02 4.10816E-03 1.30474E+02 1.93001E+00
 -1      9076 5.96982E-02-3.20183E-02-1.01628E+03 1.64383E-02 6.47610E+00 2.88177E+01
 -1      9077 1.27334E-01 6.26354E-03-9.09630E+02 1.34203E-02 3.56689E+00 4.45322E+01
 -1      9078 8.51609E-02-4.20204E-02-8.82628E+02-8.06857E-02 1.05374E+02 2.79063E+01
 -1      9079-9.14192E-02-7.05082E-02-1.22899E+03 1.52784E-02 1.52731E+01 1.05375E+01
 -1      9080 2.22171E-01-2.38736E-02-1.23004E+03 2.69924E-02 6.07789E+00 4.51412E+01
 -1      9081-2.23126E-02 9.56931E-03-1.12259E+03 1.24951E-02 1.27703E+01 1.04859E+01
 -1      9082-1.07707E-01 4.75391E-02-1.06812E+03 7.59102E-03 1.30296E+02 1.98086E+00
 -1      9083 8.82609E-02-7.21230E-02-1.22947E+03 3.29502E-02 6.48561E+00 2.90696E+01
 -1      9084 2.13183E-01 1.46655E-02-1.12332E+03 2.41388E-02 3.56993E+00 4.48699E+01
 -1      9085 1.19058E-01-6.79977E-02-1.06930E+03-1.71227E-01 1.05302E+02 2.84501E+01
 -1      9086-1.16657E-01-1.17250E-01-1.44058E+03 3.69712E-02 1.52605E+01 1.05923E+01
 -1      9087 3.10571E-01-3.07261E-02-1.44312E+03 4.77434E-02 6.09950E+00 4.58457E+01
 -1      9088-7.67764E-03 2.25629E-02-1.33480E+03 2.88968E-02 1.27514E+01 1.04852E+01
 -1      9089-1.45763E-01 1.42062E-01-1.25257E+03 1.33161E-02 1.29897E+02 2.08135E+00
 -1      9090 1.07467E-01-1.55111E-01-1.44180E+03 6.40935E-02 6.50048E+00 2.94675E+01
 -1      9091 3.28091E-01 3.12546E-02-1.33663E+03 4.17141E-02 3.57554E+00 4.54047E+01
 -1      9092 1.33385E-01-9.62424E-02-1.25537E+03-3.44456E-01 1.05144E+02 2.93424E+01
 -1      9093-1.31207E-01-2.11654E-01-1.64980E+03 7.87333E-02 1.52036E+01 1.06828E+01
 -1      9094 3.39973E-01-5.42043E-02-1.65542E+03 8.40319E-02 6.12655E+00 4.68133E+01
 -1      9095 4.69049E-02 4.04927E-02-1.54515E+03 6.03281E-02 1.26997E+01 1.04746E+01
 -1      9096-1.67794E-01 3.66670E-01-1.43429E+03 2.07883E-02 1.29029E+02 2.27313E+00
 -1      9097 6.70397E-02-3.41450E-01-1.65263E+03 1.19593E-01 6.51526E+00 3.00252E+01
 -1      9098 4.45939E-01 5.57328E-02-1.54930E+03 7.01343E-02 3.58479E+00 4.61611E+01
 -1      9099 6.89857E-02-1.05883E-01-1.44041E+03-6.58761E-01 1.04806E+02 3.06959E+01
 -1      9100 2.05105E-02-2.82149E-01-1.85467E+03 1.65736E-01 1.50274E+01 1.08011E+01
 -1      9101 1.76958E-01-5.87315E-03-1.86640E+03 1.42972E-01 6.15415E+00 4.78547E+01
 -1      9102 2.11086E-01 7.31922E-02-1.75215E+03 1.21461E-01 1.25647E+01 1.04268E+01
 -1      9103-3.28010E-02 9.04946E-01-1.61113E+03 3.37847E-02 1.27184E+02 2.61083E+00
 -1      9104-1.22965E-01-6.58723E-01-1.86093E+03 2.22949E-01 6.51794E+00 3.06585E+01
 -1      9105 4.73135E-01 1.12331E-01-1.76092E+03 1.13192E-01 3.58950E+00 4.70349E+01
 -1      9106-2.22282E-01-3.00280E-02-1.62378E+03-1.20026E+00 1.04081E+02 3.25155E+01
 -1      9107 9.70655E-02-7.16501E-01-2.05220E+03 3.15535E-01 1.44851E+01 1.09459E+01
 -1      9108-6.12271E-01-1.92449E-01-2.07537E+03 2.61467E-01 6.07234E+00 4.82157E+01
 -1      9109 5.40639E-01 5.68042E-02-1.95318E+03 2.23528E-01 1.22162E+01 1.02821E+01
 -1      9110 1.80894E-01 1.96335E+00-1.77969E+03 4.09718E-02 1.23418E+02 3.22554E+00
 -1      9111-7.86029E-01-1.50516E+00-2.06510E+03 3.90764E-01 6.41646E+00 3.09462E+01
 -1      9112 1.90240E-01 1.26805E-01-1.97084E+03 1.85919E-01 3.58686E+00 4.75087E+01
 -1      9113-1.00163E+00 2.42144E-01-1.80457E+03-2.05730E+00 1.02604E+02 3.44304E+01
 -1      9114 2.39168E+00 4.65090E-01-2.23628E+03 6.06787E-01 1.32680E+01 1.08407E+01
 -1      9115-2.24341E+00 1.08946E+00-2.28065E+03 4.63802E-01 5.89345E+00 4.58601E+01
 -1      9116 1.56384E+00 2.86507E-01-2.14453E+03 4.15224E-01 1.13755E+01 9.86188E+00
 -1      9117 2.09559E+00 4.67224E+00-1.93478E+03 1.00253E-01 1.15891E+02 4.12639E+00
 -1      9118-1.90770E+00-1.90725E+00-2.26280E+03 7.58440E-01 6.14414E+00 2.99221E+01
 -1      9119-8.99051E-01 5.48315E-01-2.17818E+03 3.01385E-01 3.41544E+00 4.62421E+01
 -1      9120-3.06512E+00 1.06204E+00-1.98208E+03-3.32550E+00 9.96122E+01 3.50900E+01
 -1      9121-3.89429E-01-4.39361E+00-2.40254E+03 1.39147E+00 9.59244E+00 1.08198E+01
 -1      9122-7.36927E+00-2.03573E+00-2.48217E+03 9.69075E-01 4.43245E+00 3.53431E+01
 -1      9123 2.37934E+00-5.12974E-01-2.31853E+03 7.77140E-01 9.40705E+00 8.88915E+00
 -1      9124 1.44497E+00 7.85033E+00-2.06985E+03 1.24276E-01 1.02307E+02 6.01867E+00
 -1      9125-6.10917E+00-7.03754E+00-2.45110E+03 1.27167E+00 4.95149E+00 2.41400E+01
 -1      9126-3.67825E+00-2.66778E-01-2.38170E+03 5.47303E-01 3.32044E+00 3.91211E+01
 -1      9127-6.84678E+00 2.34406E+00-2.15582E+03-4.75120E+00 9.47395E+01 3.05735E+01
 -1      9128 3.50901E+01 2.73818E+01-2.52521E+03 1.39690E+00 4.37848E+00 7.42140E+00
 -1      9129-1.32025E+01 2.15675E+01-2.67500E+03 2.29973E+00 3.91151E+00 5.23426E+00
 -1      9130 1.17366E+01 5.81083E+00-2.47436E+03 1.21642E+00 4.54773E+00 6.86120E+00
 -1      9131 2.54463E+01 2.52783E+01-2.17911E+03 7.17557E-01 7.68503E+01 7.36509E+00
 -1      9132-4.58265E+00 8.48335E+00-2.62986E+03 3.09317E+00 3.30271E+00 9.54790E+00
 -1      9133-1.00813E+01 7.43801E+00-2.58101E+03 1.27304E+00 5.38476E-01 1.92309E+01
 -1      9134-2.20458E+01 5.15946E+00-2.33669E+03-6.33050E+00 8.57674E+01 1.18547E+01
 -1      9135-2.43782E+01-3.72969E+01-2.57645E+03 1.52832E+01-2.91524E+01 1.99918E+01
 -1      9136-2.83316E+01-2.62085E+01-2.84308E+03 3.21646E+00-2.09536E+01-9.72525E+01
 -1      9137-6.21198E+00-1.68462E+01-2.58496E+03 4.99227E+00-2.56829E+00-1.45071E+00
 -1      9138-2.23177E+01 1.94713E+01-2.25486E+03 3.79389E+00 4.75017E+01 2.70102E+01
 -1      9139-4.03772E+01-5.95398E+01-2.80497E+03 7.80366E+00-1.79378E+01-4.50233E+01
 -1      9140-2.68934E+01-1.67659E+01-2.78868E+03 1.85127E+00 4.27602E+00-4.61470E+01
 -1      9141-4.98651E+01-9.68421E+00-2.56881E+03-5.84078E+00 8.72039E+01-6.34309E+01
 -1      9142 2.01035E+02 1.98708E+02-3.01443E+03 3.22864E+01-1.70028E+02 8.57663E+01
 -1      9143-3.74104E+02 1.04282E+02-3.34969E+03 2.88170E+00-1.05528E+02-4.03806E+02
 -1      9144 2.37990E+02 2.13762E+02-2.59985E+03 2.30379E+01-5.98931E+01 2.06761E+01
 -1      9145 1.11403E+02-5.49908E+01-2.67455E+03 2.22636E+01 1.35333E+01 1.06744E+02
 -1      9146-1.62964E+02 1.10264E+02-3.20736E+03 2.94121E+01-1.15195E+02-1.95449E+02
 -1      9147-4.89583E+01 1.90453E+02-2.86737E+03 7.48023E+00-5.96158E+01-2.14347E+02
 -1      9148-4.49271E+02-2.19934E+02-3.02060E+03-1.62301E+01 1.37580E+02-3.20649E+02
 -1      9149-2.73676E+03-2.73676E+03-5.97341E+03 2.49790E-04 9.98451E+02-1.42162E+03
 -1      9150-2.05169E+03-2.05169E+03-4.47812E+03 4.71914E-04 1.13762E+03-5.60163E+02
 -1      9151-5.41018E+02-5.06609E+02-4.10021E+03-4.76135E+01 3.08714E+02-5.54727E+02
 -1      9152-2.12432E+03-2.12432E+03-4.63681E+03-7.49728E-04 5.11939E+02-1.22202E+03
 -1      9153-2.29312E+03-2.29311E+03-5.00524E+03-6.69201E-04 1.07897E+03-9.64713E+02
 -1      9154-8.06873E+02-4.49645E+02-3.73078E+03-7.33359E+00 4.49378E+02-4.95024E+02
 -1      9155-1.40865E+03-1.40865E+03-3.07472E+03-4.95985E-04 6.75801E+02-4.84771E+02
 -1      9156 2.28059E+03 2.28060E+03 4.97776E+03-3.56806E-04 1.30499E+03-3.36202E+02
 -1      9157 5.19480E+02-1.74459E+02 3.30521E+03 4.12028E+00-1.02377E+02-2.75461E+02
 -1      9158 2.18427E+03 2.18426E+03 4.76764E+03 4.13332E-04 1.25430E+03-4.42918E+02
 -1      9159 3.64143E+02-1.87064E+02 3.33685E+03 5.02285E+00-9.91283E+01-3.13630E+02
 -1      9160 1.54013E+03 1.54012E+03 3.36168E+03 3.94405E-04 7.93297E+02-2.93503E+02
 -1      9161 1.16763E+03 5.36627E+02 3.95109E+03 4.20238E+00 5.12377E+02-3.17472E+02
 -1      9162 5.96173E+02 1.91978E+02 2.99272E+03 1.44696E+01 1.96038E+02-2.28373E+02
 -1      9163 2.16367E+02 4.34064E+01 2.97242E+03 1.30300E+00-2.52851E+01-1.14220E+02
 -1      9164 1.53462E+02 4.76334E+01 2.98220E+03-3.16800E+00-2.26121E+01-1.18556E+02
 -1      9165 2.62181E+02-1.85864E+02 3.00178E+03 1.59850E+00-5.64228E+01-1.95346E+02
 -1      9166 2.29928E+02 2.88272E+01 2.74480E+03 1.05278E+01 1.07191E+02-8.73866E+01
 -1      9167 9.09899E+01-1.91934E+01 2.83933E+03 4.47909E-01 1.97052E+00-2.29215E+01
 -1      9168 5.11199E+01-2.04529E+01 2.81213E+03-1.48425E+00 2.65722E+00-1.20932E+01
 -1      9169 1.49279E+02 2.02304E+01 2.92887E+03 8.23605E-01 3.03944E+00-6.76196E+01
 -1      9170 9.38665E+01 2.43486E+00 2.51964E+03 8.79201E+00 9.16650E+01-1.37141E+01
 -1      9171 4.34239E+01 3.66924E+00 2.63186E+03 5.28716E-01 3.40554E+00 2.20973E+01
 -1      9172 2.80819E+01 4.99600E+00 2.61499E+03-7.17127E-01 3.28476E+00 2.74876E+01
 -1      9173 6.12394E+01-7.22989E+00 2.73389E+03 7.33541E-01-8.64503E-02 7.01301E-01
 -1      9174 3.71201E+01-8.06159E-01 2.31344E+03 6.71905E+00 9.46242E+01 2.16535E+01
 -1      9175 1.75578E+01-7.51268E-01 2.41720E+03 3.05090E-01 4.92878E+00 3.84455E+01
 -1      9176 1.04860E+01-7.85344E-02 2.40322E+03-2.67535E-01 4.47749E+00 4.16514E+01
 -1      9177 2.75552E+01 1.04021E+00 2.52404E+03 5.23781E-01 2.59035E+00 2.99465E+01
 -1      9178 1.50995E+01-5.26044E-01 2.12263E+03 4.65519E+00 9.55082E+01 3.28181E+01
 -1      9179 6.67925E+00 2.66317E-01 2.20063E+03 2.15603E-01 5.19038E+00 4.31585E+01
 -1      9180 3.89330E+00 6.30060E-01 2.19168E+03-9.77877E-02 4.66777E+00 4.52703E+01
 -1      9181 1.07330E+01-3.38666E-01 2.30864E+03 2.93936E-01 2.67096E+00 4.04600E+01
 -1      9182 5.13564E+00-2.50772E-01 1.93183E+03 3.00534E+00 9.62163E+01 3.47490E+01
 -1      9183 1.75323E+00-6.40470E-02 1.98422E+03 1.27452E-01 5.31927E+00 4.34351E+01
 -1      9184 8.15380E-01 1.49673E-01 1.97878E+03-3.06852E-02 4.73410E+00 4.51705E+01
 -1      9185 3.56124E+00 2.52804E-02 2.09236E+03 1.70334E-01 2.83116E+00 4.29758E+01
 -1      9186 1.14546E+00-8.55655E-02 1.74262E+03 1.82194E+00 9.63654E+01 3.35388E+01
 -1      9187-2.87011E-02-2.39420E-02 1.76856E+03 7.26386E-02 5.31845E+00 4.24312E+01
 -1      9188-2.17585E-01 8.48087E-02 1.76549E+03-7.65774E-03 4.71897E+00 4.40528E+01
 -1      9189 5.92092E-01-5.36466E-02 1.87645E+03 8.85549E-02 2.82330E+00 4.27153E+01
 -1      9190-2.70711E-01-1.43221E-02 1.55407E+03 1.04948E+00 9.63585E+01 3.17461E+01
 -1      9191-5.33233E-01-3.56297E-02 1.55353E+03 3.84764E-02 5.30806E+00 4.13196E+01
 -1      9192-4.64937E-01 2.19303E-02 1.55190E+03-7.72620E-04 4.70239E+00 4.29326E+01
 -1      9193-3.81413E-01-2.72746E-02 1.66115E+03 4.36952E-02 2.81539E+00 4.17363E+01
 -1      9194-6.00930E-01 5.89613E-03 1.36604E+03 5.77655E-01 9.63062E+01 3.02209E+01
 -1      9195-5.34748E-01-2.19964E-02 1.33892E+03 1.93466E-02 5.29564E+00 4.04559E+01
 -1      9196-4.13034E-01 6.34720E-03 1.33812E+03 6.70881E-04 4.68966E+00 4.20907E+01
 -1      9197-5.60180E-01-2.06242E-02 1.44634E+03 1.98201E-02 2.80417E+00 4.08063E+01
 -1      9198-5.43499E-01 8.91833E-03 1.17831E+03 3.04729E-01 9.62629E+01 2.91438E+01
 -1      9199-3.98610E-01-1.35615E-02 1.12455E+03 9.15968E-03 5.28812E+00 3.98773E+01
 -1      9200-2.93325E-01 5.43217E-05 1.12419E+03 6.05951E-04 4.68279E+00 4.15377E+01
 -1      9201-4.66422E-01-1.10400E-02 1.23184E+03 8.14637E-03 2.79780E+00 4.01218E+01
 -1      9202-3.90257E-01 6.76386E-03 9.90751E+02 1.54042E-01 9.62358E+01 2.84570E+01
 -1      9203-2.57761E-01-7.10276E-03 9.10305E+02 4.06371E-03 5.28392E+00 3.95237E+01
 -1      9204-1.84396E-01-9.67424E-04 9.10171E+02 3.08802E-04 4.67941E+00 4.12045E+01
 -1      9205-3.20782E-01-5.70562E-03 1.01751E+03 2.83518E-03 2.79428E+00 3.96776E+01
 -1      9206-2.48185E-01 4.26476E-03 8.03284E+02 7.44007E-02 9.62215E+01 2.80495E+01
 -1      9207-1.51166E-01-3.51143E-03 6.96116E+02 1.66713E-03 5.28187E+00 3.93224E+01
 -1      9208-1.06075E-01-9.30802E-04 6.96083E+02 1.02046E-04 4.67793E+00 4.10172E+01
 -1      9209-1.97185E-01-2.58361E-03 8.03279E+02 6.70743E-04 2.79261E+00 3.94126E+01
 -1      9210-1.44265E-01 2.45335E-03 6.15858E+02 3.41199E-02 9.62148E+01 2.78220E+01
 -1      9211-7.96943E-02-1.59507E-03 4.81952E+02 6.31401E-04 5.28090E+00 3.92157E+01
 -1      9212-5.51869E-02-6.30237E-04 4.81957E+02 1.78642E-05 4.67731E+00 4.09191E+01
 -1      9213-1.10240E-01-1.08984E-03 5.89084E+02-4.85727E-05 2.79184E+00 3.92652E+01
 -1      9214-7.57237E-02 1.33443E-03 4.28450E+02 1.46409E-02 9.62119E+01 2.77029E+01
 -1      9215-3.28725E-02-6.23961E-04 2.67798E+02 2.39171E-04 5.28046E+00 3.91657E+01
 -1      9216-2.26418E-02-3.58031E-04 2.67809E+02 2.16821E-05 4.67705E+00 4.08735E+01
 -1      9217-5.33268E-02-4.19786E-04 3.74906E+02-1.50813E-04 2.79151E+00 3.91902E+01
 -1      9218-3.12782E-02 6.40967E-04 2.41049E+02 5.45044E-03 9.62106E+01 2.76474E+01
 -1      9219 1.67687E-03 1.75407E-05 5.36469E+01 1.09369E-04 5.28025E+00 3.91512E+01
 -1      9220 1.01040E-03-6.47989E-05 5.36530E+01 7.92741E-05 4.67689E+00 4.08605E+01
 -1      9221-1.45966E-02-1.06319E-04 1.60736E+02-1.14249E-05 2.79134E+00 3.91592E+01
 -1      9222 1.14271E-03 9.45859E-05 5.36498E+01 4.92190E-04 9.62101E+01 2.76313E+01
 -1      9223 3.57199E-02 8.37407E-04-1.60503E+02 2.81369E-06 5.28018E+00 3.91650E+01
 -1      9224 2.44362E-02 3.97047E-04-1.60503E+02 1.65849E-04 4.67678E+00 4.08732E+01
 -1      9225 1.78963E-02 1.96759E-04-5.34323E+01 2.03686E-04 2.79125E+00 3.91589E+01
 -1      9226 3.26463E-02-5.95771E-04-1.33749E+02-4.33932E-03 9.62102E+01 2.76466E+01
 -1      9227 8.04990E-02 2.42795E-03-3.74656E+02-3.26472E-04 5.28033E+00 3.92121E+01
 -1      9228 5.60251E-02 1.26819E-03-3.74650E+02 2.57599E-04 4.67676E+00 4.09164E+01
 -1      9229 5.53962E-02 8.23767E-04-2.67602E+02 3.86397E-04 2.79121E+00 3.91882E+01
 -1      9230 7.37039E-02-1.80700E-03-3.21151E+02-1.31696E-02 9.62117E+01 2.76990E+01
 -1      9231 1.46648E-01 5.66828E-03-5.88819E+02-1.28713E-03 5.28102E+00 3.93101E+01
 -1      9232 1.04298E-01 2.89387E-03-5.88779E+02 3.18884E-04 4.67710E+00 4.10072E+01
 -1      9233 1.08704E-01 2.25877E-03-4.81778E+02 3.60068E-04 2.79132E+00 3.92576E+01
 -1      9234 1.34320E-01-4.09317E-03-5.08564E+02-3.21460E-02 9.62167E+01 2.78097E+01
 -1      9235 2.41167E-01 1.17613E-02-8.03014E+02-3.66879E-03 5.28299E+00 3.94914E+01
 -1      9236 1.76468E-01 5.52948E-03-8.02879E+02 2.95956E-04 4.67844E+00 4.11771E+01
 -1      9237 1.87024E-01 5.26118E-03-6.95976E+02-2.84699E-04 2.79186E+00 3.93912E+01
 -1      9238 2.21830E-01-8.23573E-03-6.96003E+02-7.20479E-02 9.62294E+01 2.80183E+01
 -1      9239 3.57147E-01 2.25773E-02-1.01728E+03-8.97486E-03 5.28763E+00 3.98049E+01
 -1      9240 2.72394E-01 9.21419E-03-1.01694E+03 1.50310E-04 4.68215E+00 4.14745E+01
 -1      9241 2.92134E-01 1.10940E-02-9.10227E+02-2.46251E-03 2.79341E+00 3.96272E+01
 -1      9242 3.32558E-01-1.50429E-02-8.83502E+02-1.52089E-01 9.62570E+01 2.83881E+01
 -1      9243 4.46089E-01 3.81003E-02-1.23171E+03-1.99366E-02 5.29693E+00 4.03097E+01
 -1      9244 3.66897E-01 1.08980E-02-1.23096E+03 1.70184E-05 4.69053E+00 4.19610E+01
 -1      9245 4.01436E-01 2.09614E-02-1.12459E+03-8.06903E-03 2.79723E+00 4.00162E+01
 -1      9246 4.30113E-01-2.46055E-02-1.07112E+03-3.05375E-01 9.63109E+01 2.90062E+01
 -1      9247 3.61255E-01 6.20231E-02-1.44646E+03-4.10536E-02 5.31394E+00 4.10480E+01
 -1      9248 3.73373E-01 7.58603E-03-1.44493E+03 7.49559E-04 4.70734E+00 4.26882E+01
 -1      9249 4.28967E-01 3.74552E-02-1.33919E+03-2.07165E-02 2.80494E+00 4.06040E+01
 -1      9250 3.95675E-01-3.33906E-02-1.25898E+03-5.85895E-01 9.64034E+01 2.99678E+01
 -1      9251-2.79365E-01 6.42834E-02-1.66175E+03-7.95356E-02 5.33457E+00 4.19636E+01
 -1      9252 5.02344E-02-3.74835E-02-1.65888E+03 5.42810E-03 4.73315E+00 4.36264E+01
 -1      9253 1.38098E-01 5.37780E-02-1.55420E+03-4.69810E-02 2.81974E+00 4.13774E+01
 -1      9254-7.37166E-02-3.02542E-02-1.44724E+03-1.07533E+00 9.65392E+01 3.13142E+01
 -1      9255-2.26705E+00 1.15387E-01-1.87790E+03-1.42890E-01 5.35534E+00 4.26923E+01
 -1      9256-1.10127E+00-8.38469E-02-1.87279E+03 2.31492E-02 4.76683E+00 4.44825E+01
 -1      9257-1.01114E+00 9.02813E-02-1.76988E+03-9.69624E-02 2.83591E+00 4.21262E+01
 -1      9258-1.67724E+00 1.93966E-02-1.63617E+03-1.88374E+00 9.66776E+01 3.28594E+01
 -1      9259-7.46345E+00-2.02548E-01-2.09514E+03-2.46114E-01 5.26520E+00 4.20908E+01
 -1      9260-4.34085E+00-5.39535E-01-2.08672E+03 7.91097E-02 4.73655E+00 4.42594E+01
 -1      9261-4.22811E+00 2.12271E-02-1.98644E+03-1.88539E-01 2.85976E+00 4.20926E+01
 -1      9262-5.87351E+00 1.64424E-01-1.82596E+03-3.13327E+00 9.67145E+01 3.37845E+01
 -1      9263-1.86514E+01 7.44764E-01-2.31303E+03-3.61598E-01 5.06510E+00 3.71325E+01
 -1      9264-1.11509E+01 1.18427E-01-2.29981E+03 2.27346E-01 4.60748E+00 4.03545E+01
 -1      9265-1.17059E+01 3.62543E-01-2.20380E+03-3.30095E-01 2.73352E+00 3.92917E+01
 -1      9266-1.59449E+01 4.40024E-01-2.01752E+03-4.89415E+00 9.62373E+01 3.16554E+01
 -1      9267-4.46198E+01-3.63212E+00-2.52960E+03-6.16451E-01 3.66626E+00 2.09493E+01
 -1      9268-2.88367E+01-4.86926E+00-2.51357E+03 6.39045E-01 3.53599E+00 2.62317E+01
 -1      9269-2.87650E+01-1.01695E+00-2.42078E+03-5.86596E-01 2.69933E+00 2.87304E+01
 -1      9270-3.77111E+01 7.80549E-01-2.20922E+03-7.11676E+00 9.55321E+01 2.06894E+01
 -1      9271-9.18426E+01 1.81542E+01-2.73949E+03-5.87797E-01 2.35603E+00-2.27042E+01
 -1      9272-5.21309E+01 1.93882E+01-2.71332E+03 1.34972E+00 3.03112E+00-1.23230E+01
 -1      9273-6.23955E+01 6.81952E+00-2.63280E+03-8.39922E-01 1.80331E-01 1.72194E-01
 -1      9274-9.28202E+01-2.11217E+00-2.41543E+03-9.38314E+00 9.25574E+01-1.33515E+01
 -1      9275-2.14373E+02-4.28225E+01-2.87735E+03-1.41449E+00-2.38768E+01-1.10629E+02
 -1      9276-1.52337E+02-4.67940E+01-2.88628E+03 3.00677E+00-2.12295E+01-1.15073E+02
 -1      9277-1.48643E+02-1.99325E+01-2.83025E+03-9.73281E-01 3.25596E+00-6.58042E+01
 -1      9278-2.23762E+02-2.70001E+01-2.63869E+03-1.11747E+01 1.06676E+02-8.38942E+01
 -1      9279-5.06430E+02 1.67472E+02-3.20265E+03-4.09792E+00-9.86435E+01-2.65525E+02
 -1      9280-3.55853E+02 1.79306E+02-3.23156E+03-4.86481E+00-9.54535E+01-3.02689E+02
 -1      9281-2.58675E+02 1.77993E+02-2.90849E+03-1.72691E+00-5.39940E+01-1.88711E+02
 -1      9282-5.75282E+02-1.83128E+02-2.88214E+03-1.47975E+01 1.89308E+02-2.18811E+02
 -1      9283-2.20196E+03-2.20197E+03-4.80614E+03 3.63339E-04 1.25317E+03-3.24565E+02
 -1      9284-2.10695E+03-2.10694E+03-4.59887E+03-4.26310E-04 1.20315E+03-4.27780E+02
 -1      9285-1.12883E+03-5.17597E+02-3.81978E+03-4.20396E+00 4.92204E+02-3.06321E+02
 -1      9286-1.48265E+03-1.48264E+03-3.23622E+03-4.02033E-04 7.58396E+02-2.82097E+02
 -1      9287 2.32369E+03 2.32371E+03 5.07185E+03-2.02116E-04 1.34489E+03-1.54378E+02
 -1      9288 6.23494E+02-1.82386E+02 3.32310E+03 6.10799E-01-9.65946E+01-1.27089E+02
 -1      9289 2.30260E+03 2.30258E+03 5.02590E+03 3.55388E-04 1.32911E+03-2.40409E+02
 -1      9290 5.74344E+02-1.78996E+02 3.31318E+03-7.71116E-01-9.73014E+01-1.95476E+02
 -1      9291 1.54873E+03 1.54871E+03 3.38043E+03 2.31518E-04 8.27022E+02-1.35661E+02
 -1      9292 1.24558E+03 5.63083E+02 4.02736E+03 2.77276E+00 5.34864E+02-1.43136E+02
 -1      9293 6.79847E+02 1.92775E+02 2.99971E+03 7.68992E+00 2.17583E+02-1.06470E+02
 -1      9294 3.40930E+02 5.07651E+01 2.97200E+03 1.22397E+00-2.46018E+01-7.18404E+01
 -1      9295 2.85415E+02 4.64927E+01 2.97175E+03-8.92568E-01-2.35946E+01-9.64293E+01
 -1      9296 3.69102E+02-1.96599E+02 2.98900E+03 4.68935E-01-5.64738E+01-1.00761E+02
 -1      9297 3.36895E+02 3.56008E+01 2.75656E+03 7.26375E+00 1.18415E+02-5.74172E+01
 -1      9298 1.62002E+02-1.97345E+01 2.85023E+03 8.47898E-01 1.57527E+00-2.16306E+01
 -1      9299 1.25903E+02-2.15662E+01 2.84525E+03-2.68819E-01 2.23421E+00-2.40513E+01
 -1      9300 2.45112E+02 2.11372E+01 2.93052E+03 8.85203E-01 3.12946E+00-4.49642E+01
 -1      9301 1.54297E+02 2.81081E+00 2.53958E+03 6.06957E+00 9.68542E+01-1.52805E+01
 -1      9302 8.24634E+01 5.38975E+00 2.65515E+03 5.38814E-01 2.98173E+00 7.69922E+00
 -1      9303 6.48646E+01 4.80758E+00 2.64678E+03-1.73682E-01 3.15309E+00 1.30968E+01
 -1      9304 1.14812E+02-6.04734E+00 2.75347E+03 7.75384E-01-1.19577E-01-6.12266E+00
 -1      9305 6.88631E+01 5.19853E-01 2.34058E+03 4.59790E+00 9.65533E+01 8.61728E+00
 -1      9306 3.61638E+01-1.08102E-01 2.43637E+03 3.41023E-01 4.52498E+00 1.96656E+01
 -1      9307 2.75653E+01-3.68210E-01 2.42877E+03 8.60554E-03 4.50925E+00 2.81989E+01
 -1      9308 5.41173E+01 1.36219E+00 2.54373E+03 4.85808E-01 2.33100E+00 1.37936E+01
 -1      9309 2.92429E+01-1.23587E-01 2.14377E+03 3.22306E+00 9.52305E+01 1.75437E+01
 -1      9310 1.49004E+01 4.65477E-01 2.21426E+03 2.18221E-01 4.82647E+00 2.37509E+01
 -1      9311 1.13327E+01 5.23240E-01 2.20894E+03 3.86500E-02 4.68428E+00 3.29624E+01
 -1      9312 2.31865E+01-1.09973E-01 2.32457E+03 2.94432E-01 2.40670E+00 2.16470E+01
 -1      9313 1.07439E+01-2.19072E-01 1.94644E+03 2.10258E+00 9.44401E+01 1.99419E+01
 -1      9314 5.10901E+00-4.42837E-02 1.99288E+03 1.28602E-01 4.95881E+00 2.44554E+01
 -1      9315 3.72866E+00 5.75466E-02 1.98948E+03 4.41012E-02 4.75215E+00 3.36480E+01
 -1      9316 8.94322E+00 1.10528E-01 2.10328E+03 1.69210E-01 2.52380E+00 2.39760E+01
 -1      9317 3.02086E+00-1.54854E-01 1.75180E+03 1.29093E+00 9.35959E+01 1.97226E+01
 -1      9318 1.14046E+00-6.65884E-02 1.77370E+03 7.37910E-02 4.96281E+00 2.40620E+01
 -1      9319 7.23900E-01 2.91585E-02 1.77172E+03 3.28747E-02 4.72291E+00 3.30241E+01
 -1      9320 2.72472E+00-1.70061E-02 1.88331E+03 9.13334E-02 2.50007E+00 2.41558E+01
 -1      9321 9.58710E-02-1.01681E-01 1.55949E+03 7.53884E-01 9.29724E+01 1.88241E+01
 -1      9322-2.51287E-01-8.35711E-02 1.55641E+03 4.02000E-02 4.95459E+00 2.34616E+01
 -1      9323-3.04449E-01-1.41832E-02 1.55534E+03 2.14741E-02 4.69643E+00 3.21965E+01
 -1      9324 3.22815E-01-1.57446E-02 1.66517E+03 4.76543E-02 2.48048E+00 2.36892E+01
 -1      9325-7.39769E-01-6.33143E-02 1.36908E+03 4.21041E-01 9.25548E+01 1.79511E+01
 -1      9326-5.67251E-01-6.02758E-02 1.34046E+03 2.10442E-02 4.94432E+00 2.29547E+01
 -1      9327-5.07155E-01-1.53602E-02 1.33992E+03 1.27315E-02 4.67687E+00 3.15186E+01
 -1      9328-4.21229E-01-1.82956E-02 1.44858E+03 2.36176E-02 2.46334E+00 2.31630E+01
 -1      9329-7.88060E-01-3.88862E-02 1.17994E+03 2.25617E-01 9.23053E+01 1.72992E+01
 -1      9330-5.07561E-01-3.95852E-02 1.12533E+03 1.05401E-02 4.93841E+00 2.26007E+01
 -1      9331-4.32586E-01-1.27159E-02 1.12509E+03 7.04661E-03 4.66615E+00 3.10523E+01
 -1      9332-5.16322E-01-1.18351E-02 1.23302E+03 1.11367E-02 2.45378E+00 2.27516E+01
 -1      9333-6.01999E-01-2.32437E-02 9.91582E+02 1.16050E-01 9.21665E+01 1.68695E+01
 -1      9334-3.58659E-01-2.32766E-02 9.10680E+02 5.04350E-03 4.93540E+00 2.23782E+01
 -1      9335-2.99339E-01-8.17921E-03 9.10592E+02 3.67176E-03 4.66077E+00 3.07622E+01
 -1      9336-4.08189E-01-7.08590E-03 1.01811E+03 4.92682E-03 2.44870E+00 2.24755E+01
 -1      9337-3.96727E-01-1.33939E-02 8.03686E+02 5.71846E-02 9.20942E+01 1.66083E+01
 -1      9338-2.22330E-01-1.28345E-02 6.96285E+02 2.29345E-03 4.93413E+00 2.22488E+01
 -1      9339-1.83315E-01-4.84341E-03 6.96268E+02 1.80431E-03 4.65835E+00 3.05946E+01
 -1      9340-2.71018E-01-3.73700E-03 8.03561E+02 2.00858E-03 2.44628E+00 2.23067E+01
 -1      9341-2.36425E-01-7.32446E-03 6.16041E+02 2.68531E-02 9.20586E+01 1.64596E+01
 -1      9342-1.21767E-01-6.50712E-03 4.82021E+02 9.81882E-04 4.93365E+00 2.21788E+01
 -1      9343-9.96170E-02-2.60524E-03 4.82029E+02 8.29693E-04 4.65734E+00 3.05048E+01
 -1      9344-1.59360E-01-1.84550E-03 5.89209E+02 7.33724E-04 2.44518E+00 2.22111E+01
 -1      9345-1.26502E-01-3.67090E-03 4.28526E+02 1.18299E-02 9.20420E+01 1.63803E+01
 -1      9346-5.14877E-02-2.70295E-03 2.67820E+02 3.76056E-04 4.93346E+00 2.21455E+01
 -1      9347-4.19301E-02-1.15864E-03 2.67832E+02 3.35872E-04 4.65692E+00 3.04622E+01
 -1      9348-7.97144E-02-8.14903E-04 3.74956E+02 2.38234E-04 2.44470E+00 2.21615E+01
 -1      9349-5.31362E-02-1.46079E-03 2.41074E+02 4.47781E-03 9.20349E+01 1.63428E+01
 -1      9350 2.37921E-03-2.84609E-06 5.36451E+01 5.87914E-05 4.93331E+00 2.21356E+01
 -1      9351 1.97922E-03-2.83860E-05 5.36506E+01 5.45118E-05 4.65672E+00 3.04497E+01
 -1      9352-2.22522E-02-2.04997E-04 1.60747E+02 8.01363E-05 2.44447E+00 2.21408E+01
 -1      9353 1.33474E-03 1.03163E-05 5.36479E+01 2.98824E-04 9.20327E+01 1.63318E+01
 -1      9354 5.49179E-02 2.81850E-03-1.60529E+02-2.51543E-04 4.93314E+00 2.21447E+01
 -1      9355 4.49808E-02 1.26845E-03-1.60530E+02-2.12400E-04 4.65661E+00 3.04613E+01
 -1      9356 2.68730E-02 3.63646E-04-5.34468E+01 1.96036E-05 2.44436E+00 2.21404E+01
 -1      9357 5.39942E-02 1.26779E-03-1.33778E+02-3.82034E-03 9.20343E+01 1.63419E+01
 -1      9358 1.20172E-01 7.04631E-03-3.74725E+02-8.42953E-04 4.93300E+00 2.21756E+01
 -1      9359 9.91751E-02 3.30097E-03-3.74724E+02-6.64886E-04 4.65670E+00 3.05010E+01
 -1      9360 8.14296E-02 1.26667E-03-2.67652E+02-1.26451E-04 2.44435E+00 2.21596E+01
 -1      9361 1.20821E-01 2.73111E-03-3.21229E+02-1.10135E-02 9.20415E+01 1.63770E+01
 -1      9362 2.08602E-01 1.42876E-02-5.88982E+02-2.15600E-03 4.93316E+00 2.22390E+01
 -1      9363 1.74262E-01 6.81631E-03-5.88958E+02-1.58071E-03 4.65741E+00 3.05829E+01
 -1      9364 1.53083E-01 3.00021E-03-4.81900E+02-6.08520E-04 2.44458E+00 2.22049E+01
 -1      9365 2.15929E-01 4.77069E-03-5.08743E+02-2.58602E-02 9.20600E+01 1.64500E+01
 -1      9366 3.19079E-01 2.64755E-02-8.03370E+02-4.97762E-03 4.93426E+00 2.23543E+01
 -1      9367 2.71598E-01 1.26178E-02-8.03281E+02-3.40029E-03 4.65970E+00 3.07327E+01
 -1      9368 2.46720E-01 6.24745E-03-6.96245E+02-1.89713E-03 2.44544E+00 2.22906E+01
 -1      9369 3.46490E-01 7.75710E-03-6.96388E+02-5.62066E-02 9.21016E+01 1.65854E+01
 -1      9370 4.17366E-01 4.58571E-02-1.01802E+03-1.07270E-02 4.93766E+00 2.25488E+01
 -1      9371 3.67690E-01 2.15477E-02-1.01779E+03-6.80910E-03 4.66553E+00 3.09877E+01
 -1      9372 3.47038E-01 1.19723E-02-9.10786E+02-4.91901E-03 2.44775E+00 2.24389E+01
 -1      9373 4.96547E-01 1.21580E-02-8.84289E+02-1.15744E-01 9.21877E+01 1.68204E+01
 -1      9374 3.85103E-01 7.16164E-02-1.23315E+03-2.18742E-02 4.94534E+00 2.28524E+01
 -1      9375 3.73833E-01 3.15138E-02-1.23265E+03-1.27658E-02 4.67815E+00 3.13901E+01
 -1      9376 3.85512E-01 2.05844E-02-1.12570E+03-1.14472E-02 2.45322E+00 2.26769E+01
 -1      9377 5.87226E-01 1.88624E-02-1.07266E+03-2.27584E-01 9.23547E+01 1.72035E+01
 -1      9378-8.60818E-02 1.02362E-01-1.44915E+03-4.24315E-02 4.96041E+00 2.32757E+01
 -1      9379 5.39107E-02 4.13341E-02-1.44814E+03-2.23270E-02 4.70272E+00 3.19609E+01
 -1      9380 1.68052E-01 3.27183E-02-1.34128E+03-2.46931E-02 2.46441E+00 2.30231E+01
 -1      9381 3.86515E-01 2.98655E-02-1.26185E+03-4.28633E-01 9.26570E+01 1.77788E+01
 -1      9382-1.71885E+00 9.58447E-02-1.66656E+03-7.87508E-02 4.97956E+00 2.37490E+01
 -1      9383-1.15952E+00 1.35454E-02-1.66470E+03-3.56646E-02 4.74039E+00 3.26243E+01
 -1      9384-7.75076E-01 3.77008E-02-1.55796E+03-5.03290E-02 2.48584E+00 2.34463E+01
 -1      9385-6.70424E-01 5.03638E-02-1.45235E+03-7.73412E-01 9.31654E+01 1.85368E+01
 -1      9386-6.02423E+00 8.19437E-02-1.88601E+03-1.38493E-01 4.99735E+00 2.39719E+01
 -1      9387-4.43051E+00-3.88789E-04-1.88282E+03-5.08423E-02 4.79179E+00 3.30234E+01
 -1      9388-3.47270E+00 4.57760E-02-1.77629E+03-9.70784E-02 2.51515E+00 2.37665E+01
 -1      9389-3.87217E+00 8.46813E-02-1.64482E+03-1.33323E+00 9.39341E+01 1.92831E+01
 -1      9390-1.62057E+01-4.15008E-01-2.10795E+03-2.35866E-01 4.90755E+00 2.30839E+01
 -1      9391-1.23562E+01-4.47164E-01-2.10295E+03-5.29044E-02 4.76657E+00 3.20870E+01
 -1      9392-1.00756E+01-7.70388E-02-1.99670E+03-1.80216E-01 2.55785E+00 2.34112E+01
 -1      9393-1.18503E+01 1.39504E-01-1.83975E+03-2.18404E+00 9.49871E+01 1.93436E+01
 -1      9394-3.77692E+01 9.94243E-02-2.33113E+03-3.70369E-01 4.67612E+00 1.89082E+01
 -1      9395-2.88911E+01 3.81063E-01-2.32395E+03-3.44753E-02 4.66105E+00 2.71691E+01
 -1      9396-2.47084E+01 1.16251E-01-2.21881E+03-3.14061E-01 2.47912E+00 2.09411E+01
 -1      9397-3.03417E+01 7.37772E-02-2.03755E+03-3.36485E+00 9.60409E+01 1.68799E+01
 -1      9398-8.37981E+01-5.32367E+00-2.55179E+03-5.79520E-01 3.26970E+00 7.17401E+00
 -1      9399-6.60659E+01-4.72228E+00-2.54378E+03 1.28768E-01 3.43990E+00 1.23109E+01
 -1      9400-5.57530E+01-1.36815E+00-2.43946E+03-5.17162E-01 2.45957E+00 1.31453E+01
 -1      9401-6.91981E+01-4.45412E-01-2.23509E+03-4.81621E+00 9.75735E+01 8.19111E+00
 -1      9402-1.62039E+02 1.86610E+01-2.75016E+03-8.93527E-01 2.00580E+00-2.11399E+01
 -1      9403-1.26395E+02 2.04521E+01-2.74524E+03 2.14084E-01 2.65179E+00-2.36230E+01
 -1      9404-1.15733E+02 5.63367E+00-2.65163E+03-8.19768E-01 1.69387E-01-6.18823E+00
 -1      9405-1.51920E+02-2.40366E+00-2.43476E+03-6.35092E+00 9.78484E+01-1.47428E+01
 -1      9406-3.36000E+02-4.99683E+01-2.87786E+03-1.25606E+00-2.32055E+01-6.93680E+01
 -1      9407-2.81702E+02-4.57977E+01-2.87717E+03 8.32399E-01-2.22054E+01-9.32244E+01
 -1      9408-2.42769E+02-2.08905E+01-2.83245E+03-9.42870E-01 3.37570E+00-4.35809E+01
 -1      9409-3.27449E+02-3.34564E+01-2.65093E+03-7.53526E+00 1.17829E+02-5.50317E+01
 -1      9410-6.08024E+02 1.75252E+02-3.22230E+03-6.50067E-01-9.31051E+01-1.22353E+02
 -1      9411-5.60071E+02 1.71877E+02-3.21175E+03 7.15648E-01-9.37146E+01-1.88306E+02
 -1      9412-3.63145E+02 1.88494E+02-2.89764E+03-5.31020E-01-5.40678E+01-9.71644E+01
 -1      9413-6.56622E+02-1.84079E+02-2.89089E+03-7.83609E+00 2.10484E+02-1.01934E+02
 -1      9414-2.24573E+03-2.24575E+03-4.90169E+03 2.04266E-04 1.29310E+03-1.48935E+02
 -1      9415-2.22446E+03-2.22445E+03-4.85535E+03-3.58813E-04 1.27728E+03-2.32017E+02
 -1      9416-1.20571E+03-5.43812E+02-3.89691E+03-2.72154E+00 5.14494E+02-1.37975E+02
 -1      9417-1.49232E+03-1.49230E+03-3.25731E+03-2.33771E-04 7.91941E+02-1.30337E+02
 -1      9418 2.34741E+03 2.34743E+03 5.12361E+03 6.81723E-13 1.36024E+03-3.74387E-11
 -1      9419 6.49641E+02-1.84821E+02 3.32779E+03-2.03547E-12-9.60024E+01-2.64377E-11
 -1      9420 2.33795E+03 2.33793E+03 5.10305E+03 1.15073E-04 1.35578E+03-7.57741E+01
 -1      9421 6.32748E+02-1.86930E+02 3.32374E+03 5.13998E-01-9.48736E+01-6.18515E+01
 -1      9422 1.56099E+03 1.56097E+03 3.40721E+03 5.20748E-12 8.37842E+02-2.13519E-11
 -1      9423 1.26984E+03 5.68890E+02 4.05246E+03-3.23175E-12 5.40681E+02-3.32907E-11
 -1      9424 7.01845E+02 1.93743E+02 3.00117E+03-3.12714E-12 2.23709E+02-1.15941E-11
 -1      9425 3.72652E+02 4.94923E+01 2.96440E+03-2.06345E-13-2.48023E+01-1.59719E-11
 -1      9426 3.52124E+02 4.52435E+01 2.96279E+03 7.79690E-02-2.37886E+01-3.55721E+01
 -1      9427 4.06924E+02-1.97269E+02 2.98942E+03-5.03597E-13-5.63985E+01-1.88571E-11
 -1      9428 3.63524E+02 3.40194E+01 2.75316E+03-2.59490E-12 1.21807E+02-6.78176E-12
 -1      9429 1.88844E+02-1.97001E+01 2.85104E+03-7.75844E-12 1.56844E+00-2.53406E-11
 -1      9430 1.75194E+02-2.20174E+01 2.84863E+03-3.35324E-02 2.08542E+00-1.13134E+01
 -1      9431 2.77319E+02 2.22918E+01 2.93083E+03-2.92549E-12 3.45366E+00-1.75939E-11
 -1      9432 1.76586E+02 2.84570E+00 2.54295E+03-4.17341E-12 9.87225E+01-9.10403E-12
 -1      9433 9.88237E+01 6.23073E+00 2.66111E+03 7.81072E-12 2.88379E+00-2.43461E-11
 -1      9434 9.12739E+01 4.78764E+00 2.65827E+03-9.37364E-03 3.15028E+00 3.18670E+00
 -1      9435 1.35641E+02-5.73873E+00 2.75719E+03 2.04553E-12-1.05005E-01-3.18301E-11
 -1      9436 8.20862E+01 1.09682E+00 2.34790E+03 5.76944E-12 9.74099E+01-5.32313E-12
 -1      9437 4.40431E+01 2.00090E-01 2.44231E+03 3.59189E-12 4.45569E+00-3.55807E-12
 -1      9438 4.07382E+01-2.98729E-01 2.44043E+03 2.48485E-02 4.50390E+00 9.51568E+00
 -1      9439 6.54240E+01 1.61319E+00 2.54921E+03 2.10113E-12 2.32393E+00-2.14355E-11
 -1      9440 3.52127E+01 1.55766E-02 2.15037E+03-5.17712E-12 9.53820E+01 2.99015E-12
 -1      9441 1.86043E+01 6.23027E-01 2.21886E+03-7.85409E-12 4.77526E+00 6.25583E-12
 -1      9442 1.73648E+01 5.44905E-01 2.21778E+03 2.76129E-02 4.67847E+00 1.17037E+01
 -1      9443 2.85700E+01 3.33744E-02 2.32968E+03-1.90707E-13 2.39212E+00 1.67806E-11
 -1      9444 1.32981E+01-1.75661E-01 1.95137E+03-7.17464E-12 9.40847E+01-3.57403E-12
 -1      9445 6.68079E+00 5.57044E-03 1.99595E+03 2.78303E-11 4.91148E+00 1.41059E-11
 -1      9446 6.29686E+00 5.15496E-02 1.99537E+03 2.44103E-02 4.73140E+00 1.21430E+01
 -1      9447 1.13824E+01 1.78472E-01 2.10702E+03 8.26156E-12 2.49648E+00 7.19275E-12
 -1      9448 3.93887E+00-1.65955E-01 1.75506E+03 1.62826E-11 9.28897E+01 1.18942E-11
 -1      9449 1.74499E+00-5.90666E-02 1.77559E+03-1.86320E-11 4.91782E+00 1.96237E-12
 -1      9450 1.70546E+00 1.88289E-02 1.77534E+03 1.68925E-02 4.68664E+00 1.19825E+01
 -1      9451 3.73886E+00 1.64763E-02 1.88575E+03 1.31507E-11 2.46759E+00 1.16644E-11
 -1      9452 3.37795E-01-1.26827E-01 1.56148E+03 3.38000E-12 9.20403E+01-1.94031E-12
 -1      9453-6.27132E-02-8.97911E-02 1.55750E+03 7.15390E-13 4.91036E+00 5.46785E-12
 -1      9454-2.48519E-03-2.48070E-02 1.55742E+03 1.07281E-02 4.64976E+00 1.16971E+01
 -1      9455 6.98703E-01-1.22555E-04 1.66666E+03-1.08727E-12 2.44358E+00 4.26004E-12
 -1      9456-7.44899E-01-8.59054E-02 1.37022E+03 3.44975E-12 9.14851E+01 1.11656E-11
 -1      9457-5.38784E-01-6.88027E-02 1.34106E+03-1.89511E-11 4.90066E+00-1.34251E-11
 -1      9458-4.65632E-01-2.31565E-02 1.34106E+03 6.28630E-03 4.62352E+00 1.14484E+01
 -1      9459-3.13516E-01-1.14418E-02 1.44942E+03-2.18051E-11 2.42394E+00 1.14064E-11
 -1      9460-8.59742E-01-5.54451E-02 1.18056E+03-5.59679E-12 9.11557E+01 1.37821E-11
 -1      9461-5.29489E-01-4.66377E-02 1.12564E+03-2.69834E-11 4.89517E+00 2.85788E-11
 -1      9462-4.71796E-01-1.79296E-02 1.12568E+03 3.47934E-03 4.60900E+00 1.12725E+01
 -1      9463-5.08085E-01-9.01223E-03 1.23348E+03-2.39227E-12 2.41293E+00-3.57187E-12
 -1      9464-6.73813E-01-3.40479E-02 9.91910E+02-2.93787E-12 9.09728E+01 2.50841E-11
 -1      9465-3.88162E-01-2.81495E-02 9.10833E+02-3.81985E-11 4.89247E+00 1.93268E-11
 -1      9466-3.49573E-01-1.13774E-02 9.10885E+02 1.82544E-03 4.60156E+00 1.11609E+01
 -1      9467-4.28597E-01-6.07121E-03 1.01835E+03-3.37022E-11 2.40705E+00 1.55222E-11
 -1      9468-4.50128E-01-1.99415E-02 8.03849E+02-4.01932E-11 9.08770E+01 1.79511E-11
 -1      9469-2.45646E-01-1.58534E-02 6.96356E+02-1.75035E-11 4.89142E+00 2.59117E-11
 -1      9470-2.22494E-01-6.68694E-03 6.96404E+02 9.08753E-04 4.59811E+00 1.10956E+01
 -1      9471-2.93371E-01-3.44875E-03 8.03677E+02-3.15068E-11 2.40423E+00-9.89231E-12
 -1      9472-2.70684E-01-1.10424E-02 6.16118E+02-6.26165E-12 9.08294E+01 3.10949E-11
 -1      9473-1.36335E-01-8.18104E-03 4.82052E+02-5.95630E-11 4.89108E+00 5.05357E-11
 -1      9474-1.23918E-01-3.58101E-03 4.82088E+02 4.23978E-04 4.59660E+00 1.10602E+01
 -1      9475-1.75678E-01-1.81230E-03 5.89262E+02 3.93225E-11 2.40292E+00 4.31488E-11
 -1      9476-1.45800E-01-5.61502E-03 4.28560E+02-4.26553E-11 9.08070E+01 3.93670E-11
 -1      9477-5.81403E-02-3.43783E-03 2.67831E+02 5.02407E-12 4.89097E+00 6.20168E-11
 -1      9478-5.29361E-02-1.57544E-03 2.67852E+02 1.70888E-04 4.59597E+00 1.10432E+01
 -1      9479-8.88950E-02-8.37542E-04 3.74977E+02 2.44173E-12 2.40234E+00 5.15184E-11
 -1      9480-6.15805E-02-2.28982E-03 2.41086E+02 1.79225E-11 9.07973E+01 3.70408E-11
 -1      9481 2.55681E-03-1.85573E-05 5.36445E+01-1.58432E-11 4.89084E+00 7.24640E-11
 -1      9482 2.40668E-03-3.42244E-05 5.36495E+01 1.89472E-05 4.59570E+00 1.10381E+01
 -1      9483-2.50046E-02-2.11018E-04 1.60753E+02-3.00163E-11 2.40208E+00 5.31207E-11
 -1      9484 1.33781E-03-2.26050E-05 5.36474E+01-8.09155E-11 9.07944E+01 7.36533E-11
 -1      9485 6.15534E-02 3.49629E-03-1.60540E+02-2.10100E-11 4.89064E+00 1.22868E-10
 -1      9486 5.62712E-02 1.66584E-03-1.60552E+02-1.28768E-04 4.59564E+00 1.10427E+01
 -1      9487 2.99420E-02 3.88786E-04-5.34531E+01-9.34245E-12 2.40196E+00 1.00221E-10
 -1      9488 6.20627E-02 2.00441E-03-1.33791E+02-1.36650E-11 9.07967E+01 1.05231E-10
 -1      9489 1.33395E-01 8.57625E-03-3.74756E+02-2.67642E-11 4.89040E+00 1.49568E-10
 -1      9490 1.21699E-01 4.23133E-03-3.74782E+02-3.70273E-04 4.59593E+00 1.10584E+01
 -1      9491 9.01676E-02 1.29465E-03-2.67674E+02-3.44568E-11 2.40198E+00 1.19098E-10
 -1      9492 1.38412E-01 4.49559E-03-3.21262E+02-4.83181E-11 9.08064E+01 9.91744E-11
 -1      9493 2.27617E-01 1.69842E-02-5.89051E+02 2.39586E-11 4.89040E+00 1.13214E-10
 -1      9494 2.06990E-01 8.56178E-03-5.89089E+02-8.40608E-04 4.59713E+00 1.10904E+01
 -1      9495 1.67018E-01 2.93492E-03-4.81951E+02-4.17649E-11 2.40230E+00 1.26576E-10
 -1      9496 2.45609E-01 8.13926E-03-5.08817E+02-2.87086E-11 9.08307E+01 1.27538E-10
 -1      9497 3.38450E-01 3.07054E-02-8.03515E+02-1.34385E-10 4.89127E+00 1.72782E-10
 -1      9498 3.05992E-01 1.56249E-02-8.03557E+02-1.75206E-03 4.60049E+00 1.11484E+01
 -1      9499 2.62641E-01 5.84381E-03-6.96355E+02-9.19786E-11 2.40336E+00 1.67491E-10
 -1      9500 3.89845E-01 1.36710E-02-6.96544E+02-4.86181E-11 9.08843E+01 9.71800E-11
 -1      9501 4.18525E-01 5.17366E-02-1.01831E+03 7.65665E-11 4.89434E+00 1.62230E-10
 -1      9502 3.73626E-01 2.64189E-02-1.01834E+03-3.43782E-03 4.60848E+00 1.12455E+01
 -1      9503 3.53300E-01 1.06735E-02-9.11009E+02-7.87724E-11 2.40609E+00 1.23063E-10
 -1      9504 5.48695E-01 2.18997E-02-8.84599E+02 2.97272E-11 9.09942E+01 6.56454E-11
 -1      9505 3.17840E-01 7.81696E-02-1.23371E+03-8.65568E-11 4.90162E+00 1.78415E-10
 -1      9506 2.68932E-01 3.87444E-02-1.23371E+03-6.37187E-03 4.62515E+00 1.13956E+01
 -1      9507 3.49477E-01 1.71620E-02-1.12613E+03-1.20924E-10 2.41241E+00 2.03097E-10
 -1      9508 6.23551E-01 3.37912E-02-1.07325E+03 8.85221E-11 9.12061E+01 9.22788E-11
 -1      9509-3.41567E-01 1.05541E-01-1.45016E+03-5.83698E-11 4.91623E+00-1.33235E-10
 -1      9510-3.59427E-01 5.10912E-02-1.45008E+03-1.11456E-02 4.65691E+00 1.16016E+01
 -1      9511 1.01522E-02 2.47140E-02-1.34207E+03-7.56180E-11 2.42519E+00 7.06490E-11
 -1      9512 3.32945E-01 5.02468E-02-1.26292E+03 7.38435E-11 9.15896E+01-4.22849E-11
 -1      9513-2.42947E+00 8.41409E-02-1.66831E+03-5.64594E-11 4.93491E+00-1.17988E-10
 -1      9514-2.32154E+00 2.27051E-02-1.66807E+03-1.80426E-02 4.70600E+00 1.18226E+01
 -1      9515-1.23460E+00 2.00455E-02-1.55934E+03-4.12848E-11 2.44941E+00-1.54300E-10
 -1      9516-1.00135E+00 7.30911E-02-1.45421E+03 2.26252E-11 9.22389E+01-8.80093E-11
 -1      9517-7.74733E+00 2.73777E-02-1.88888E+03 2.12030E-11 4.95110E+00-1.53006E-10
 -1      9518-7.26392E+00 4.16835E-03-1.88832E+03-2.69730E-02 4.77465E+00 1.18977E+01
 -1      9519-4.61418E+00 8.97778E-03-1.77857E+03 6.31947E-11 2.48370E+00-1.83173E-10
 -1      9520-4.90926E+00 9.45589E-02-1.64788E+03 1.32934E-11 9.32388E+01-1.47301E-10
 -1      9521-2.00908E+01-5.75704E-01-2.11226E+03-7.40383E-11 4.85880E+00-2.83929E-10
 -1      9522-1.87252E+01-4.70250E-01-2.11122E+03-3.27227E-02 4.76721E+00 1.13689E+01
 -1      9523-1.26851E+01-1.49951E-01-2.00018E+03 6.78544E-13 2.53263E+00-1.68974E-10
 -1      9524-1.45304E+01 9.93669E-02-1.84439E+03-2.38714E-11 9.46510E+01-1.71229E-10
 -1      9525-4.58004E+01-2.08013E-01-2.33673E+03 3.86751E-11 4.61245E+00-2.53318E-10
 -1      9526-4.23797E+01 3.11402E-01-2.33490E+03-3.37075E-02 4.66613E+00 9.14199E+00
 -1      9527-3.02742E+01-3.30201E-02-2.22360E+03-3.19207E-11 2.46809E+00-3.07683E-10
 -1      9528-3.63773E+01-5.33546E-02-2.04379E+03-8.94403E-12 9.62225E+01-1.99198E-10
 -1      9529-1.00103E+02-6.14682E+00-2.55745E+03-4.60098E-11 3.18047E+00-1.57367E-10
 -1      9530-9.25401E+01-4.71209E+00-2.55468E+03-4.11440E-03 3.45015E+00 2.94633E+00
 -1      9531-6.71461E+01-1.62554E+00-2.44464E+03 9.63293E-11 2.45824E+00-1.66063E-10
 -1      9532-8.22500E+01-9.84823E-01-2.24207E+03-7.97849E-11 9.84663E+01-2.11037E-10
 -1      9533-1.88469E+02 1.86255E+01-2.75104E+03-2.28194E-10 2.00741E+00-7.25187E-11
 -1      9534-1.75019E+02 2.08967E+01-2.74864E+03 1.71903E-02 2.52124E+00-1.10448E+01
 -1      9535-1.36375E+02 5.32066E+00-2.65524E+03-5.54965E-11 1.90773E-01-8.50390E-11
 -1      9536-1.73686E+02-2.41892E+00-2.43809E+03-1.42792E-10 9.97376E+01-1.44683E-10
 -1      9537-3.67073E+02-4.87613E+01-2.87089E+03 1.67377E-10-2.33936E+01-1.84232E-10
 -1      9538-3.47056E+02-4.46429E+01-2.86922E+03-8.45757E-02-2.23993E+01-3.43396E+01
 -1      9539-2.74358E+02-2.20220E+01-2.83298E+03-2.14813E-11 3.69329E+00-1.95226E-10
 -1      9540-3.53363E+02-3.19400E+01-2.64803E+03 8.73450E-11 1.21201E+02-1.63729E-10
 -1      9541-6.33670E+02 1.77658E+02-3.22754E+03-1.61091E-10-9.25462E+01-1.98762E-10
 -1      9542-6.17227E+02 1.79650E+02-3.22346E+03-5.01749E-01-9.14198E+01-5.95349E+01
 -1      9543-4.00048E+02 1.89188E+02-2.89856E+03-2.42057E-11-5.40135E+01-1.99527E-10
 -1      9544-6.78115E+02-1.85080E+02-2.89296E+03 2.68723E-11 2.16505E+02-2.06381E-10
 -1      9545-2.26930E+03-2.26932E+03-4.95312E+03 1.40773E-10 1.30831E+03-1.51871E-10
 -1      9546-2.25997E+03-2.25995E+03-4.93284E+03-1.16354E-04 1.30389E+03-7.30928E+01
 -1      9547-1.22965E+03-5.49618E+02-3.92222E+03-1.02640E-10 5.20269E+02-1.77019E-10
 -1      9548-1.50455E+03-1.50453E+03-3.28400E+03-4.04406E-11 8.02646E+02-1.27901E-10
 -1      9549 2.32369E+03 2.32371E+03 5.07185E+03 2.02116E-04 1.34489E+03 1.54378E+02
 -1      9550 6.23494E+02-1.82386E+02 3.32310E+03-6.10799E-01-9.65946E+01 1.27089E+02
 -1      9551 2.33795E+03 2.33793E+03 5.10305E+03-1.15073E-04 1.35578E+03 7.57741E+01
 -1      9552 6.32748E+02-1.86930E+02 3.32374E+03-5.13998E-01-9.48736E+01 6.18515E+01
 -1      9553 1.54873E+03 1.54871E+03 3.38043E+03-2.31518E-04 8.27022E+02 1.35661E+02
 -1      9554 1.24558E+03 5.63083E+02 4.02736E+03-2.77276E+00 5.34864E+02 1.43136E+02
 -1      9555 6.79847E+02 1.92775E+02 2.99971E+03-7.68992E+00 2.17583E+02 1.06470E+02
 -1      9556 3.40930E+02 5.07651E+01 2.97200E+03-1.22397E+00-2.46018E+01 7.18404E+01
 -1      9557 3.52124E+02 4.52435E+01 2.96279E+03-7.79690E-02-2.37886E+01 3.55721E+01
 -1      9558 3.69102E+02-1.96599E+02 2.98900E+03-4.68935E-01-5.64738E+01 1.00761E+02
 -1      9559 3.36895E+02 3.56008E+01 2.75656E+03-7.26375E+00 1.18415E+02 5.74172E+01
 -1      9560 1.62002E+02-1.97345E+01 2.85023E+03-8.47898E-01 1.57527E+00 2.16306E+01
 -1      9561 1.75194E+02-2.20174E+01 2.84863E+03 3.35324E-02 2.08542E+00 1.13134E+01
 -1      9562 2.45112E+02 2.11372E+01 2.93052E+03-8.85203E-01 3.12946E+00 4.49642E+01
 -1      9563 1.54297E+02 2.81081E+00 2.53958E+03-6.06957E+00 9.68542E+01 1.52805E+01
 -1      9564 8.24634E+01 5.38975E+00 2.65515E+03-5.38814E-01 2.98173E+00-7.69922E+00
 -1      9565 9.12739E+01 4.78764E+00 2.65827E+03 9.37364E-03 3.15028E+00-3.18670E+00
 -1      9566 1.14812E+02-6.04734E+00 2.75347E+03-7.75384E-01-1.19577E-01 6.12266E+00
 -1      9567 6.88631E+01 5.19853E-01 2.34058E+03-4.59790E+00 9.65533E+01-8.61728E+00
 -1      9568 3.61638E+01-1.08102E-01 2.43637E+03-3.41023E-01 4.52498E+00-1.96656E+01
 -1      9569 4.07382E+01-2.98729E-01 2.44043E+03-2.48485E-02 4.50390E+00-9.51568E+00
 -1      9570 5.41173E+01 1.36219E+00 2.54373E+03-4.85808E-01 2.33100E+00-1.37936E+01
 -1      9571 2.92429E+01-1.23587E-01 2.14377E+03-3.22306E+00 9.52305E+01-1.75437E+01
 -1      9572 1.49004E+01 4.65477E-01 2.21426E+03-2.18221E-01 4.82647E+00-2.37509E+01
 -1      9573 1.73648E+01 5.44905E-01 2.21778E+03-2.76129E-02 4.67847E+00-1.17037E+01
 -1      9574 2.31865E+01-1.09973E-01 2.32457E+03-2.94432E-01 2.40670E+00-2.16470E+01
 -1      9575 1.07439E+01-2.19072E-01 1.94644E+03-2.10258E+00 9.44401E+01-1.99419E+01
 -1      9576 5.10901E+00-4.42837E-02 1.99288E+03-1.28602E-01 4.95881E+00-2.44554E+01
 -1      9577 6.29686E+00 5.15496E-02 1.99537E+03-2.44103E-02 4.73140E+00-1.21430E+01
 -1      9578 8.94322E+00 1.10528E-01 2.10328E+03-1.69210E-01 2.52380E+00-2.39760E+01
 -1      9579 3.02086E+00-1.54854E-01 1.75180E+03-1.29093E+00 9.35959E+01-1.97226E+01
 -1      9580 1.14046E+00-6.65884E-02 1.77370E+03-7.37910E-02 4.96281E+00-2.40620E+01
 -1      9581 1.70546E+00 1.88289E-02 1.77534E+03-1.68925E-02 4.68664E+00-1.19825E+01
 -1      9582 2.72472E+00-1.70061E-02 1.88331E+03-9.13334E-02 2.50007E+00-2.41558E+01
 -1      9583 9.58710E-02-1.01681E-01 1.55949E+03-7.53884E-01 9.29724E+01-1.88241E+01
 -1      9584-2.51287E-01-8.35711E-02 1.55641E+03-4.02000E-02 4.95459E+00-2.34616E+01
 -1      9585-2.48519E-03-2.48070E-02 1.55742E+03-1.07281E-02 4.64976E+00-1.16971E+01
 -1      9586 3.22815E-01-1.57446E-02 1.66517E+03-4.76543E-02 2.48048E+00-2.36892E+01
 -1      9587-7.39769E-01-6.33143E-02 1.36908E+03-4.21041E-01 9.25548E+01-1.79511E+01
 -1      9588-5.67251E-01-6.02758E-02 1.34046E+03-2.10442E-02 4.94432E+00-2.29547E+01
 -1      9589-4.65632E-01-2.31565E-02 1.34106E+03-6.28630E-03 4.62352E+00-1.14484E+01
 -1      9590-4.21229E-01-1.82956E-02 1.44858E+03-2.36176E-02 2.46334E+00-2.31630E+01
 -1      9591-7.88060E-01-3.88862E-02 1.17994E+03-2.25617E-01 9.23053E+01-1.72992E+01
 -1      9592-5.07561E-01-3.95852E-02 1.12533E+03-1.05401E-02 4.93841E+00-2.26007E+01
 -1      9593-4.71796E-01-1.79296E-02 1.12568E+03-3.47934E-03 4.60900E+00-1.12725E+01
 -1      9594-5.16322E-01-1.18351E-02 1.23302E+03-1.11367E-02 2.45378E+00-2.27516E+01
 -1      9595-6.01999E-01-2.32437E-02 9.91582E+02-1.16050E-01 9.21665E+01-1.68695E+01
 -1      9596-3.58659E-01-2.32766E-02 9.10680E+02-5.04350E-03 4.93540E+00-2.23782E+01
 -1      9597-3.49573E-01-1.13774E-02 9.10885E+02-1.82544E-03 4.60156E+00-1.11609E+01
 -1      9598-4.08189E-01-7.08590E-03 1.01811E+03-4.92682E-03 2.44870E+00-2.24755E+01
 -1      9599-3.96727E-01-1.33939E-02 8.03686E+02-5.71846E-02 9.20942E+01-1.66083E+01
 -1      9600-2.22330E-01-1.28345E-02 6.96285E+02-2.29345E-03 4.93413E+00-2.22488E+01
 -1      9601-2.22494E-01-6.68694E-03 6.96404E+02-9.08753E-04 4.59811E+00-1.10956E+01
 -1      9602-2.71018E-01-3.73700E-03 8.03561E+02-2.00858E-03 2.44628E+00-2.23067E+01
 -1      9603-2.36425E-01-7.32447E-03 6.16041E+02-2.68531E-02 9.20586E+01-1.64596E+01
 -1      9604-1.21767E-01-6.50712E-03 4.82021E+02-9.81882E-04 4.93365E+00-2.21788E+01
 -1      9605-1.23918E-01-3.58101E-03 4.82088E+02-4.23979E-04 4.59660E+00-1.10602E+01
 -1      9606-1.59360E-01-1.84550E-03 5.89209E+02-7.33724E-04 2.44518E+00-2.22111E+01
 -1      9607-1.26502E-01-3.67090E-03 4.28526E+02-1.18299E-02 9.20420E+01-1.63803E+01
 -1      9608-5.14877E-02-2.70295E-03 2.67820E+02-3.76056E-04 4.93346E+00-2.21455E+01
 -1      9609-5.29361E-02-1.57544E-03 2.67852E+02-1.70888E-04 4.59597E+00-1.10432E+01
 -1      9610-7.97144E-02-8.14903E-04 3.74956E+02-2.38234E-04 2.44470E+00-2.21615E+01
 -1      9611-5.31362E-02-1.46079E-03 2.41074E+02-4.47781E-03 9.20349E+01-1.63428E+01
 -1      9612 2.37921E-03-2.84623E-06 5.36451E+01-5.87914E-05 4.93331E+00-2.21356E+01
 -1      9613 2.40668E-03-3.42242E-05 5.36495E+01-1.89474E-05 4.59570E+00-1.10381E+01
 -1      9614-2.22522E-02-2.04997E-04 1.60747E+02-8.01363E-05 2.44447E+00-2.21408E+01
 -1      9615 1.33474E-03 1.03162E-05 5.36479E+01-2.98824E-04 9.20327E+01-1.63318E+01
 -1      9616 5.49179E-02 2.81850E-03-1.60529E+02 2.51543E-04 4.93314E+00-2.21447E+01
 -1      9617 5.62712E-02 1.66584E-03-1.60552E+02 1.28768E-04 4.59564E+00-1.10427E+01
 -1      9618 2.68730E-02 3.63646E-04-5.34468E+01-1.96036E-05 2.44436E+00-2.21404E+01
 -1      9619 5.39942E-02 1.26779E-03-1.33778E+02 3.82034E-03 9.20343E+01-1.63419E+01
 -1      9620 1.20172E-01 7.04631E-03-3.74725E+02 8.42953E-04 4.93300E+00-2.21756E+01
 -1      9621 1.21699E-01 4.23133E-03-3.74782E+02 3.70273E-04 4.59593E+00-1.10584E+01
 -1      9622 8.14296E-02 1.26667E-03-2.67652E+02 1.26451E-04 2.44435E+00-2.21596E+01
 -1      9623 1.20821E-01 2.73111E-03-3.21229E+02 1.10135E-02 9.20415E+01-1.63770E+01
 -1      9624 2.08602E-01 1.42876E-02-5.88982E+02 2.15600E-03 4.93316E+00-2.22390E+01
 -1      9625 2.06990E-01 8.56178E-03-5.89089E+02 8.40608E-04 4.59713E+00-1.10904E+01
 -1      9626 1.53083E-01 3.00021E-03-4.81900E+02 6.08520E-04 2.44458E+00-2.22049E+01
 -1      9627 2.15929E-01 4.77069E-03-5.08743E+02 2.58602E-02 9.20600E+01-1.64500E+01
 -1      9628 3.19079E-01 2.64755E-02-8.03370E+02 4.97762E-03 4.93426E+00-2.23543E+01
 -1      9629 3.05992E-01 1.56249E-02-8.03557E+02 1.75206E-03 4.60049E+00-1.11484E+01
 -1      9630 2.46720E-01 6.24745E-03-6.96245E+02 1.89713E-03 2.44544E+00-2.22906E+01
 -1      9631 3.46490E-01 7.75710E-03-6.96388E+02 5.62066E-02 9.21016E+01-1.65854E+01
 -1      9632 4.17366E-01 4.58571E-02-1.01802E+03 1.07270E-02 4.93766E+00-2.25488E+01
 -1      9633 3.73626E-01 2.64189E-02-1.01834E+03 3.43782E-03 4.60848E+00-1.12455E+01
 -1      9634 3.47038E-01 1.19723E-02-9.10786E+02 4.91901E-03 2.44775E+00-2.24389E+01
 -1      9635 4.96547E-01 1.21580E-02-8.84289E+02 1.15744E-01 9.21877E+01-1.68204E+01
 -1      9636 3.85103E-01 7.16164E-02-1.23315E+03 2.18742E-02 4.94534E+00-2.28524E+01
 -1      9637 2.68932E-01 3.87444E-02-1.23371E+03 6.37187E-03 4.62515E+00-1.13956E+01
 -1      9638 3.85512E-01 2.05844E-02-1.12570E+03 1.14472E-02 2.45322E+00-2.26769E+01
 -1      9639 5.87226E-01 1.88624E-02-1.07266E+03 2.27584E-01 9.23547E+01-1.72035E+01
 -1      9640-8.60818E-02 1.02362E-01-1.44915E+03 4.24315E-02 4.96041E+00-2.32757E+01
 -1      9641-3.59427E-01 5.10912E-02-1.45008E+03 1.11456E-02 4.65691E+00-1.16016E+01
 -1      9642 1.68052E-01 3.27183E-02-1.34128E+03 2.46931E-02 2.46441E+00-2.30231E+01
 -1      9643 3.86515E-01 2.98655E-02-1.26185E+03 4.28633E-01 9.26570E+01-1.77788E+01
 -1      9644-1.71885E+00 9.58447E-02-1.66656E+03 7.87508E-02 4.97956E+00-2.37490E+01
 -1      9645-2.32154E+00 2.27051E-02-1.66807E+03 1.80426E-02 4.70600E+00-1.18226E+01
 -1      9646-7.75076E-01 3.77008E-02-1.55796E+03 5.03290E-02 2.48584E+00-2.34463E+01
 -1      9647-6.70424E-01 5.03638E-02-1.45235E+03 7.73412E-01 9.31654E+01-1.85368E+01
 -1      9648-6.02423E+00 8.19437E-02-1.88601E+03 1.38493E-01 4.99735E+00-2.39719E+01
 -1      9649-7.26392E+00 4.16835E-03-1.88832E+03 2.69730E-02 4.77465E+00-1.18977E+01
 -1      9650-3.47270E+00 4.57760E-02-1.77629E+03 9.70784E-02 2.51515E+00-2.37665E+01
 -1      9651-3.87217E+00 8.46813E-02-1.64482E+03 1.33323E+00 9.39341E+01-1.92831E+01
 -1      9652-1.62057E+01-4.15008E-01-2.10795E+03 2.35866E-01 4.90755E+00-2.30839E+01
 -1      9653-1.87252E+01-4.70250E-01-2.11122E+03 3.27227E-02 4.76721E+00-1.13689E+01
 -1      9654-1.00756E+01-7.70388E-02-1.99670E+03 1.80216E-01 2.55785E+00-2.34112E+01
 -1      9655-1.18503E+01 1.39504E-01-1.83975E+03 2.18404E+00 9.49871E+01-1.93436E+01
 -1      9656-3.77692E+01 9.94243E-02-2.33113E+03 3.70369E-01 4.67612E+00-1.89082E+01
 -1      9657-4.23797E+01 3.11402E-01-2.33490E+03 3.37075E-02 4.66613E+00-9.14199E+00
 -1      9658-2.47084E+01 1.16251E-01-2.21881E+03 3.14061E-01 2.47912E+00-2.09411E+01
 -1      9659-3.03417E+01 7.37772E-02-2.03755E+03 3.36485E+00 9.60409E+01-1.68799E+01
 -1      9660-8.37981E+01-5.32367E+00-2.55179E+03 5.79520E-01 3.26970E+00-7.17401E+00
 -1      9661-9.25401E+01-4.71209E+00-2.55468E+03 4.11440E-03 3.45015E+00-2.94633E+00
 -1      9662-5.57530E+01-1.36815E+00-2.43946E+03 5.17162E-01 2.45957E+00-1.31453E+01
 -1      9663-6.91981E+01-4.45412E-01-2.23509E+03 4.81621E+00 9.75735E+01-8.19111E+00
 -1      9664-1.62039E+02 1.86610E+01-2.75016E+03 8.93527E-01 2.00580E+00 2.11399E+01
 -1      9665-1.75019E+02 2.08967E+01-2.74864E+03-1.71903E-02 2.52124E+00 1.10448E+01
 -1      9666-1.15733E+02 5.63367E+00-2.65163E+03 8.19768E-01 1.69387E-01 6.18823E+00
 -1      9667-1.51920E+02-2.40366E+00-2.43476E+03 6.35092E+00 9.78484E+01 1.47428E+01
 -1      9668-3.36000E+02-4.99683E+01-2.87786E+03 1.25606E+00-2.32055E+01 6.93680E+01
 -1      9669-3.47056E+02-4.46429E+01-2.86922E+03 8.45757E-02-2.23993E+01 3.43396E+01
 -1      9670-2.42769E+02-2.08905E+01-2.83245E+03 9.42870E-01 3.37570E+00 4.35809E+01
 -1      9671-3.27449E+02-3.34564E+01-2.65093E+03 7.53526E+00 1.17829E+02 5.50317E+01
 -1      9672-6.08024E+02 1.75252E+02-3.22230E+03 6.50067E-01-9.31051E+01 1.22353E+02
 -1      9673-6.17227E+02 1.79650E+02-3.22346E+03 5.01749E-01-9.14198E+01 5.95349E+01
 -1      9674-3.63145E+02 1.88494E+02-2.89764E+03 5.31020E-01-5.40678E+01 9.71644E+01
 -1      9675-6.56622E+02-1.84079E+02-2.89089E+03 7.83609E+00 2.10484E+02 1.01934E+02
 -1      9676-2.24573E+03-2.24575E+03-4.90169E+03-2.04266E-04 1.29310E+03 1.48935E+02
 -1      9677-2.25997E+03-2.25995E+03-4.93284E+03 1.16354E-04 1.30389E+03 7.30928E+01
 -1      9678-1.20571E+03-5.43812E+02-3.89691E+03 2.72154E+00 5.14494E+02 1.37975E+02
 -1      9679-1.49232E+03-1.49230E+03-3.25731E+03 2.33771E-04 7.91941E+02 1.30337E+02
 -1      9680 2.28059E+03 2.28060E+03 4.97776E+03 3.56806E-04 1.30499E+03 3.36202E+02
 -1      9681 5.19480E+02-1.74459E+02 3.30521E+03-4.12028E+00-1.02377E+02 2.75461E+02
 -1      9682 2.30260E+03 2.30258E+03 5.02590E+03-3.55388E-04 1.32911E+03 2.40409E+02
 -1      9683 5.74344E+02-1.78996E+02 3.31318E+03 7.71116E-01-9.73014E+01 1.95476E+02
 -1      9684 1.54013E+03 1.54012E+03 3.36168E+03-3.94405E-04 7.93297E+02 2.93503E+02
 -1      9685 1.16763E+03 5.36627E+02 3.95109E+03-4.20238E+00 5.12377E+02 3.17472E+02
 -1      9686 5.96173E+02 1.91978E+02 2.99272E+03-1.44696E+01 1.96038E+02 2.28373E+02
 -1      9687 2.16367E+02 4.34064E+01 2.97242E+03-1.30300E+00-2.52851E+01 1.14220E+02
 -1      9688 2.85415E+02 4.64927E+01 2.97175E+03 8.92568E-01-2.35946E+01 9.64293E+01
 -1      9689 2.62181E+02-1.85864E+02 3.00178E+03-1.59850E+00-5.64228E+01 1.95346E+02
 -1      9690 2.29928E+02 2.88272E+01 2.74480E+03-1.05278E+01 1.07191E+02 8.73866E+01
 -1      9691 9.09899E+01-1.91934E+01 2.83933E+03-4.47909E-01 1.97052E+00 2.29215E+01
 -1      9692 1.25903E+02-2.15662E+01 2.84525E+03 2.68819E-01 2.23421E+00 2.40513E+01
 -1      9693 1.49279E+02 2.02304E+01 2.92887E+03-8.23605E-01 3.03944E+00 6.76196E+01
 -1      9694 9.38665E+01 2.43486E+00 2.51964E+03-8.79201E+00 9.16650E+01 1.37141E+01
 -1      9695 4.34239E+01 3.66924E+00 2.63186E+03-5.28716E-01 3.40554E+00-2.20973E+01
 -1      9696 6.48646E+01 4.80758E+00 2.64678E+03 1.73682E-01 3.15309E+00-1.30968E+01
 -1      9697 6.12394E+01-7.22989E+00 2.73389E+03-7.33541E-01-8.64503E-02-7.01301E-01
 -1      9698 3.71201E+01-8.06159E-01 2.31344E+03-6.71905E+00 9.46242E+01-2.16535E+01
 -1      9699 1.75578E+01-7.51268E-01 2.41720E+03-3.05090E-01 4.92878E+00-3.84455E+01
 -1      9700 2.75653E+01-3.68210E-01 2.42877E+03-8.60554E-03 4.50925E+00-2.81989E+01
 -1      9701 2.75552E+01 1.04021E+00 2.52404E+03-5.23781E-01 2.59035E+00-2.99465E+01
 -1      9702 1.50995E+01-5.26044E-01 2.12263E+03-4.65519E+00 9.55082E+01-3.28181E+01
 -1      9703 6.67925E+00 2.66317E-01 2.20063E+03-2.15603E-01 5.19038E+00-4.31585E+01
 -1      9704 1.13327E+01 5.23240E-01 2.20894E+03-3.86500E-02 4.68428E+00-3.29624E+01
 -1      9705 1.07330E+01-3.38666E-01 2.30864E+03-2.93936E-01 2.67096E+00-4.04600E+01
 -1      9706 5.13564E+00-2.50772E-01 1.93183E+03-3.00534E+00 9.62163E+01-3.47490E+01
 -1      9707 1.75323E+00-6.40470E-02 1.98422E+03-1.27452E-01 5.31927E+00-4.34351E+01
 -1      9708 3.72866E+00 5.75466E-02 1.98948E+03-4.41012E-02 4.75215E+00-3.36480E+01
 -1      9709 3.56124E+00 2.52804E-02 2.09236E+03-1.70334E-01 2.83116E+00-4.29758E+01
 -1      9710 1.14546E+00-8.55655E-02 1.74262E+03-1.82194E+00 9.63654E+01-3.35388E+01
 -1      9711-2.87011E-02-2.39420E-02 1.76856E+03-7.26386E-02 5.31845E+00-4.24312E+01
 -1      9712 7.23900E-01 2.91585E-02 1.77172E+03-3.28747E-02 4.72291E+00-3.30241E+01
 -1      9713 5.92092E-01-5.36466E-02 1.87645E+03-8.85549E-02 2.82330E+00-4.27153E+01
 -1      9714-2.70711E-01-1.43221E-02 1.55407E+03-1.04948E+00 9.63585E+01-3.17461E+01
 -1      9715-5.33233E-01-3.56297E-02 1.55353E+03-3.84764E-02 5.30806E+00-4.13196E+01
 -1      9716-3.04449E-01-1.41832E-02 1.55534E+03-2.14741E-02 4.69643E+00-3.21965E+01
 -1      9717-3.81413E-01-2.72746E-02 1.66115E+03-4.36952E-02 2.81539E+00-4.17363E+01
 -1      9718-6.00930E-01 5.89613E-03 1.36604E+03-5.77655E-01 9.63062E+01-3.02209E+01
 -1      9719-5.34748E-01-2.19964E-02 1.33892E+03-1.93466E-02 5.29564E+00-4.04559E+01
 -1      9720-5.07155E-01-1.53602E-02 1.33992E+03-1.27315E-02 4.67687E+00-3.15186E+01
 -1      9721-5.60180E-01-2.06242E-02 1.44634E+03-1.98201E-02 2.80417E+00-4.08063E+01
 -1      9722-5.43499E-01 8.91833E-03 1.17831E+03-3.04729E-01 9.62629E+01-2.91438E+01
 -1      9723-3.98610E-01-1.35615E-02 1.12455E+03-9.15968E-03 5.28812E+00-3.98773E+01
 -1      9724-4.32586E-01-1.27159E-02 1.12509E+03-7.04661E-03 4.66615E+00-3.10523E+01
 -1      9725-4.66422E-01-1.10400E-02 1.23184E+03-8.14637E-03 2.79780E+00-4.01218E+01
 -1      9726-3.90257E-01 6.76386E-03 9.90751E+02-1.54042E-01 9.62358E+01-2.84570E+01
 -1      9727-2.57761E-01-7.10276E-03 9.10305E+02-4.06371E-03 5.28392E+00-3.95237E+01
 -1      9728-2.99339E-01-8.17921E-03 9.10592E+02-3.67176E-03 4.66077E+00-3.07622E+01
 -1      9729-3.20782E-01-5.70562E-03 1.01751E+03-2.83518E-03 2.79428E+00-3.96776E+01
 -1      9730-2.48185E-01 4.26476E-03 8.03284E+02-7.44007E-02 9.62215E+01-2.80495E+01
 -1      9731-1.51166E-01-3.51143E-03 6.96116E+02-1.66713E-03 5.28187E+00-3.93224E+01
 -1      9732-1.83315E-01-4.84341E-03 6.96268E+02-1.80431E-03 4.65835E+00-3.05946E+01
 -1      9733-1.97185E-01-2.58361E-03 8.03279E+02-6.70743E-04 2.79261E+00-3.94126E+01
 -1      9734-1.44265E-01 2.45335E-03 6.15858E+02-3.41199E-02 9.62148E+01-2.78220E+01
 -1      9735-7.96943E-02-1.59507E-03 4.81952E+02-6.31401E-04 5.28090E+00-3.92157E+01
 -1      9736-9.96170E-02-2.60524E-03 4.82029E+02-8.29693E-04 4.65734E+00-3.05048E+01
 -1      9737-1.10240E-01-1.08984E-03 5.89084E+02 4.85726E-05 2.79184E+00-3.92652E+01
 -1      9738-7.57237E-02 1.33443E-03 4.28450E+02-1.46409E-02 9.62119E+01-2.77029E+01
 -1      9739-3.28725E-02-6.23960E-04 2.67798E+02-2.39171E-04 5.28046E+00-3.91657E+01
 -1      9740-4.19301E-02-1.15864E-03 2.67832E+02-3.35872E-04 4.65692E+00-3.04622E+01
 -1      9741-5.33268E-02-4.19786E-04 3.74906E+02 1.50813E-04 2.79151E+00-3.91902E+01
 -1      9742-3.12782E-02 6.40967E-04 2.41049E+02-5.45044E-03 9.62106E+01-2.76474E+01
 -1      9743 1.67687E-03 1.75399E-05 5.36469E+01-1.09369E-04 5.28025E+00-3.91512E+01
 -1      9744 1.97922E-03-2.83861E-05 5.36506E+01-5.45119E-05 4.65672E+00-3.04497E+01
 -1      9745-1.45966E-02-1.06319E-04 1.60736E+02 1.14248E-05 2.79134E+00-3.91592E+01
 -1      9746 1.14271E-03 9.45854E-05 5.36498E+01-4.92190E-04 9.62101E+01-2.76313E+01
 -1      9747 3.57199E-02 8.37407E-04-1.60503E+02-2.81372E-06 5.28018E+00-3.91650E+01
 -1      9748 4.49808E-02 1.26845E-03-1.60530E+02 2.12400E-04 4.65661E+00-3.04613E+01
 -1      9749 1.78963E-02 1.96758E-04-5.34323E+01-2.03687E-04 2.79125E+00-3.91589E+01
 -1      9750 3.26463E-02-5.95771E-04-1.33749E+02 4.33932E-03 9.62102E+01-2.76466E+01
 -1      9751 8.04990E-02 2.42795E-03-3.74656E+02 3.26472E-04 5.28033E+00-3.92121E+01
 -1      9752 9.91751E-02 3.30097E-03-3.74724E+02 6.64885E-04 4.65670E+00-3.05010E+01
 -1      9753 5.53962E-02 8.23767E-04-2.67602E+02-3.86397E-04 2.79121E+00-3.91882E+01
 -1      9754 7.37039E-02-1.80700E-03-3.21151E+02 1.31696E-02 9.62117E+01-2.76990E+01
 -1      9755 1.46648E-01 5.66828E-03-5.88819E+02 1.28713E-03 5.28102E+00-3.93101E+01
 -1      9756 1.74262E-01 6.81631E-03-5.88958E+02 1.58071E-03 4.65741E+00-3.05829E+01
 -1      9757 1.08704E-01 2.25877E-03-4.81778E+02-3.60068E-04 2.79132E+00-3.92576E+01
 -1      9758 1.34320E-01-4.09317E-03-5.08564E+02 3.21460E-02 9.62167E+01-2.78097E+01
 -1      9759 2.41167E-01 1.17613E-02-8.03014E+02 3.66879E-03 5.28299E+00-3.94914E+01
 -1      9760 2.71598E-01 1.26178E-02-8.03281E+02 3.40029E-03 4.65970E+00-3.07327E+01
 -1      9761 1.87024E-01 5.26118E-03-6.95976E+02 2.84699E-04 2.79186E+00-3.93912E+01
 -1      9762 2.21830E-01-8.23573E-03-6.96003E+02 7.20479E-02 9.62294E+01-2.80183E+01
 -1      9763 3.57147E-01 2.25773E-02-1.01728E+03 8.97486E-03 5.28763E+00-3.98049E+01
 -1      9764 3.67690E-01 2.15477E-02-1.01779E+03 6.80910E-03 4.66553E+00-3.09877E+01
 -1      9765 2.92134E-01 1.10940E-02-9.10227E+02 2.46251E-03 2.79341E+00-3.96272E+01
 -1      9766 3.32558E-01-1.50429E-02-8.83502E+02 1.52089E-01 9.62570E+01-2.83881E+01
 -1      9767 4.46089E-01 3.81003E-02-1.23171E+03 1.99366E-02 5.29693E+00-4.03097E+01
 -1      9768 3.73833E-01 3.15138E-02-1.23265E+03 1.27658E-02 4.67815E+00-3.13901E+01
 -1      9769 4.01436E-01 2.09614E-02-1.12459E+03 8.06903E-03 2.79723E+00-4.00162E+01
 -1      9770 4.30113E-01-2.46055E-02-1.07112E+03 3.05375E-01 9.63109E+01-2.90062E+01
 -1      9771 3.61255E-01 6.20231E-02-1.44646E+03 4.10536E-02 5.31394E+00-4.10480E+01
 -1      9772 5.39107E-02 4.13341E-02-1.44814E+03 2.23270E-02 4.70272E+00-3.19609E+01
 -1      9773 4.28967E-01 3.74552E-02-1.33919E+03 2.07165E-02 2.80494E+00-4.06040E+01
 -1      9774 3.95675E-01-3.33906E-02-1.25898E+03 5.85895E-01 9.64034E+01-2.99678E+01
 -1      9775-2.79365E-01 6.42834E-02-1.66175E+03 7.95356E-02 5.33457E+00-4.19636E+01
 -1      9776-1.15952E+00 1.35454E-02-1.66470E+03 3.56646E-02 4.74039E+00-3.26243E+01
 -1      9777 1.38098E-01 5.37780E-02-1.55420E+03 4.69810E-02 2.81974E+00-4.13774E+01
 -1      9778-7.37166E-02-3.02542E-02-1.44724E+03 1.07533E+00 9.65392E+01-3.13142E+01
 -1      9779-2.26705E+00 1.15387E-01-1.87790E+03 1.42890E-01 5.35534E+00-4.26923E+01
 -1      9780-4.43051E+00-3.88789E-04-1.88282E+03 5.08423E-02 4.79179E+00-3.30234E+01
 -1      9781-1.01114E+00 9.02813E-02-1.76988E+03 9.69624E-02 2.83591E+00-4.21262E+01
 -1      9782-1.67724E+00 1.93966E-02-1.63617E+03 1.88374E+00 9.66776E+01-3.28594E+01
 -1      9783-7.46345E+00-2.02548E-01-2.09514E+03 2.46114E-01 5.26520E+00-4.20908E+01
 -1      9784-1.23562E+01-4.47164E-01-2.10295E+03 5.29044E-02 4.76657E+00-3.20870E+01
 -1      9785-4.22811E+00 2.12271E-02-1.98644E+03 1.88539E-01 2.85976E+00-4.20926E+01
 -1      9786-5.87351E+00 1.64424E-01-1.82596E+03 3.13327E+00 9.67145E+01-3.37845E+01
 -1      9787-1.86514E+01 7.44764E-01-2.31303E+03 3.61598E-01 5.06510E+00-3.71325E+01
 -1      9788-2.88911E+01 3.81063E-01-2.32395E+03 3.44753E-02 4.66105E+00-2.71691E+01
 -1      9789-1.17059E+01 3.62543E-01-2.20380E+03 3.30095E-01 2.73352E+00-3.92917E+01
 -1      9790-1.59449E+01 4.40024E-01-2.01752E+03 4.89415E+00 9.62373E+01-3.16554E+01
 -1      9791-4.46198E+01-3.63212E+00-2.52960E+03 6.16451E-01 3.66626E+00-2.09493E+01
 -1      9792-6.60659E+01-4.72228E+00-2.54378E+03-1.28768E-01 3.43990E+00-1.23109E+01
 -1      9793-2.87650E+01-1.01695E+00-2.42078E+03 5.86596E-01 2.69933E+00-2.87304E+01
 -1      9794-3.77111E+01 7.80549E-01-2.20922E+03 7.11676E+00 9.55321E+01-2.06894E+01
 -1      9795-9.18426E+01 1.81542E+01-2.73949E+03 5.87797E-01 2.35603E+00 2.27042E+01
 -1      9796-1.26395E+02 2.04521E+01-2.74524E+03-2.14084E-01 2.65179E+00 2.36230E+01
 -1      9797-6.23955E+01 6.81952E+00-2.63280E+03 8.39922E-01 1.80331E-01-1.72194E-01
 -1      9798-9.28202E+01-2.11217E+00-2.41543E+03 9.38314E+00 9.25574E+01 1.33515E+01
 -1      9799-2.14373E+02-4.28225E+01-2.87735E+03 1.41449E+00-2.38768E+01 1.10629E+02
 -1      9800-2.81702E+02-4.57977E+01-2.87717E+03-8.32399E-01-2.22054E+01 9.32244E+01
 -1      9801-1.48643E+02-1.99325E+01-2.83025E+03 9.73281E-01 3.25596E+00 6.58042E+01
 -1      9802-2.23762E+02-2.70001E+01-2.63869E+03 1.11747E+01 1.06676E+02 8.38942E+01
 -1      9803-5.06430E+02 1.67472E+02-3.20265E+03 4.09792E+00-9.86435E+01 2.65525E+02
 -1      9804-5.60071E+02 1.71877E+02-3.21175E+03-7.15648E-01-9.37146E+01 1.88306E+02
 -1      9805-2.58675E+02 1.77993E+02-2.90849E+03 1.72691E+00-5.39940E+01 1.88711E+02
 -1      9806-5.75282E+02-1.83128E+02-2.88214E+03 1.47975E+01 1.89308E+02 2.18811E+02
 -1      9807-2.20196E+03-2.20197E+03-4.80614E+03-3.63339E-04 1.25317E+03 3.24565E+02
 -1      9808-2.22446E+03-2.22445E+03-4.85535E+03 3.58813E-04 1.27728E+03 2.32017E+02
 -1      9809-1.12883E+03-5.17597E+02-3.81978E+03 4.20396E+00 4.92204E+02 3.06321E+02
 -1      9810-1.48265E+03-1.48264E+03-3.23622E+03 4.02033E-04 7.58396E+02 2.82097E+02
 -1      9811 2.12968E+03 2.12969E+03 4.64836E+03 4.65567E-04 1.18803E+03 5.79810E+02
 -1      9812 3.84954E+02-1.09034E+02 3.46184E+03 3.51472E+00-1.09253E+02 4.17596E+02
 -1      9813 2.18427E+03 2.18426E+03 4.76764E+03-4.13332E-04 1.25430E+03 4.42918E+02
 -1      9814 3.64143E+02-1.87064E+02 3.33685E+03-5.02285E+00-9.91283E+01 3.13630E+02
 -1      9815 1.46589E+03 1.46588E+03 3.19965E+03-4.90628E-04 7.09807E+02 5.04263E+02
 -1      9816 8.36130E+02 4.67437E+02 3.86575E+03-7.38277E+00 4.69248E+02 5.12189E+02
 -1      9817 4.66716E+02 2.30889E+02 3.14056E+03-1.52975E+01 1.43848E+02 3.34162E+02
 -1      9818 2.66985E+01 2.65489E+01 2.93796E+03 3.50331E+00-2.22596E+01 9.96609E+01
 -1      9819 1.53462E+02 4.76334E+01 2.98220E+03 3.16800E+00-2.26121E+01 1.18556E+02
 -1      9820 4.76477E+01-1.98889E+02 2.96134E+03 8.11439E+00-6.23079E+01 2.20758E+02
 -1      9821 5.05348E+01 1.06888E+01 2.67329E+03-4.77343E+00 8.78003E+01 6.57740E+01
 -1      9822 1.22583E+01-2.26297E+01 2.77232E+03 2.53382E+00 3.61592E+00-6.10957E+00
 -1      9823 5.11199E+01-2.04529E+01 2.81213E+03 1.48425E+00 2.65722E+00 1.20932E+01
 -1      9824 2.61473E+01 1.72272E+01 2.88629E+03 2.10011E+00 4.17128E+00 4.68537E+01
 -1      9825 2.19538E+01-5.20912E+00 2.43780E+03-5.62910E+00 8.51072E+01-1.25604E+01
 -1      9826 6.90820E+00 2.12127E+00 2.58217E+03 1.07043E+00 4.19302E+00-3.67280E+01
 -1      9827 2.80819E+01 4.99600E+00 2.61499E+03 7.17127E-01 3.28476E+00-2.74876E+01
 -1      9828 9.49322E+00-7.74002E+00 2.67988E+03 1.42709E+00 2.99798E-01-2.03341E+01
 -1      9829 6.43388E+00-2.46827E+00 2.25760E+03-4.35323E+00 9.39734E+01-3.18063E+01
 -1      9830 1.96825E+00-1.05008E+00 2.38309E+03 5.09659E-01 5.77026E+00-4.71014E+01
 -1      9831 1.04860E+01-7.85344E-02 2.40322E+03 2.67535E-01 4.47749E+00-4.16514E+01
 -1      9832 3.30974E+00 3.53226E-01 2.48300E+03 6.07833E-01 3.23278E+00-4.03735E+01
 -1      9833 2.75330E+00-1.17899E+00 2.08543E+03-3.12378E+00 9.89654E+01-3.62164E+01
 -1      9834 4.76619E-01 2.93021E-01 2.17973E+03 2.79302E-01 6.00223E+00-4.91257E+01
 -1      9835 3.89330E+00 6.30060E-01 2.19168E+03 9.77877E-02 4.66777E+00-4.52703E+01
 -1      9836 6.79387E-01-4.81009E-01 2.28161E+03 3.24803E-01 3.36259E+00-4.72774E+01
 -1      9837 7.79603E-01-3.25627E-01 1.90931E+03-1.96411E+00 1.02146E+02-3.52672E+01
 -1      9838-2.44551E-01 8.26254E-02 1.97203E+03 1.47882E-01 6.11947E+00-4.84520E+01
 -1      9839 8.15380E-01 1.49673E-01 1.97878E+03 3.06852E-02 4.73410E+00-4.51705E+01
 -1      9840-3.15357E-01-5.66942E-02 2.07583E+03 1.92201E-01 3.56272E+00-4.82330E+01
 -1      9841 8.20104E-02-2.47411E-02 1.72956E+03-1.16387E+00 1.03786E+02-3.30695E+01
 -1      9842-3.69554E-01 1.10431E-01 1.76184E+03 8.38644E-02 6.11039E+00-4.71735E+01
 -1      9843-2.17585E-01 8.48087E-02 1.76549E+03 7.65774E-03 4.71897E+00-4.40528E+01
 -1      9844-5.40542E-01-6.27698E-02 1.86695E+03 1.12744E-01 3.57867E+00-4.74953E+01
 -1      9845-1.51884E-01 7.30179E-02 1.54687E+03-6.48942E-01 1.04631E+02-3.10326E+01
 -1      9846-3.21712E-01 6.64040E-02 1.54999E+03 4.59754E-02 6.09315E+00-4.60471E+01
 -1      9847-4.64937E-01 2.19303E-02 1.55190E+03 7.72620E-04 4.70239E+00-4.29326E+01
 -1      9848-4.79892E-01-2.29658E-02 1.65595E+03 6.77316E-02 3.58094E+00-4.64311E+01
 -1      9849-1.78867E-01 7.78545E-02 1.36224E+03-3.45466E-01 1.05048E+02-2.95322E+01
 -1      9850-2.24810E-01 4.50010E-02 1.33715E+03 2.51390E-02 6.07611E+00-4.52454E+01
 -1      9851-4.13034E-01 6.34720E-03 1.33812E+03-6.70881E-04 4.68966E+00-4.20907E+01
 -1      9852-3.43622E-01-1.16615E-02 1.44363E+03 3.92468E-02 3.57476E+00-4.55516E+01
 -1      9853-1.42128E-01 5.84915E-02 1.17640E+03-1.75473E-01 1.05252E+02-2.85491E+01
 -1      9854-1.40583E-01 2.73066E-02 1.12372E+03 1.32929E-02 6.06541E+00-4.47365E+01
 -1      9855-2.93325E-01 5.43216E-05 1.12419E+03-6.05951E-04 4.68279E+00-4.15377E+01
 -1      9856-2.19263E-01-3.76043E-03 1.23050E+03 2.22318E-02 3.57032E+00-4.49435E+01
 -1      9857-9.57094E-02 3.75581E-02 9.89843E+02-8.49914E-02 1.05351E+02-2.79535E+01
 -1      9858-8.09092E-02 1.62008E-02 9.09939E+02 6.83416E-03 6.05924E+00-4.44382E+01
 -1      9859-1.84396E-01-9.67424E-04 9.10171E+02-3.08802E-04 4.67941E+00-4.12045E+01
 -1      9860-1.28969E-01-6.87728E-04 1.01689E+03 1.21343E-02 3.56756E+00-4.45655E+01
 -1      9861-5.83112E-02 2.19959E-02 8.02879E+02-3.89806E-02 1.05399E+02-2.76142E+01
 -1      9862-4.34131E-02 9.01576E-03 6.95971E+02 3.36908E-03 6.05599E+00-4.42745E+01
 -1      9863-1.06075E-01-9.30802E-04 6.96083E+02-1.02047E-04 4.67793E+00-4.10172E+01
 -1      9864-7.09642E-02 4.44753E-04 8.03009E+02 6.39065E-03 3.56613E+00-4.43476E+01
 -1      9865-3.27492E-02 1.20037E-02 6.15693E+02-1.67482E-02 1.05420E+02-2.74314E+01
 -1      9866-2.13418E-02 4.61075E-03 4.81903E+02 1.55258E-03 6.05436E+00-4.41907E+01
 -1      9867-5.51869E-02-6.30237E-04 4.81957E+02-1.78642E-05 4.67731E+00-4.09191E+01
 -1      9868-3.64119E-02 5.71085E-04 5.88979E+02 3.20051E-03 3.56542E+00-4.42303E+01
 -1      9869-1.66764E-02 6.07189E-03 4.28391E+02-6.63796E-03 1.05430E+02-2.73389E+01
 -1      9870-8.39872E-03 1.85840E-03 2.67786E+02 5.67351E-04 6.05359E+00-4.41526E+01
 -1      9871-2.26418E-02-3.58031E-04 2.67809E+02-2.16821E-05 4.67705E+00-4.08735E+01
 -1      9872-1.65452E-02 3.50638E-04 3.74872E+02 1.43688E-03 3.56509E+00-4.41722E+01
 -1      9873-6.65346E-03 2.57623E-03 2.41033E+02-2.34147E-03 1.05434E+02-2.72971E+01
 -1      9874 4.57552E-04-4.47803E-05 5.36499E+01-8.98473E-05 6.05328E+00-4.41420E+01
 -1      9875 1.01040E-03-6.47990E-05 5.36530E+01-7.92738E-05 4.67689E+00-4.08605E+01
 -1      9876-4.41899E-03 5.73032E-05 1.60730E+02 3.65342E-04 3.56493E+00-4.41489E+01
 -1      9877 4.86199E-04 1.75973E-04 5.36528E+01-4.12510E-04 1.05434E+02-2.72854E+01
 -1      9878 9.40847E-03-1.73188E-03-1.60486E+02-7.91410E-04 6.05334E+00-4.41528E+01
 -1      9879 2.44362E-02 3.97047E-04-1.60503E+02-1.65849E-04 4.67678E+00-4.08732E+01
 -1      9880 5.33645E-03-1.61496E-04-5.34211E+01-5.26585E-04 3.56485E+00-4.41490E+01
 -1      9881 7.50776E-03-2.27949E-03-1.33728E+02 1.35835E-03 1.05433E+02-2.72971E+01
 -1      9882 2.26063E-02-3.72310E-03-3.74603E+02-1.91649E-03 6.05387E+00-4.41895E+01
 -1      9883 5.60251E-02 1.26819E-03-3.74650E+02-2.57599E-04 4.67676E+00-4.09164E+01
 -1      9884 1.74762E-02-1.53184E-04-2.67563E+02-1.68912E-03 3.56485E+00-4.41717E+01
 -1      9885 1.70386E-02-5.99684E-03-3.21088E+02 5.17197E-03 1.05430E+02-2.73374E+01
 -1      9886 4.49746E-02-6.46507E-03-5.88675E+02-3.98468E-03 6.05531E+00-4.42679E+01
 -1      9887 1.04298E-01 2.89387E-03-5.88779E+02-3.18884E-04 4.67710E+00-4.10072E+01
 -1      9888 3.72258E-02 3.93858E-04-4.81672E+02-3.65251E-03 3.56500E+00-4.42265E+01
 -1      9889 3.17836E-02-1.25031E-02-5.08398E+02 1.44710E-02 1.05423E+02-2.74246E+01
 -1      9890 8.25047E-02-1.04321E-02-8.02661E+02-7.82359E-03 6.05856E+00-4.44180E+01
 -1      9891 1.76468E-01 5.52948E-03-8.02879E+02-2.95956E-04 4.67844E+00-4.11771E+01
 -1      9892 7.11685E-02 2.11292E-03-6.95713E+02-7.18009E-03 3.56552E+00-4.43347E+01
 -1      9893 5.42529E-02-2.37936E-02-6.95608E+02 3.56441E-02 1.05408E+02-2.75943E+01
 -1      9894 1.41252E-01-1.57858E-02-1.01649E+03-1.47470E-02 6.06531E+00-4.46875E+01
 -1      9895 2.72394E-01 9.21419E-03-1.01694E+03-1.50310E-04 4.68215E+00-4.14745E+01
 -1      9896 1.27334E-01 6.26354E-03-9.09630E+02-1.34203E-02 3.56689E+00-4.45322E+01
 -1      9897 8.51609E-02-4.20204E-02-8.82628E+02 8.06857E-02 1.05374E+02-2.79063E+01
 -1      9898 2.22171E-01-2.38736E-02-1.23004E+03-2.69924E-02 6.07789E+00-4.51412E+01
 -1      9899 3.66897E-01 1.08980E-02-1.23096E+03-1.70187E-05 4.69053E+00-4.19610E+01
 -1      9900 2.13183E-01 1.46655E-02-1.12332E+03-2.41388E-02 3.56993E+00-4.48699E+01
 -1      9901 1.19058E-01-6.79977E-02-1.06930E+03 1.71227E-01 1.05302E+02-2.84501E+01
 -1      9902 3.10571E-01-3.07261E-02-1.44312E+03-4.77434E-02 6.09950E+00-4.58457E+01
 -1      9903 3.73373E-01 7.58604E-03-1.44493E+03-7.49559E-04 4.70734E+00-4.26882E+01
 -1      9904 3.28091E-01 3.12546E-02-1.33663E+03-4.17141E-02 3.57554E+00-4.54047E+01
 -1      9905 1.33385E-01-9.62424E-02-1.25537E+03 3.44456E-01 1.05144E+02-2.93424E+01
 -1      9906 3.39973E-01-5.42043E-02-1.65542E+03-8.40319E-02 6.12655E+00-4.68133E+01
 -1      9907 5.02344E-02-3.74835E-02-1.65888E+03-5.42810E-03 4.73315E+00-4.36264E+01
 -1      9908 4.45939E-01 5.57328E-02-1.54930E+03-7.01343E-02 3.58479E+00-4.61611E+01
 -1      9909 6.89857E-02-1.05883E-01-1.44041E+03 6.58761E-01 1.04806E+02-3.06959E+01
 -1      9910 1.76958E-01-5.87315E-03-1.86640E+03-1.42972E-01 6.15415E+00-4.78547E+01
 -1      9911-1.10127E+00-8.38469E-02-1.87279E+03-2.31492E-02 4.76683E+00-4.44825E+01
 -1      9912 4.73135E-01 1.12331E-01-1.76092E+03-1.13192E-01 3.58950E+00-4.70349E+01
 -1      9913-2.22282E-01-3.00280E-02-1.62378E+03 1.20026E+00 1.04081E+02-3.25155E+01
 -1      9914-6.12271E-01-1.92449E-01-2.07537E+03-2.61467E-01 6.07234E+00-4.82157E+01
 -1      9915-4.34085E+00-5.39535E-01-2.08672E+03-7.91097E-02 4.73655E+00-4.42594E+01
 -1      9916 1.90240E-01 1.26805E-01-1.97084E+03-1.85919E-01 3.58686E+00-4.75087E+01
 -1      9917-1.00163E+00 2.42144E-01-1.80457E+03 2.05730E+00 1.02604E+02-3.44304E+01
 -1      9918-2.24341E+00 1.08946E+00-2.28065E+03-4.63802E-01 5.89345E+00-4.58601E+01
 -1      9919-1.11509E+01 1.18427E-01-2.29981E+03-2.27346E-01 4.60748E+00-4.03545E+01
 -1      9920-8.99051E-01 5.48315E-01-2.17818E+03-3.01385E-01 3.41544E+00-4.62421E+01
 -1      9921-3.06512E+00 1.06204E+00-1.98208E+03 3.32550E+00 9.96122E+01-3.50900E+01
 -1      9922-7.36927E+00-2.03573E+00-2.48217E+03-9.69075E-01 4.43245E+00-3.53431E+01
 -1      9923-2.88367E+01-4.86926E+00-2.51357E+03-6.39045E-01 3.53599E+00-2.62317E+01
 -1      9924-3.67825E+00-2.66778E-01-2.38170E+03-5.47303E-01 3.32044E+00-3.91211E+01
 -1      9925-6.84678E+00 2.34406E+00-2.15582E+03 4.75120E+00 9.47395E+01-3.05735E+01
 -1      9926-1.32025E+01 2.15675E+01-2.67500E+03-2.29973E+00 3.91151E+00-5.23426E+00
 -1      9927-5.21309E+01 1.93882E+01-2.71332E+03-1.34972E+00 3.03112E+00 1.23230E+01
 -1      9928-1.00813E+01 7.43801E+00-2.58101E+03-1.27304E+00 5.38476E-01-1.92309E+01
 -1      9929-2.20458E+01 5.15946E+00-2.33669E+03 6.33050E+00 8.57674E+01-1.18547E+01
 -1      9930-2.83316E+01-2.62085E+01-2.84308E+03-3.21646E+00-2.09536E+01 9.72525E+01
 -1      9931-1.52337E+02-4.67940E+01-2.88628E+03-3.00677E+00-2.12295E+01 1.15073E+02
 -1      9932-2.68934E+01-1.67659E+01-2.78868E+03-1.85127E+00 4.27602E+00 4.61470E+01
 -1      9933-4.98651E+01-9.68421E+00-2.56881E+03 5.84078E+00 8.72039E+01 6.34309E+01
 -1      9934-3.74104E+02 1.04282E+02-3.34969E+03-2.88170E+00-1.05528E+02 4.03806E+02
 -1      9935-3.55853E+02 1.79306E+02-3.23156E+03 4.86481E+00-9.54535E+01 3.02689E+02
 -1      9936-4.89583E+01 1.90453E+02-2.86737E+03-7.48023E+00-5.96158E+01 2.14347E+02
 -1      9937-4.49271E+02-2.19934E+02-3.02060E+03 1.62301E+01 1.37580E+02 3.20649E+02
 -1      9938-2.05169E+03-2.05169E+03-4.47812E+03-4.71914E-04 1.13762E+03 5.60163E+02
 -1      9939-2.10695E+03-2.10694E+03-4.59887E+03 4.26310E-04 1.20315E+03 4.27780E+02
 -1      9940-8.06873E+02-4.49645E+02-3.73078E+03 7.33359E+00 4.49378E+02 4.95024E+02
 -1      9941-1.40865E+03-1.40865E+03-3.07472E+03 4.95985E-04 6.75801E+02 4.84771E+02
 -1      9942 2.84736E+03 2.84736E+03 6.21481E+03 2.43851E-04 1.05154E+03 1.47471E+03
 -1      9943-2.09488E+02-2.07161E+02 3.11813E+03 3.33427E+01-1.75032E+02-9.07706E+01
 -1      9944 2.38400E+03 2.38400E+03 5.20362E+03-6.73328E-04 1.13050E+03 1.00012E+03
 -1      9945 1.67304E+02-1.15498E+02 3.31633E+03 3.05301E+01-1.19807E+02 2.01025E+02
 -1      9946 2.21521E+03 2.21521E+03 4.83519E+03-7.53854E-04 5.47343E+02 1.27355E+03
 -1      9947 5.63778E+02 5.29369E+02 4.25842E+03-4.91243E+01 3.27911E+02 5.73924E+02
 -1      9948-1.16637E+02 5.93309E+01 2.78351E+03 2.33816E+01 1.91102E+01-1.11355E+02
 -1      9949 2.53538E+01 3.82725E+01 2.66175E+03 1.59314E+01-3.03612E+01-2.12006E+01
 -1      9950 4.05225E+01 6.09494E+01 2.89817E+03 8.18568E+00-1.90400E+01 4.58233E+01
 -1      9951-2.47802E+02-2.23574E+02 2.68540E+03 2.40146E+01-6.17194E+01-2.25024E+01
 -1      9952 2.37273E+01-1.93260E+01 2.34806E+03 4.17591E+00 4.83017E+01-2.81123E+01
 -1      9953-3.63427E+01-2.86344E+01 2.61665E+03 1.35243E+00 4.08230E+00-7.71759E+00
 -1      9954 4.01295E+00-9.33270E+00 2.72502E+03 3.18892E+00 3.04314E+00-1.02719E+01
 -1      9955 6.86572E+00 1.74999E+01 2.67508E+03 5.15722E+00-2.74408E+00 1.27491E+00
 -1      9956-2.62957E+01-2.58480E+01 2.27427E+03 8.13306E-01 7.61263E+01-7.62466E+00
 -1      9957 6.70874E-01 4.67506E+00 2.49922E+03 1.37924E+00 9.35663E+00-1.10556E+01
 -1      9958 6.03029E+00 7.15000E+00 2.54950E+03 1.29464E+00 4.76961E+00-2.49713E+01
 -1      9959-1.18478E+01-5.92201E+00 2.56903E+03 1.17142E+00 4.35998E+00-7.04895E+00
 -1      9960-1.33251E+00-7.92921E+00 2.16825E+03 1.47244E-01 1.01475E+02-6.20055E+00
 -1      9961-2.26323E+00-3.36640E-01 2.33678E+03 5.76444E-01 1.31426E+01-1.09661E+01
 -1      9962 1.84225E+00 1.94005E+00 2.36425E+03 7.59311E-01 6.04518E+00-3.06329E+01
 -1      9963-2.18856E+00 7.03758E-01 2.41716E+03 7.36453E-01 9.31054E+00-8.98566E+00
 -1      9964-2.06279E+00-4.73770E+00 2.03622E+03 1.01125E-01 1.15180E+02-4.22535E+00
 -1      9965 6.78181E-02 8.81384E-01 2.15552E+03 2.92303E-01 1.44127E+01-1.10183E+01
 -1      9966 7.67999E-01 1.57850E+00 2.16885E+03 3.83686E-01 6.35988E+00-3.14498E+01
 -1      9967-1.42774E+00-1.50411E-01 2.24649E+03 3.78499E-01 1.13240E+01-9.91338E+00
 -1      9968-1.07561E-01-1.98138E+00 1.88344E+03 3.38929E-02 1.22914E+02-3.28211E+00
 -1      9969 9.21029E-02 3.94762E-01 1.95979E+03 1.49801E-01 1.49905E+01-1.08381E+01
 -1      9970 1.16458E-01 7.11621E-01 1.96623E+03 2.15744E-01 6.48914E+00-3.09831E+01
 -1      9971-4.34285E-01 4.95490E-02 2.05739E+03 1.97886E-01 1.21902E+01-1.03082E+01
 -1      9972 8.56981E-02-9.11452E-01 1.71643E+03 2.65796E-02 1.26859E+02-2.63963E+00
 -1      9973 2.06971E-01 2.87418E-01 1.75599E+03 6.87295E-02 1.51859E+01-1.07005E+01
 -1      9974-6.70925E-02 3.79570E-01 1.75888E+03 1.13900E-01 6.50145E+00-3.02178E+01
 -1      9975-1.42571E-01-4.67672E-03 1.85780E+03 1.05260E-01 1.25529E+01-1.04386E+01
 -1      9976 2.05914E-01-3.66723E-01 1.54054E+03 1.50950E-02 1.28836E+02-2.28694E+00
 -1      9977 1.62039E-01 1.62632E-01 1.54737E+03 3.12276E-02 1.52532E+01-1.05996E+01
 -1      9978-1.05824E-01 1.78932E-01 1.54860E+03 6.02563E-02 6.49476E+00-2.95737E+01
 -1      9979-5.41905E-03 9.93170E-04 1.65163E+03 5.08238E-02 1.26951E+01-1.04792E+01
 -1      9980 1.69583E-01-1.40419E-01 1.35937E+03 9.47889E-03 1.29791E+02-2.08707E+00
 -1      9981 1.16890E-01 9.59789E-02 1.33609E+03 1.21976E-02 1.52707E+01-1.05399E+01
 -1      9982-8.63953E-02 8.60828E-02 1.33656E+03 3.05848E-02 6.48377E+00-2.91236E+01
 -1      9983 3.07936E-02 5.53066E-04 1.44174E+03 2.37520E-02 1.27502E+01-1.04864E+01
 -1      9984 1.21667E-01-4.56736E-02 1.17521E+03 5.22560E-03 1.30242E+02-1.98269E+00
 -1      9985 7.43508E-02 5.35125E-02 1.12335E+03 4.04997E-03 1.52735E+01-1.05075E+01
 -1      9986-5.82103E-02 3.95461E-02 1.12351E+03 1.50964E-02 6.47595E+00-2.88426E+01
 -1      9987 3.42424E-02 2.36043E-03 1.22975E+03 9.92553E-03 1.27704E+01-1.04858E+01
 -1      9988 7.67327E-02-1.07581E-02 9.89411E+02 2.76628E-03 1.30449E+02-1.93017E+00
 -1      9989 4.43193E-02 2.91369E-02 9.09858E+02 7.19688E-04 1.52724E+01-1.04917E+01
 -1      9990-3.49243E-02 1.77910E-02 9.09903E+02 7.14179E-03 6.47106E+00-2.86801E+01
 -1      9991 2.63358E-02 2.65328E-03 1.01665E+03 3.67864E-03 1.27776E+01-1.04843E+01
 -1      9992 4.50653E-02 5.13431E-04 8.02765E+02 1.34447E-03 1.30541E+02-1.90545E+00
 -1      9993 2.46089E-02 1.50960E-02 6.95987E+02-3.21754E-04 1.52709E+01-1.04849E+01
 -1      9994-1.92624E-02 7.60351E-03 6.95996E+02 3.23086E-03 6.46833E+00-2.85922E+01
 -1      9995 1.73619E-02 2.26652E-03 8.02967E+02 1.03299E-03 1.27801E+01-1.04835E+01
 -1      9996 2.46615E-02 2.88594E-03 6.15693E+02 6.11093E-04 1.30580E+02-1.89460E+00
 -1      9997 1.24994E-02 7.24006E-03 4.81937E+02-4.53889E-04 1.52699E+01-1.04823E+01
 -1      9998-9.67365E-03 3.01288E-03 4.81939E+02 1.37005E-03 6.46687E+00-2.85479E+01
 -1      9999 1.01627E-02 1.53356E-03 5.88999E+02 1.08096E-04 1.27809E+01-1.04834E+01
 -1     10000 1.23981E-02 2.42821E-03 4.28418E+02 2.55170E-04 1.30596E+02-1.89030E+00
 -1     10001 5.02641E-03 2.74110E-03 2.67809E+02-2.50469E-04 1.52693E+01-1.04816E+01
 -1     10002-3.90727E-03 9.65758E-04 2.67811E+02 4.92225E-04 6.46616E+00-2.85280E+01
 -1     10003 5.04820E-03 7.70557E-04 3.74899E+02-8.92512E-05 1.27811E+01-1.04836E+01
 -1     10004 5.02583E-03 1.29025E-03 2.41054E+02 9.07465E-05 1.30601E+02-1.88884E+00
 -1     10005-2.15598E-04-2.15598E-04 5.36536E+01 4.26518E-05 1.52691E+01-1.04815E+01
 -1     10006 9.76655E-05-4.74027E-05 5.36566E+01-5.80701E-06 6.46589E+00-2.85226E+01
 -1     10007 1.35625E-03 8.06693E-05 1.60743E+02-8.01692E-06 1.27812E+01-1.04838E+01
 -1     10008-4.74023E-05 9.76658E-05 5.36566E+01-5.80708E-06 1.30602E+02-1.88857E+00
 -1     10009-5.24050E-03-2.95519E-03-1.60501E+02 3.14187E-04 1.52691E+01-1.04818E+01
 -1     10010 4.14887E-03-9.22514E-04-1.60498E+02-5.30951E-04 6.46597E+00-2.85283E+01
 -1     10011-1.78308E-03-5.07495E-04-5.34262E+01 1.30489E-04 1.27811E+01-1.04838E+01
 -1     10012-4.98259E-03-1.04865E-03-1.33740E+02-1.29473E-04 1.30601E+02-1.88902E+00
 -1     10013-1.19206E-02-6.66134E-03-3.74626E+02 4.35175E-04 1.52694E+01-1.04828E+01
 -1     10014 1.00606E-02-2.48032E-03-3.74625E+02-1.50241E-03 6.46651E+00-2.85475E+01
 -1     10015-5.21149E-03-9.33853E-04-2.67580E+02 1.61675E-04 1.27809E+01-1.04838E+01
 -1     10016-1.18656E-02-2.04125E-03-3.21104E+02-3.87528E-04 1.30596E+02-1.89066E+00
 -1     10017-2.22050E-02-1.26921E-02-5.88677E+02 1.01967E-04 1.52703E+01-1.04855E+01
 -1     10018 1.99089E-02-5.99185E-03-5.88687E+02-3.56167E-03 6.46784E+00-2.85892E+01
 -1     10019-9.59996E-03-9.70776E-04-4.81681E+02-1.80478E-04 1.27805E+01-1.04838E+01
 -1     10020-2.30499E-02-2.23951E-03-5.08384E+02-9.41901E-04 1.30583E+02-1.89508E+00
 -1     10021-3.81905E-02-2.30082E-02-8.02565E+02-1.37286E-03 1.52718E+01-1.04922E+01
 -1     10022 3.59520E-02-1.40701E-02-8.02614E+02-7.84367E-03 6.47065E+00-2.86702E+01
 -1     10023-1.51584E-02-6.29985E-05-6.95659E+02-1.44832E-03 1.27795E+01-1.04841E+01
 -1     10024-4.13444E-02 5.14250E-04-6.95477E+02-2.04635E-03 1.30551E+02-1.90586E+00
 -1     10025-6.12115E-02-4.03732E-02-1.01612E+03-5.55747E-03 1.52737E+01-1.05073E+01
 -1     10026 5.96982E-02-3.20183E-02-1.01628E+03-1.64383E-02 6.47610E+00-2.88177E+01
 -1     10027-2.07726E-02 2.90992E-03-9.09380E+02-4.82250E-03 1.27771E+01-1.04848E+01
 -1     10028-6.92049E-02 1.22460E-02-8.82183E+02-4.10816E-03 1.30474E+02-1.93001E+00
 -1     10029-9.14192E-02-7.05082E-02-1.22899E+03-1.52784E-02 1.52731E+01-1.05375E+01
 -1     10030 8.82609E-02-7.21230E-02-1.22947E+03-3.29502E-02 6.48561E+00-2.90696E+01
 -1     10031-2.23126E-02 9.56931E-03-1.12259E+03-1.24951E-02 1.27703E+01-1.04859E+01
 -1     10032-1.07707E-01 4.75391E-02-1.06812E+03-7.59102E-03 1.30296E+02-1.98086E+00
 -1     10033-1.16657E-01-1.17250E-01-1.44058E+03-3.69712E-02 1.52605E+01-1.05923E+01
 -1     10034 1.07467E-01-1.55111E-01-1.44180E+03-6.40935E-02 6.50048E+00-2.94675E+01
 -1     10035-7.67764E-03 2.25629E-02-1.33480E+03-2.88968E-02 1.27514E+01-1.04852E+01
 -1     10036-1.45763E-01 1.42062E-01-1.25257E+03-1.33161E-02 1.29897E+02-2.08135E+00
 -1     10037-1.31207E-01-2.11654E-01-1.64980E+03-7.87333E-02 1.52036E+01-1.06828E+01
 -1     10038 6.70397E-02-3.41450E-01-1.65263E+03-1.19593E-01 6.51526E+00-3.00252E+01
 -1     10039 4.69049E-02 4.04927E-02-1.54515E+03-6.03281E-02 1.26997E+01-1.04746E+01
 -1     10040-1.67794E-01 3.66670E-01-1.43429E+03-2.07883E-02 1.29029E+02-2.27313E+00
 -1     10041 2.05105E-02-2.82149E-01-1.85467E+03-1.65736E-01 1.50274E+01-1.08011E+01
 -1     10042-1.22965E-01-6.58723E-01-1.86093E+03-2.22949E-01 6.51794E+00-3.06585E+01
 -1     10043 2.11086E-01 7.31922E-02-1.75215E+03-1.21461E-01 1.25647E+01-1.04268E+01
 -1     10044-3.28010E-02 9.04946E-01-1.61113E+03-3.37847E-02 1.27184E+02-2.61083E+00
 -1     10045 9.70655E-02-7.16501E-01-2.05220E+03-3.15535E-01 1.44851E+01-1.09459E+01
 -1     10046-7.86029E-01-1.50516E+00-2.06510E+03-3.90764E-01 6.41646E+00-3.09462E+01
 -1     10047 5.40639E-01 5.68042E-02-1.95318E+03-2.23528E-01 1.22162E+01-1.02821E+01
 -1     10048 1.80894E-01 1.96335E+00-1.77969E+03-4.09718E-02 1.23418E+02-3.22554E+00
 -1     10049 2.39168E+00 4.65090E-01-2.23628E+03-6.06787E-01 1.32680E+01-1.08407E+01
 -1     10050-1.90770E+00-1.90725E+00-2.26280E+03-7.58440E-01 6.14414E+00-2.99221E+01
 -1     10051 1.56384E+00 2.86507E-01-2.14453E+03-4.15224E-01 1.13755E+01-9.86188E+00
 -1     10052 2.09559E+00 4.67224E+00-1.93478E+03-1.00253E-01 1.15891E+02-4.12639E+00
 -1     10053-3.89429E-01-4.39361E+00-2.40254E+03-1.39147E+00 9.59244E+00-1.08198E+01
 -1     10054-6.10917E+00-7.03754E+00-2.45110E+03-1.27167E+00 4.95149E+00-2.41400E+01
 -1     10055 2.37934E+00-5.12974E-01-2.31853E+03-7.77140E-01 9.40705E+00-8.88915E+00
 -1     10056 1.44497E+00 7.85033E+00-2.06985E+03-1.24276E-01 1.02307E+02-6.01867E+00
 -1     10057 3.50901E+01 2.73818E+01-2.52521E+03-1.39690E+00 4.37848E+00-7.42140E+00
 -1     10058-4.58265E+00 8.48335E+00-2.62986E+03-3.09317E+00 3.30271E+00-9.54790E+00
 -1     10059 1.17366E+01 5.81083E+00-2.47436E+03-1.21642E+00 4.54773E+00-6.86120E+00
 -1     10060 2.54463E+01 2.52783E+01-2.17911E+03-7.17557E-01 7.68503E+01-7.36509E+00
 -1     10061-2.43782E+01-3.72969E+01-2.57645E+03-1.52832E+01-2.91524E+01-1.99918E+01
 -1     10062-4.03772E+01-5.95398E+01-2.80497E+03-7.80366E+00-1.79378E+01 4.50233E+01
 -1     10063-6.21198E+00-1.68462E+01-2.58496E+03-4.99227E+00-2.56829E+00 1.45071E+00
 -1     10064-2.23177E+01 1.94713E+01-2.25486E+03-3.79389E+00 4.75017E+01-2.70102E+01
 -1     10065 2.01035E+02 1.98708E+02-3.01443E+03-3.22864E+01-1.70028E+02-8.57663E+01
 -1     10066-1.62964E+02 1.10264E+02-3.20736E+03-2.94121E+01-1.15195E+02 1.95449E+02
 -1     10067 2.37990E+02 2.13762E+02-2.59985E+03-2.30379E+01-5.98931E+01-2.06761E+01
 -1     10068 1.11403E+02-5.49908E+01-2.67455E+03-2.22636E+01 1.35333E+01-1.06744E+02
 -1     10069-2.73676E+03-2.73676E+03-5.97341E+03-2.49790E-04 9.98451E+02 1.42162E+03
 -1     10070-2.29312E+03-2.29311E+03-5.00524E+03 6.69201E-04 1.07897E+03 9.64713E+02
 -1     10071-5.41018E+02-5.06609E+02-4.10021E+03 4.76135E+01 3.08714E+02 5.54727E+02
 -1     10072-2.12432E+03-2.12432E+03-4.63681E+03 7.49727E-04 5.11939E+02 1.22202E+03
 -3
    1PSTEP                         3           1           1          
  100CL  101 1.000000000       10017                     0    1           1
 -4  ERROR       1    1
 -5  STR(%)      1    1    0    0
 -1        56 9.77592E+00
 -1        57 9.77592E+00
 -1        58 9.77592E+00
 -1        59 9.77592E+00
 -1        60 9.77592E+00
 -1        61 9.77592E+00
 -1        62 9.77592E+00
 -1        63 9.77592E+00
 -1        64 9.77592E+00
 -1        65 9.77592E+00
 -1        66 9.77592E+00
 -1        67 9.77592E+00
 -1        68 9.77592E+00
 -1        69 9.77592E+00
 -1        70 9.77592E+00
 -1        71 9.77592E+00
 -1        72 9.77592E+00
 -1        73 9.77592E+00
 -1        74 9.77592E+00
 -1        75 9.77592E+00
 -1        76 5.45433E+00
 -1        77 3.66415E+00
 -1        78 5.45433E+00
 -1        79 3.66415E+00
 -1        80 7.61513E+00
 -1        81 4.55924E+00
 -1        82 6.72004E+00
 -1        83 5.45433E+00
 -1        84 3.66415E+00
 -1        85 7.61513E+00
 -1        86 4.55924E+00
 -1        87 6.72004E+00
 -1        88 4.01594E+00
 -1        89 2.15012E+00
 -1        90 4.01594E+00
 -1        91 2.15012E+00
 -1        92 4.73514E+00
 -1        93 3.08303E+00
 -1        94 2.90713E+00
 -1        95 4.01594E+00
 -1        96 2.15012E+00
 -1        97 4.73514E+00
 -1        98 3.08303E+00
 -1        99 2.90713E+00
 -1       100 2.97324E+00
 -1       101 1.76521E+00
 -1       102 2.97324E+00
 -1       103 1.76521E+00
 -1       104 3.49459E+00
 -1       105 2.36922E+00
 -1       106 1.95767E+00
 -1       107 2.97324E+00
 -1       108 1.76521E+00
 -1       109 3.49459E+00
 -1       110 2.36922E+00
 -1       111 1.95767E+00
 -1       112 2.46103E+00
 -1       113 1.48636E+00
 -1       114 2.62221E+00
 -1       115 1.48636E+00
 -1       116 2.71713E+00
 -1       117 1.97370E+00
 -1       118 1.62578E+00
 -1       119 2.54162E+00
 -1       120 1.48636E+00
 -1       121 2.79772E+00
 -1       122 2.05429E+00
 -1       123 1.62578E+00
 -1       124 2.10961E+00
 -1       125 1.37170E+00
 -1       126 2.41206E+00
 -1       127 1.46003E+00
 -1       128 2.28532E+00
 -1       129 1.74065E+00
 -1       130 1.42903E+00
 -1       131 2.26084E+00
 -1       132 1.41587E+00
 -1       133 2.51714E+00
 -1       134 1.93605E+00
 -1       135 1.47320E+00
 -1       136 1.99182E+00
 -1       137 1.43136E+00
 -1       138 2.22964E+00
 -1       139 1.54888E+00
 -1       140 2.05072E+00
 -1       141 1.71159E+00
 -1       142 1.40153E+00
 -1       143 2.11073E+00
 -1       144 1.49012E+00
 -1       145 2.32085E+00
 -1       146 1.88926E+00
 -1       147 1.50446E+00
 -1       148 1.87636E+00
 -1       149 1.59833E+00
 -1       150 2.14089E+00
 -1       151 1.68914E+00
 -1       152 1.93409E+00
 -1       153 1.73734E+00
 -1       154 1.51484E+00
 -1       155 2.00863E+00
 -1       156 1.64373E+00
 -1       157 2.18527E+00
 -1       158 1.91502E+00
 -1       159 1.61901E+00
 -1       160 1.79789E+00
 -1       161 1.79789E+00
 -1       162 2.00554E+00
 -1       163 1.91392E+00
 -1       164 1.83712E+00
 -1       165 1.79789E+00
 -1       166 1.69811E+00
 -1       167 1.90172E+00
 -1       168 1.85590E+00
 -1       169 2.07322E+00
 -1       170 1.95973E+00
 -1       171 1.80153E+00
 -1       172 2.03079E+00
 -1       173 2.03079E+00
 -1       174 2.18786E+00
 -1       175 2.18786E+00
 -1       176 1.91434E+00
 -1       177 2.03079E+00
 -1       178 1.91434E+00
 -1       179 2.10933E+00
 -1       180 2.10933E+00
 -1       181 2.09670E+00
 -1       182 2.18786E+00
 -1       183 2.05089E+00
 -1       184 2.28616E+00
 -1       185 2.28616E+00
 -1       186 2.51352E+00
 -1       187 2.51352E+00
 -1       188 2.15848E+00
 -1       189 2.28616E+00
 -1       190 2.15848E+00
 -1       191 2.39984E+00
 -1       192 2.39984E+00
 -1       193 2.35069E+00
 -1       194 2.51352E+00
 -1       195 2.35069E+00
 -1       196 2.50535E+00
 -1       197 2.50535E+00
 -1       198 2.86224E+00
 -1       199 2.86224E+00
 -1       200 2.39575E+00
 -1       201 2.50535E+00
 -1       202 2.39575E+00
 -1       203 2.68379E+00
 -1       204 2.68379E+00
 -1       205 2.68788E+00
 -1       206 2.86224E+00
 -1       207 2.68788E+00
 -1       208 3.03279E+00
 -1       209 3.03279E+00
 -1       210 3.25641E+00
 -1       211 3.25641E+00
 -1       212 2.76907E+00
 -1       213 3.03279E+00
 -1       214 2.76907E+00
 -1       215 3.14460E+00
 -1       216 3.14460E+00
 -1       217 3.05932E+00
 -1       218 3.25641E+00
 -1       219 3.05932E+00
 -1       220 8.24294E+00
 -1       221 8.24294E+00
 -1       222 8.24294E+00
 -1       223 8.24294E+00
 -1       224 5.63787E+00
 -1       225 8.24294E+00
 -1       226 5.63787E+00
 -1       227 8.24294E+00
 -1       228 8.24294E+00
 -1       229 5.74968E+00
 -1       230 8.24294E+00
 -1       231 5.74968E+00
 -1       232 1.90894E+01
 -1       233 1.90894E+01
 -1       234 1.90894E+01
 -1       235 1.90894E+01
 -1       236 1.36662E+01
 -1       237 1.90894E+01
 -1       238 1.36662E+01
 -1       239 1.90894E+01
 -1       240 1.90894E+01
 -1       241 1.36662E+01
 -1       242 1.90894E+01
 -1       243 1.36662E+01
 -1       244 1.90894E+01
 -1       245 1.90894E+01
 -1       246 1.90894E+01
 -1       247 1.90894E+01
 -1       248 1.90894E+01
 -1       249 1.90894E+01
 -1       250 1.90894E+01
 -1       251 1.90894E+01
 -1       252 1.90894E+01
 -1       253 1.90894E+01
 -1       254 1.90894E+01
 -1       255 1.90894E+01
 -1       256 1.41474E+01
 -1       257 1.41474E+01
 -1       258 1.41474E+01
 -1       259 1.41474E+01
 -1       260 1.66184E+01
 -1       261 1.41474E+01
 -1       262 1.66184E+01
 -1       263 1.41474E+01
 -1       264 1.41474E+01
 -1       265 1.66184E+01
 -1       266 1.41474E+01
 -1       267 1.66184E+01
 -1       268 4.51176E+00
 -1       269 4.51176E+00
 -1       270 4.51176E+00
 -1       271 4.51176E+00
 -1       272 9.32957E+00
 -1       273 4.51176E+00
 -1       274 9.32957E+00
 -1       275 4.51176E+00
 -1       276 4.51176E+00
 -1       277 9.32957E+00
 -1       278 4.51176E+00
 -1       279 9.32957E+00
 -1       280 1.83927E+00
 -1       281 1.83927E+00
 -1       282 2.20741E+00
 -1       283 2.20741E+00
 -1       284 3.17552E+00
 -1       285 1.83927E+00
 -1       286 3.17552E+00
 -1       287 2.02334E+00
 -1       288 2.02334E+00
 -1       289 3.35959E+00
 -1       290 2.20741E+00
 -1       291 3.35959E+00
 -1       292 1.77357E+00
 -1       293 1.77357E+00
 -1       294 2.04547E+00
 -1       295 2.04547E+00
 -1       296 1.80642E+00
 -1       297 1.77357E+00
 -1       298 1.80642E+00
 -1       299 1.90952E+00
 -1       300 1.90952E+00
 -1       301 2.12644E+00
 -1       302 2.04547E+00
 -1       303 2.12644E+00
 -1       304 1.62845E+00
 -1       305 1.62845E+00
 -1       306 1.81027E+00
 -1       307 1.81027E+00
 -1       308 1.70101E+00
 -1       309 1.62845E+00
 -1       310 1.70101E+00
 -1       311 1.71936E+00
 -1       312 1.71936E+00
 -1       313 1.92787E+00
 -1       314 1.81027E+00
 -1       315 1.92787E+00
 -1       316 1.45833E+00
 -1       317 1.45833E+00
 -1       318 1.58927E+00
 -1       319 1.58927E+00
 -1       320 1.54339E+00
 -1       321 1.45833E+00
 -1       322 1.54339E+00
 -1       323 1.52380E+00
 -1       324 1.52380E+00
 -1       325 1.69977E+00
 -1       326 1.58927E+00
 -1       327 1.69977E+00
 -1       328 1.35886E+00
 -1       329 1.32401E+00
 -1       330 1.54530E+00
 -1       331 1.39951E+00
 -1       332 1.40859E+00
 -1       333 1.34144E+00
 -1       334 1.39117E+00
 -1       335 1.45208E+00
 -1       336 1.36176E+00
 -1       337 1.56729E+00
 -1       338 1.47241E+00
 -1       339 1.49439E+00
 -1       340 1.45480E+00
 -1       341 1.29821E+00
 -1       342 1.68778E+00
 -1       343 1.31391E+00
 -1       344 1.40683E+00
 -1       345 1.37650E+00
 -1       346 1.31111E+00
 -1       347 1.57129E+00
 -1       348 1.30606E+00
 -1       349 1.61654E+00
 -1       350 1.50084E+00
 -1       351 1.35671E+00
 -1       352 1.57438E+00
 -1       353 1.27655E+00
 -1       354 1.80627E+00
 -1       355 1.29787E+00
 -1       356 1.51459E+00
 -1       357 1.42546E+00
 -1       358 1.28738E+00
 -1       359 1.69033E+00
 -1       360 1.28721E+00
 -1       361 1.74702E+00
 -1       362 1.55207E+00
 -1       363 1.30589E+00
 -1       364 1.72360E+00
 -1       365 1.27803E+00
 -1       366 2.00420E+00
 -1       367 1.28865E+00
 -1       368 1.64899E+00
 -1       369 1.50081E+00
 -1       370 1.27729E+00
 -1       371 1.86390E+00
 -1       372 1.28334E+00
 -1       373 1.90524E+00
 -1       374 1.64643E+00
 -1       375 1.29326E+00
 -1       376 2.08036E+00
 -1       377 1.30276E+00
 -1       378 2.22664E+00
 -1       379 1.30276E+00
 -1       380 1.90198E+00
 -1       381 1.69156E+00
 -1       382 1.29039E+00
 -1       383 2.15350E+00
 -1       384 1.30276E+00
 -1       385 2.11542E+00
 -1       386 1.76470E+00
 -1       387 1.29571E+00
 -1       388 2.59827E+00
 -1       389 1.47957E+00
 -1       390 2.59827E+00
 -1       391 1.47957E+00
 -1       392 2.33931E+00
 -1       393 2.03892E+00
 -1       394 1.39116E+00
 -1       395 2.59827E+00
 -1       396 1.47957E+00
 -1       397 2.41245E+00
 -1       398 2.03892E+00
 -1       399 1.39116E+00
 -1       400 3.65858E+00
 -1       401 1.88319E+00
 -1       402 3.65858E+00
 -1       403 1.88319E+00
 -1       404 3.12842E+00
 -1       405 2.77088E+00
 -1       406 1.68138E+00
 -1       407 3.65858E+00
 -1       408 1.88319E+00
 -1       409 3.12842E+00
 -1       410 2.77088E+00
 -1       411 1.68138E+00
 -1       412 5.12993E+00
 -1       413 3.43969E+00
 -1       414 5.12993E+00
 -1       415 3.43969E+00
 -1       416 4.39426E+00
 -1       417 4.28481E+00
 -1       418 2.66144E+00
 -1       419 5.12993E+00
 -1       420 3.43969E+00
 -1       421 4.39426E+00
 -1       422 4.28481E+00
 -1       423 2.66144E+00
 -1       424 9.71451E+00
 -1       425 9.71451E+00
 -1       426 9.71451E+00
 -1       427 9.71451E+00
 -1       428 7.42222E+00
 -1       429 9.71451E+00
 -1       430 6.57710E+00
 -1       431 9.71451E+00
 -1       432 9.71451E+00
 -1       433 7.42222E+00
 -1       434 9.71451E+00
 -1       435 6.57710E+00
 -1       436 9.71451E+00
 -1       437 9.71451E+00
 -1       438 9.71451E+00
 -1       439 9.71451E+00
 -1       440 9.71451E+00
 -1       441 9.71451E+00
 -1       442 9.71451E+00
 -1       443 9.71451E+00
 -1       444 9.71451E+00
 -1       445 9.71451E+00
 -1       446 9.71451E+00
 -1       447 9.71451E+00
 -1       448 7.38092E+00
 -1       449 7.38092E+00
 -1       450 7.38092E+00
 -1       451 7.38092E+00
 -1       452 8.57842E+00
 -1       453 8.57842E+00
 -1       454 8.57842E+00
 -1       455 8.57842E+00
 -1       456 7.38092E+00
 -1       457 7.38092E+00
 -1       458 7.38092E+00
 -1       459 7.38092E+00
 -1       460 3.25412E+00
 -1       461 1.29030E+00
 -1       462 4.35423E+00
 -1       463 2.47723E+00
 -1       464 5.31752E+00
 -1       465 2.27221E+00
 -1       466 4.33561E+00
 -1       467 3.25412E+00
 -1       468 1.36463E+00
 -1       469 3.63503E+00
 -1       470 1.75737E+00
 -1       471 3.25412E+00
 -1       472 2.30937E+00
 -1       473 1.32747E+00
 -1       474 2.81717E+00
 -1       475 1.38765E+00
 -1       476 2.89521E+00
 -1       477 1.57643E+00
 -1       478 3.03565E+00
 -1       479 2.10241E+00
 -1       480 1.37614E+00
 -1       481 2.62221E+00
 -1       482 1.41345E+00
 -1       483 2.62221E+00
 -1       484 1.44991E+00
 -1       485 2.71969E+00
 -1       486 2.01783E+00
 -1       487 1.40055E+00
 -1       488 2.45742E+00
 -1       489 1.46003E+00
 -1       490 2.43474E+00
 -1       491 1.46003E+00
 -1       492 2.53982E+00
 -1       493 1.95873E+00
 -1       494 1.43674E+00
 -1       495 2.36873E+00
 -1       496 1.57634E+00
 -1       497 2.29919E+00
 -1       498 1.56261E+00
 -1       499 2.41308E+00
 -1       500 1.97253E+00
 -1       501 1.51818E+00
 -1       502 2.27343E+00
 -1       503 1.73975E+00
 -1       504 2.20716E+00
 -1       505 1.71444E+00
 -1       506 2.32108E+00
 -1       507 2.00659E+00
 -1       508 1.65804E+00
 -1       509 2.16632E+00
 -1       510 1.96252E+00
 -1       511 2.08593E+00
 -1       512 1.93822E+00
 -1       513 2.21988E+00
 -1       514 2.06442E+00
 -1       515 1.85113E+00
 -1       516 2.25401E+00
 -1       517 2.25401E+00
 -1       518 2.22094E+00
 -1       519 2.22094E+00
 -1       520 2.21017E+00
 -1       521 2.25401E+00
 -1       522 2.10827E+00
 -1       523 2.61318E+00
 -1       524 2.61318E+00
 -1       525 2.56335E+00
 -1       526 2.56335E+00
 -1       527 2.43360E+00
 -1       528 2.61318E+00
 -1       529 2.43360E+00
 -1       530 3.03061E+00
 -1       531 3.03061E+00
 -1       532 2.94642E+00
 -1       533 2.94642E+00
 -1       534 2.82189E+00
 -1       535 3.03061E+00
 -1       536 2.82189E+00
 -1       537 3.40052E+00
 -1       538 3.40052E+00
 -1       539 3.32846E+00
 -1       540 3.32846E+00
 -1       541 3.21556E+00
 -1       542 3.40052E+00
 -1       543 3.21556E+00
 -1       544 7.01335E+00
 -1       545 7.01335E+00
 -1       546 7.62815E+00
 -1       547 7.62815E+00
 -1       548 5.20693E+00
 -1       549 7.01335E+00
 -1       550 5.20693E+00
 -1       551 1.91978E+01
 -1       552 1.91978E+01
 -1       553 1.91436E+01
 -1       554 1.91436E+01
 -1       555 1.31056E+01
 -1       556 1.91978E+01
 -1       557 1.31056E+01
 -1       558 1.91978E+01
 -1       559 1.91978E+01
 -1       560 1.91436E+01
 -1       561 1.91436E+01
 -1       562 1.91978E+01
 -1       563 1.91978E+01
 -1       564 1.91978E+01
 -1       565 1.34330E+01
 -1       566 1.34330E+01
 -1       567 1.37902E+01
 -1       568 1.37902E+01
 -1       569 1.63154E+01
 -1       570 1.34330E+01
 -1       571 1.63154E+01
 -1       572 4.02676E+00
 -1       573 4.02676E+00
 -1       574 4.26926E+00
 -1       575 4.26926E+00
 -1       576 8.72986E+00
 -1       577 4.02676E+00
 -1       578 8.72986E+00
 -1       579 2.41845E+00
 -1       580 2.41845E+00
 -1       581 2.31293E+00
 -1       582 2.31293E+00
 -1       583 3.22260E+00
 -1       584 2.41845E+00
 -1       585 3.22260E+00
 -1       586 2.17161E+00
 -1       587 2.17161E+00
 -1       588 2.10854E+00
 -1       589 2.10854E+00
 -1       590 2.29503E+00
 -1       591 2.17161E+00
 -1       592 2.29503E+00
 -1       593 1.88779E+00
 -1       594 1.88779E+00
 -1       595 1.84903E+00
 -1       596 1.84903E+00
 -1       597 2.02970E+00
 -1       598 1.88779E+00
 -1       599 2.02970E+00
 -1       600 1.64442E+00
 -1       601 1.64442E+00
 -1       602 1.61685E+00
 -1       603 1.61685E+00
 -1       604 1.76611E+00
 -1       605 1.64442E+00
 -1       606 1.76611E+00
 -1       607 1.68364E+00
 -1       608 1.44204E+00
 -1       609 1.61447E+00
 -1       610 1.42077E+00
 -1       611 1.66403E+00
 -1       612 1.56284E+00
 -1       613 1.54323E+00
 -1       614 1.80493E+00
 -1       615 1.32272E+00
 -1       616 1.74636E+00
 -1       617 1.31831E+00
 -1       618 1.74429E+00
 -1       619 1.56383E+00
 -1       620 1.38238E+00
 -1       621 1.93024E+00
 -1       622 1.30232E+00
 -1       623 1.86826E+00
 -1       624 1.30010E+00
 -1       625 1.86759E+00
 -1       626 1.61628E+00
 -1       627 1.31252E+00
 -1       628 2.03709E+00
 -1       629 1.28865E+00
 -1       630 2.02065E+00
 -1       631 1.28865E+00
 -1       632 1.98366E+00
 -1       633 1.66287E+00
 -1       634 1.29549E+00
 -1       635 2.22664E+00
 -1       636 1.28565E+00
 -1       637 2.22664E+00
 -1       638 1.29420E+00
 -1       639 2.13186E+00
 -1       640 1.75615E+00
 -1       641 1.28715E+00
 -1       642 2.43566E+00
 -1       643 1.28513E+00
 -1       644 2.51696E+00
 -1       645 1.38235E+00
 -1       646 2.33115E+00
 -1       647 1.86039E+00
 -1       648 1.28539E+00
 -1       649 2.89043E+00
 -1       650 1.28398E+00
 -1       651 3.27451E+00
 -1       652 1.58358E+00
 -1       653 2.66304E+00
 -1       654 2.08721E+00
 -1       655 1.28456E+00
 -1       656 2.89043E+00
 -1       657 1.24051E+00
 -1       658 4.01018E+00
 -1       659 2.34010E+00
 -1       660 2.89043E+00
 -1       661 2.06547E+00
 -1       662 1.26225E+00
 -1       663 7.26955E+00
 -1       664 7.26955E+00
 -1       665 8.49203E+00
 -1       666 8.49203E+00
 -1       667 5.07999E+00
 -1       668 7.26955E+00
 -1       669 4.25503E+00
 -1       670 7.26955E+00
 -1       671 7.26955E+00
 -1       672 8.49203E+00
 -1       673 8.49203E+00
 -1       674 7.26955E+00
 -1       675 7.26955E+00
 -1       676 7.26955E+00
 -1       677 7.47589E+00
 -1       678 7.47589E+00
 -1       679 7.47589E+00
 -1       680 7.47589E+00
 -1       681 7.42841E+00
 -1       682 7.42841E+00
 -1       683 7.42841E+00
 -1       684 7.42841E+00
 -1       685 7.47589E+00
 -1       686 7.47589E+00
 -1       687 7.47589E+00
 -1       688 7.47589E+00
 -1       689 2.57771E+00
 -1       690 1.16821E+00
 -1       691 2.91592E+00
 -1       692 1.22926E+00
 -1       693 5.02680E+00
 -1       694 1.87296E+00
 -1       695 4.32205E+00
 -1       696 2.57771E+00
 -1       697 1.26623E+00
 -1       698 2.91592E+00
 -1       699 1.31543E+00
 -1       700 2.57771E+00
 -1       701 1.92197E+00
 -1       702 1.21722E+00
 -1       703 2.51481E+00
 -1       704 1.30500E+00
 -1       705 2.66599E+00
 -1       706 1.34632E+00
 -1       707 2.54626E+00
 -1       708 1.90990E+00
 -1       709 1.28561E+00
 -1       710 2.51481E+00
 -1       711 1.33693E+00
 -1       712 2.56851E+00
 -1       713 1.37519E+00
 -1       714 2.51481E+00
 -1       715 1.92587E+00
 -1       716 1.32096E+00
 -1       717 2.45742E+00
 -1       718 1.44808E+00
 -1       719 2.45742E+00
 -1       720 1.45406E+00
 -1       721 2.48611E+00
 -1       722 1.95275E+00
 -1       723 1.39251E+00
 -1       724 2.38060E+00
 -1       725 1.57634E+00
 -1       726 2.37467E+00
 -1       727 1.57634E+00
 -1       728 2.41901E+00
 -1       729 1.97847E+00
 -1       730 1.51221E+00
 -1       731 2.31810E+00
 -1       732 1.74431E+00
 -1       733 2.29576E+00
 -1       734 1.74203E+00
 -1       735 2.34935E+00
 -1       736 2.03120E+00
 -1       737 1.66032E+00
 -1       738 2.22182E+00
 -1       739 1.97840E+00
 -1       740 2.19407E+00
 -1       741 1.97046E+00
 -1       742 2.26996E+00
 -1       743 2.10011E+00
 -1       744 1.86135E+00
 -1       745 2.27568E+00
 -1       746 2.27568E+00
 -1       747 2.26485E+00
 -1       748 2.26485E+00
 -1       749 2.24875E+00
 -1       750 2.27568E+00
 -1       751 2.12704E+00
 -1       752 2.64412E+00
 -1       753 2.64412E+00
 -1       754 2.62865E+00
 -1       755 2.62865E+00
 -1       756 2.45990E+00
 -1       757 2.64412E+00
 -1       758 2.45990E+00
 -1       759 3.07320E+00
 -1       760 3.07320E+00
 -1       761 3.05190E+00
 -1       762 3.05190E+00
 -1       763 2.85866E+00
 -1       764 3.07320E+00
 -1       765 2.85866E+00
 -1       766 3.42564E+00
 -1       767 3.42564E+00
 -1       768 3.41308E+00
 -1       769 3.41308E+00
 -1       770 3.24942E+00
 -1       771 3.42564E+00
 -1       772 3.24942E+00
 -1       773 7.13238E+00
 -1       774 7.13238E+00
 -1       775 7.07286E+00
 -1       776 7.07286E+00
 -1       777 5.27901E+00
 -1       778 7.13238E+00
 -1       779 5.27901E+00
 -1       780 2.01879E+01
 -1       781 2.01879E+01
 -1       782 1.96928E+01
 -1       783 1.96928E+01
 -1       784 1.36601E+01
 -1       785 2.01879E+01
 -1       786 1.36601E+01
 -1       787 2.01879E+01
 -1       788 2.01879E+01
 -1       789 1.96928E+01
 -1       790 1.96928E+01
 -1       791 2.01879E+01
 -1       792 2.01879E+01
 -1       793 2.01879E+01
 -1       794 1.37797E+01
 -1       795 1.37797E+01
 -1       796 1.36063E+01
 -1       797 1.36063E+01
 -1       798 1.69838E+01
 -1       799 1.37797E+01
 -1       800 1.69838E+01
 -1       801 4.06244E+00
 -1       802 4.06244E+00
 -1       803 4.04460E+00
 -1       804 4.04460E+00
 -1       805 8.92105E+00
 -1       806 4.06244E+00
 -1       807 8.92105E+00
 -1       808 2.46609E+00
 -1       809 2.46609E+00
 -1       810 2.44227E+00
 -1       811 2.44227E+00
 -1       812 3.26426E+00
 -1       813 2.46609E+00
 -1       814 3.26426E+00
 -1       815 2.20339E+00
 -1       816 2.20339E+00
 -1       817 2.18750E+00
 -1       818 2.18750E+00
 -1       819 2.33474E+00
 -1       820 2.20339E+00
 -1       821 2.33474E+00
 -1       822 1.91313E+00
 -1       823 1.91313E+00
 -1       824 1.90046E+00
 -1       825 1.90046E+00
 -1       826 2.05826E+00
 -1       827 1.91313E+00
 -1       828 2.05826E+00
 -1       829 1.66245E+00
 -1       830 1.66245E+00
 -1       831 1.65344E+00
 -1       832 1.65344E+00
 -1       833 1.78779E+00
 -1       834 1.66245E+00
 -1       835 1.78779E+00
 -1       836 1.73147E+00
 -1       837 1.45598E+00
 -1       838 1.70756E+00
 -1       839 1.44901E+00
 -1       840 1.69696E+00
 -1       841 1.59373E+00
 -1       842 1.55921E+00
 -1       843 1.84547E+00
 -1       844 1.32295E+00
 -1       845 1.82520E+00
 -1       846 1.32284E+00
 -1       847 1.78847E+00
 -1       848 1.58421E+00
 -1       849 1.38946E+00
 -1       850 1.93206E+00
 -1       851 1.30232E+00
 -1       852 1.93115E+00
 -1       853 1.30232E+00
 -1       854 1.88876E+00
 -1       855 1.61719E+00
 -1       856 1.31264E+00
 -1       857 2.03709E+00
 -1       858 1.28627E+00
 -1       859 2.03709E+00
 -1       860 1.28746E+00
 -1       861 1.98457E+00
 -1       862 1.66168E+00
 -1       863 1.29430E+00
 -1       864 2.11285E+00
 -1       865 1.27159E+00
 -1       866 2.16975E+00
 -1       867 1.27862E+00
 -1       868 2.07497E+00
 -1       869 1.69222E+00
 -1       870 1.27893E+00
 -1       871 2.11285E+00
 -1       872 1.24972E+00
 -1       873 2.27426E+00
 -1       874 1.26743E+00
 -1       875 2.11285E+00
 -1       876 1.68129E+00
 -1       877 1.26065E+00
 -1       878 2.21324E+00
 -1       879 1.21353E+00
 -1       880 2.55183E+00
 -1       881 1.24876E+00
 -1       882 2.16304E+00
 -1       883 1.71339E+00
 -1       884 1.23163E+00
 -1       885 2.21324E+00
 -1       886 1.11762E+00
 -1       887 2.55183E+00
 -1       888 1.17906E+00
 -1       889 2.21324E+00
 -1       890 1.66543E+00
 -1       891 1.16558E+00
 -1       892 7.36781E+00
 -1       893 7.36781E+00
 -1       894 7.31868E+00
 -1       895 7.31868E+00
 -1       896 4.79052E+00
 -1       897 7.36781E+00
 -1       898 4.24271E+00
 -1       899 7.36781E+00
 -1       900 7.36781E+00
 -1       901 7.31868E+00
 -1       902 7.31868E+00
 -1       903 7.36781E+00
 -1       904 7.36781E+00
 -1       905 7.36781E+00
 -1       906 7.47589E+00
 -1       907 7.47589E+00
 -1       908 7.47589E+00
 -1       909 7.47589E+00
 -1       910 7.47589E+00
 -1       911 7.47589E+00
 -1       912 7.47589E+00
 -1       913 7.47589E+00
 -1       914 7.47589E+00
 -1       915 7.47589E+00
 -1       916 7.47589E+00
 -1       917 7.47589E+00
 -1       918 2.32715E+00
 -1       919 1.12823E+00
 -1       920 2.45243E+00
 -1       921 1.14822E+00
 -1       922 4.90152E+00
 -1       923 1.72769E+00
 -1       924 4.30206E+00
 -1       925 2.32715E+00
 -1       926 1.22449E+00
 -1       927 2.45243E+00
 -1       928 1.24536E+00
 -1       929 2.32715E+00
 -1       930 1.77582E+00
 -1       931 1.17636E+00
 -1       932 2.37066E+00
 -1       933 1.27709E+00
 -1       934 2.44273E+00
 -1       935 1.29104E+00
 -1       936 2.34891E+00
 -1       937 1.82387E+00
 -1       938 1.25079E+00
 -1       939 2.39902E+00
 -1       940 1.31364E+00
 -1       941 2.45692E+00
 -1       942 1.32529E+00
 -1       943 2.38484E+00
 -1       944 1.85633E+00
 -1       945 1.29537E+00
 -1       946 2.39902E+00
 -1       947 1.39746E+00
 -1       948 2.42822E+00
 -1       949 1.42277E+00
 -1       950 2.39902E+00
 -1       951 1.89824E+00
 -1       952 1.35555E+00
 -1       953 2.38060E+00
 -1       954 1.55696E+00
 -1       955 2.38060E+00
 -1       956 1.56665E+00
 -1       957 2.38981E+00
 -1       958 1.96878E+00
 -1       959 1.47721E+00
 -1       960 2.31810E+00
 -1       961 1.74431E+00
 -1       962 2.31810E+00
 -1       963 1.74431E+00
 -1       964 2.34935E+00
 -1       965 2.03120E+00
 -1       966 1.65063E+00
 -1       967 2.22182E+00
 -1       968 1.97840E+00
 -1       969 2.22182E+00
 -1       970 1.97840E+00
 -1       971 2.26996E+00
 -1       972 2.10011E+00
 -1       973 1.86135E+00
 -1       974 2.27568E+00
 -1       975 2.27568E+00
 -1       976 2.27568E+00
 -1       977 2.27568E+00
 -1       978 2.24875E+00
 -1       979 2.27568E+00
 -1       980 2.12704E+00
 -1       981 2.64412E+00
 -1       982 2.64412E+00
 -1       983 2.64412E+00
 -1       984 2.64412E+00
 -1       985 2.45990E+00
 -1       986 2.64412E+00
 -1       987 2.45990E+00
 -1       988 3.07320E+00
 -1       989 3.07320E+00
 -1       990 3.07320E+00
 -1       991 3.07320E+00
 -1       992 2.85866E+00
 -1       993 3.07320E+00
 -1       994 2.85866E+00
 -1       995 3.42564E+00
 -1       996 3.42564E+00
 -1       997 3.42564E+00
 -1       998 3.42564E+00
 -1       999 3.24942E+00
 -1      1000 3.42564E+00
 -1      1001 3.24942E+00
 -1      1002 7.13238E+00
 -1      1003 7.13238E+00
 -1      1004 7.13238E+00
 -1      1005 7.13238E+00
 -1      1006 5.27901E+00
 -1      1007 7.13238E+00
 -1      1008 5.27901E+00
 -1      1009 2.01879E+01
 -1      1010 2.01879E+01
 -1      1011 2.01879E+01
 -1      1012 2.01879E+01
 -1      1013 1.36601E+01
 -1      1014 2.01879E+01
 -1      1015 1.36601E+01
 -1      1016 2.01879E+01
 -1      1017 2.01879E+01
 -1      1018 2.01879E+01
 -1      1019 2.01879E+01
 -1      1020 2.01879E+01
 -1      1021 2.01879E+01
 -1      1022 2.01879E+01
 -1      1023 1.37797E+01
 -1      1024 1.37797E+01
 -1      1025 1.37797E+01
 -1      1026 1.37797E+01
 -1      1027 1.69838E+01
 -1      1028 1.37797E+01
 -1      1029 1.69838E+01
 -1      1030 4.06244E+00
 -1      1031 4.06244E+00
 -1      1032 4.06244E+00
 -1      1033 4.06244E+00
 -1      1034 8.92105E+00
 -1      1035 4.06244E+00
 -1      1036 8.92105E+00
 -1      1037 2.46609E+00
 -1      1038 2.46609E+00
 -1      1039 2.46609E+00
 -1      1040 2.46609E+00
 -1      1041 3.26426E+00
 -1      1042 2.46609E+00
 -1      1043 3.26426E+00
 -1      1044 2.20339E+00
 -1      1045 2.20339E+00
 -1      1046 2.20339E+00
 -1      1047 2.20339E+00
 -1      1048 2.33474E+00
 -1      1049 2.20339E+00
 -1      1050 2.33474E+00
 -1      1051 1.91313E+00
 -1      1052 1.91313E+00
 -1      1053 1.91313E+00
 -1      1054 1.91313E+00
 -1      1055 2.05826E+00
 -1      1056 1.91313E+00
 -1      1057 2.05826E+00
 -1      1058 1.66245E+00
 -1      1059 1.66245E+00
 -1      1060 1.66245E+00
 -1      1061 1.66245E+00
 -1      1062 1.78779E+00
 -1      1063 1.66245E+00
 -1      1064 1.78779E+00
 -1      1065 1.73147E+00
 -1      1066 1.45598E+00
 -1      1067 1.73147E+00
 -1      1068 1.45598E+00
 -1      1069 1.69696E+00
 -1      1070 1.59373E+00
 -1      1071 1.55921E+00
 -1      1072 1.84547E+00
 -1      1073 1.32295E+00
 -1      1074 1.84547E+00
 -1      1075 1.32295E+00
 -1      1076 1.78847E+00
 -1      1077 1.58421E+00
 -1      1078 1.38946E+00
 -1      1079 1.93206E+00
 -1      1080 1.29840E+00
 -1      1081 1.93206E+00
 -1      1082 1.30036E+00
 -1      1083 1.88876E+00
 -1      1084 1.61523E+00
 -1      1085 1.31068E+00
 -1      1086 1.97264E+00
 -1      1087 1.27673E+00
 -1      1088 2.00486E+00
 -1      1089 1.28150E+00
 -1      1090 1.95235E+00
 -1      1091 1.62468E+00
 -1      1092 1.28756E+00
 -1      1093 1.97264E+00
 -1      1094 1.25402E+00
 -1      1095 2.04274E+00
 -1      1096 1.26280E+00
 -1      1097 1.97264E+00
 -1      1098 1.61333E+00
 -1      1099 1.26537E+00
 -1      1100 1.96600E+00
 -1      1101 1.22155E+00
 -1      1102 2.03943E+00
 -1      1103 1.23564E+00
 -1      1104 1.96932E+00
 -1      1105 1.59378E+00
 -1      1106 1.23778E+00
 -1      1107 1.96874E+00
 -1      1108 1.17142E+00
 -1      1109 2.09099E+00
 -1      1110 1.19248E+00
 -1      1111 1.96737E+00
 -1      1112 1.57008E+00
 -1      1113 1.19648E+00
 -1      1114 1.96874E+00
 -1      1115 1.07656E+00
 -1      1116 2.09099E+00
 -1      1117 1.09709E+00
 -1      1118 1.96874E+00
 -1      1119 1.52265E+00
 -1      1120 1.12399E+00
 -1      1121 7.36781E+00
 -1      1122 7.36781E+00
 -1      1123 7.36781E+00
 -1      1124 7.36781E+00
 -1      1125 4.66827E+00
 -1      1126 7.36781E+00
 -1      1127 4.22219E+00
 -1      1128 7.36781E+00
 -1      1129 7.36781E+00
 -1      1130 7.36781E+00
 -1      1131 7.36781E+00
 -1      1132 7.36781E+00
 -1      1133 7.36781E+00
 -1      1134 7.36781E+00
 -1      1135 7.47589E+00
 -1      1136 7.47589E+00
 -1      1137 7.47589E+00
 -1      1138 7.47589E+00
 -1      1139 7.47589E+00
 -1      1140 7.47589E+00
 -1      1141 7.47589E+00
 -1      1142 7.47589E+00
 -1      1143 7.47589E+00
 -1      1144 7.47589E+00
 -1      1145 7.47589E+00
 -1      1146 7.47589E+00
 -1      1147 2.57771E+00
 -1      1148 1.16821E+00
 -1      1149 2.45243E+00
 -1      1150 1.14822E+00
 -1      1151 5.02680E+00
 -1      1152 1.87296E+00
 -1      1153 4.32205E+00
 -1      1154 2.57771E+00
 -1      1155 1.26623E+00
 -1      1156 2.45243E+00
 -1      1157 1.24536E+00
 -1      1158 2.57771E+00
 -1      1159 1.92197E+00
 -1      1160 1.21722E+00
 -1      1161 2.51481E+00
 -1      1162 1.30500E+00
 -1      1163 2.44273E+00
 -1      1164 1.29104E+00
 -1      1165 2.54626E+00
 -1      1166 1.90990E+00
 -1      1167 1.28561E+00
 -1      1168 2.51481E+00
 -1      1169 1.33693E+00
 -1      1170 2.45692E+00
 -1      1171 1.32529E+00
 -1      1172 2.51481E+00
 -1      1173 1.92587E+00
 -1      1174 1.32096E+00
 -1      1175 2.45742E+00
 -1      1176 1.44808E+00
 -1      1177 2.42822E+00
 -1      1178 1.42277E+00
 -1      1179 2.48611E+00
 -1      1180 1.95275E+00
 -1      1181 1.39251E+00
 -1      1182 2.38060E+00
 -1      1183 1.57634E+00
 -1      1184 2.38060E+00
 -1      1185 1.56665E+00
 -1      1186 2.41901E+00
 -1      1187 1.97847E+00
 -1      1188 1.51221E+00
 -1      1189 2.31810E+00
 -1      1190 1.74431E+00
 -1      1191 2.31810E+00
 -1      1192 1.74431E+00
 -1      1193 2.34935E+00
 -1      1194 2.03120E+00
 -1      1195 1.66032E+00
 -1      1196 2.22182E+00
 -1      1197 1.97840E+00
 -1      1198 2.22182E+00
 -1      1199 1.97840E+00
 -1      1200 2.26996E+00
 -1      1201 2.10011E+00
 -1      1202 1.86135E+00
 -1      1203 2.27568E+00
 -1      1204 2.27568E+00
 -1      1205 2.27568E+00
 -1      1206 2.27568E+00
 -1      1207 2.24875E+00
 -1      1208 2.27568E+00
 -1      1209 2.12704E+00
 -1      1210 2.64412E+00
 -1      1211 2.64412E+00
 -1      1212 2.64412E+00
 -1      1213 2.64412E+00
 -1      1214 2.45990E+00
 -1      1215 2.64412E+00
 -1      1216 2.45990E+00
 -1      1217 3.07320E+00
 -1      1218 3.07320E+00
 -1      1219 3.07320E+00
 -1      1220 3.07320E+00
 -1      1221 2.85866E+00
 -1      1222 3.07320E+00
 -1      1223 2.85866E+00
 -1      1224 3.42564E+00
 -1      1225 3.42564E+00
 -1      1226 3.42564E+00
 -1      1227 3.42564E+00
 -1      1228 3.24942E+00
 -1      1229 3.42564E+00
 -1      1230 3.24942E+00
 -1      1231 7.13238E+00
 -1      1232 7.13238E+00
 -1      1233 7.13238E+00
 -1      1234 7.13238E+00
 -1      1235 5.27901E+00
 -1      1236 7.13238E+00
 -1      1237 5.27901E+00
 -1      1238 2.01879E+01
 -1      1239 2.01879E+01
 -1      1240 2.01879E+01
 -1      1241 2.01879E+01
 -1      1242 1.36601E+01
 -1      1243 2.01879E+01
 -1      1244 1.36601E+01
 -1      1245 2.01879E+01
 -1      1246 2.01879E+01
 -1      1247 2.01879E+01
 -1      1248 2.01879E+01
 -1      1249 2.01879E+01
 -1      1250 2.01879E+01
 -1      1251 2.01879E+01
 -1      1252 1.37797E+01
 -1      1253 1.37797E+01
 -1      1254 1.37797E+01
 -1      1255 1.37797E+01
 -1      1256 1.69838E+01
 -1      1257 1.37797E+01
 -1      1258 1.69838E+01
 -1      1259 4.06244E+00
 -1      1260 4.06244E+00
 -1      1261 4.06244E+00
 -1      1262 4.06244E+00
 -1      1263 8.92105E+00
 -1      1264 4.06244E+00
 -1      1265 8.92105E+00
 -1      1266 2.46609E+00
 -1      1267 2.46609E+00
 -1      1268 2.46609E+00
 -1      1269 2.46609E+00
 -1      1270 3.26426E+00
 -1      1271 2.46609E+00
 -1      1272 3.26426E+00
 -1      1273 2.20339E+00
 -1      1274 2.20339E+00
 -1      1275 2.20339E+00
 -1      1276 2.20339E+00
 -1      1277 2.33474E+00
 -1      1278 2.20339E+00
 -1      1279 2.33474E+00
 -1      1280 1.91313E+00
 -1      1281 1.91313E+00
 -1      1282 1.91313E+00
 -1      1283 1.91313E+00
 -1      1284 2.05826E+00
 -1      1285 1.91313E+00
 -1      1286 2.05826E+00
 -1      1287 1.66245E+00
 -1      1288 1.66245E+00
 -1      1289 1.66245E+00
 -1      1290 1.66245E+00
 -1      1291 1.78779E+00
 -1      1292 1.66245E+00
 -1      1293 1.78779E+00
 -1      1294 1.73147E+00
 -1      1295 1.45598E+00
 -1      1296 1.73147E+00
 -1      1297 1.45598E+00
 -1      1298 1.69696E+00
 -1      1299 1.59373E+00
 -1      1300 1.55921E+00
 -1      1301 1.84547E+00
 -1      1302 1.32295E+00
 -1      1303 1.84547E+00
 -1      1304 1.32295E+00
 -1      1305 1.78847E+00
 -1      1306 1.58421E+00
 -1      1307 1.38946E+00
 -1      1308 1.93206E+00
 -1      1309 1.30232E+00
 -1      1310 1.93206E+00
 -1      1311 1.30036E+00
 -1      1312 1.88876E+00
 -1      1313 1.61719E+00
 -1      1314 1.31264E+00
 -1      1315 2.03709E+00
 -1      1316 1.28627E+00
 -1      1317 2.00486E+00
 -1      1318 1.28150E+00
 -1      1319 1.98457E+00
 -1      1320 1.66168E+00
 -1      1321 1.29430E+00
 -1      1322 2.11285E+00
 -1      1323 1.27159E+00
 -1      1324 2.04274E+00
 -1      1325 1.26280E+00
 -1      1326 2.07497E+00
 -1      1327 1.69222E+00
 -1      1328 1.27893E+00
 -1      1329 2.11285E+00
 -1      1330 1.24972E+00
 -1      1331 2.03943E+00
 -1      1332 1.23564E+00
 -1      1333 2.11285E+00
 -1      1334 1.68129E+00
 -1      1335 1.26065E+00
 -1      1336 2.21324E+00
 -1      1337 1.21353E+00
 -1      1338 2.09099E+00
 -1      1339 1.19248E+00
 -1      1340 2.16304E+00
 -1      1341 1.71339E+00
 -1      1342 1.23163E+00
 -1      1343 2.21324E+00
 -1      1344 1.11762E+00
 -1      1345 2.09099E+00
 -1      1346 1.09709E+00
 -1      1347 2.21324E+00
 -1      1348 1.66543E+00
 -1      1349 1.16558E+00
 -1      1350 7.36781E+00
 -1      1351 7.36781E+00
 -1      1352 7.36781E+00
 -1      1353 7.36781E+00
 -1      1354 4.79052E+00
 -1      1355 7.36781E+00
 -1      1356 4.24271E+00
 -1      1357 7.36781E+00
 -1      1358 7.36781E+00
 -1      1359 7.36781E+00
 -1      1360 7.36781E+00
 -1      1361 7.36781E+00
 -1      1362 7.36781E+00
 -1      1363 7.36781E+00
 -1      1364 7.38092E+00
 -1      1365 7.38092E+00
 -1      1366 7.38092E+00
 -1      1367 7.38092E+00
 -1      1368 7.42841E+00
 -1      1369 7.42841E+00
 -1      1370 7.42841E+00
 -1      1371 7.42841E+00
 -1      1372 7.38092E+00
 -1      1373 7.38092E+00
 -1      1374 7.38092E+00
 -1      1375 7.38092E+00
 -1      1376 3.25412E+00
 -1      1377 1.29030E+00
 -1      1378 2.91592E+00
 -1      1379 1.22926E+00
 -1      1380 5.31752E+00
 -1      1381 2.27221E+00
 -1      1382 4.33561E+00
 -1      1383 3.25412E+00
 -1      1384 1.36463E+00
 -1      1385 2.91592E+00
 -1      1386 1.31543E+00
 -1      1387 3.25412E+00
 -1      1388 2.30937E+00
 -1      1389 1.32747E+00
 -1      1390 2.81717E+00
 -1      1391 1.38765E+00
 -1      1392 2.66599E+00
 -1      1393 1.34632E+00
 -1      1394 3.03565E+00
 -1      1395 2.10241E+00
 -1      1396 1.37614E+00
 -1      1397 2.62221E+00
 -1      1398 1.41345E+00
 -1      1399 2.56851E+00
 -1      1400 1.37519E+00
 -1      1401 2.71969E+00
 -1      1402 2.01783E+00
 -1      1403 1.40055E+00
 -1      1404 2.45742E+00
 -1      1405 1.46003E+00
 -1      1406 2.45742E+00
 -1      1407 1.45406E+00
 -1      1408 2.53982E+00
 -1      1409 1.95873E+00
 -1      1410 1.43674E+00
 -1      1411 2.36873E+00
 -1      1412 1.57634E+00
 -1      1413 2.37467E+00
 -1      1414 1.57634E+00
 -1      1415 2.41308E+00
 -1      1416 1.97253E+00
 -1      1417 1.51818E+00
 -1      1418 2.27343E+00
 -1      1419 1.73975E+00
 -1      1420 2.29576E+00
 -1      1421 1.74203E+00
 -1      1422 2.32108E+00
 -1      1423 2.00659E+00
 -1      1424 1.65804E+00
 -1      1425 2.16632E+00
 -1      1426 1.96252E+00
 -1      1427 2.19407E+00
 -1      1428 1.97046E+00
 -1      1429 2.21988E+00
 -1      1430 2.06442E+00
 -1      1431 1.85113E+00
 -1      1432 2.25401E+00
 -1      1433 2.25401E+00
 -1      1434 2.26485E+00
 -1      1435 2.26485E+00
 -1      1436 2.21017E+00
 -1      1437 2.25401E+00
 -1      1438 2.10827E+00
 -1      1439 2.61318E+00
 -1      1440 2.61318E+00
 -1      1441 2.62865E+00
 -1      1442 2.62865E+00
 -1      1443 2.43360E+00
 -1      1444 2.61318E+00
 -1      1445 2.43360E+00
 -1      1446 3.03061E+00
 -1      1447 3.03061E+00
 -1      1448 3.05190E+00
 -1      1449 3.05190E+00
 -1      1450 2.82189E+00
 -1      1451 3.03061E+00
 -1      1452 2.82189E+00
 -1      1453 3.40052E+00
 -1      1454 3.40052E+00
 -1      1455 3.41308E+00
 -1      1456 3.41308E+00
 -1      1457 3.21556E+00
 -1      1458 3.40052E+00
 -1      1459 3.21556E+00
 -1      1460 7.01335E+00
 -1      1461 7.01335E+00
 -1      1462 7.07286E+00
 -1      1463 7.07286E+00
 -1      1464 5.20693E+00
 -1      1465 7.01335E+00
 -1      1466 5.20693E+00
 -1      1467 1.91978E+01
 -1      1468 1.91978E+01
 -1      1469 1.96928E+01
 -1      1470 1.96928E+01
 -1      1471 1.31056E+01
 -1      1472 1.91978E+01
 -1      1473 1.31056E+01
 -1      1474 1.91978E+01
 -1      1475 1.91978E+01
 -1      1476 1.96928E+01
 -1      1477 1.96928E+01
 -1      1478 1.91978E+01
 -1      1479 1.91978E+01
 -1      1480 1.91978E+01
 -1      1481 1.34330E+01
 -1      1482 1.34330E+01
 -1      1483 1.36063E+01
 -1      1484 1.36063E+01
 -1      1485 1.63154E+01
 -1      1486 1.34330E+01
 -1      1487 1.63154E+01
 -1      1488 4.02676E+00
 -1      1489 4.02676E+00
 -1      1490 4.04460E+00
 -1      1491 4.04460E+00
 -1      1492 8.72986E+00
 -1      1493 4.02676E+00
 -1      1494 8.72986E+00
 -1      1495 2.41845E+00
 -1      1496 2.41845E+00
 -1      1497 2.44227E+00
 -1      1498 2.44227E+00
 -1      1499 3.22260E+00
 -1      1500 2.41845E+00
 -1      1501 3.22260E+00
 -1      1502 2.17161E+00
 -1      1503 2.17161E+00
 -1      1504 2.18750E+00
 -1      1505 2.18750E+00
 -1      1506 2.29503E+00
 -1      1507 2.17161E+00
 -1      1508 2.29503E+00
 -1      1509 1.88779E+00
 -1      1510 1.88779E+00
 -1      1511 1.90046E+00
 -1      1512 1.90046E+00
 -1      1513 2.02970E+00
 -1      1514 1.88779E+00
 -1      1515 2.02970E+00
 -1      1516 1.64442E+00
 -1      1517 1.64442E+00
 -1      1518 1.65344E+00
 -1      1519 1.65344E+00
 -1      1520 1.76611E+00
 -1      1521 1.64442E+00
 -1      1522 1.76611E+00
 -1      1523 1.68364E+00
 -1      1524 1.44204E+00
 -1      1525 1.70756E+00
 -1      1526 1.44901E+00
 -1      1527 1.66403E+00
 -1      1528 1.56284E+00
 -1      1529 1.54323E+00
 -1      1530 1.80493E+00
 -1      1531 1.32272E+00
 -1      1532 1.82520E+00
 -1      1533 1.32284E+00
 -1      1534 1.74429E+00
 -1      1535 1.56383E+00
 -1      1536 1.38238E+00
 -1      1537 1.93024E+00
 -1      1538 1.30232E+00
 -1      1539 1.93115E+00
 -1      1540 1.30232E+00
 -1      1541 1.86759E+00
 -1      1542 1.61628E+00
 -1      1543 1.31252E+00
 -1      1544 2.03709E+00
 -1      1545 1.28865E+00
 -1      1546 2.03709E+00
 -1      1547 1.28746E+00
 -1      1548 1.98366E+00
 -1      1549 1.66287E+00
 -1      1550 1.29549E+00
 -1      1551 2.22664E+00
 -1      1552 1.28565E+00
 -1      1553 2.16975E+00
 -1      1554 1.27862E+00
 -1      1555 2.13186E+00
 -1      1556 1.75615E+00
 -1      1557 1.28715E+00
 -1      1558 2.43566E+00
 -1      1559 1.28513E+00
 -1      1560 2.27426E+00
 -1      1561 1.26743E+00
 -1      1562 2.33115E+00
 -1      1563 1.86039E+00
 -1      1564 1.28539E+00
 -1      1565 2.89043E+00
 -1      1566 1.28398E+00
 -1      1567 2.55183E+00
 -1      1568 1.24876E+00
 -1      1569 2.66304E+00
 -1      1570 2.08721E+00
 -1      1571 1.28456E+00
 -1      1572 2.89043E+00
 -1      1573 1.24051E+00
 -1      1574 2.55183E+00
 -1      1575 1.17906E+00
 -1      1576 2.89043E+00
 -1      1577 2.06547E+00
 -1      1578 1.26225E+00
 -1      1579 7.26955E+00
 -1      1580 7.26955E+00
 -1      1581 7.31868E+00
 -1      1582 7.31868E+00
 -1      1583 5.07999E+00
 -1      1584 7.26955E+00
 -1      1585 4.25503E+00
 -1      1586 7.26955E+00
 -1      1587 7.26955E+00
 -1      1588 7.31868E+00
 -1      1589 7.31868E+00
 -1      1590 7.26955E+00
 -1      1591 7.26955E+00
 -1      1592 7.26955E+00
 -1      1593 9.77592E+00
 -1      1594 9.77592E+00
 -1      1595 9.77592E+00
 -1      1596 9.77592E+00
 -1      1597 8.57842E+00
 -1      1598 8.57842E+00
 -1      1599 8.57842E+00
 -1      1600 8.57842E+00
 -1      1601 9.77592E+00
 -1      1602 9.77592E+00
 -1      1603 9.77592E+00
 -1      1604 9.77592E+00
 -1      1605 5.45433E+00
 -1      1606 3.66415E+00
 -1      1607 4.35423E+00
 -1      1608 2.47723E+00
 -1      1609 7.61513E+00
 -1      1610 4.55924E+00
 -1      1611 6.72004E+00
 -1      1612 4.01594E+00
 -1      1613 2.15012E+00
 -1      1614 3.63503E+00
 -1      1615 1.75737E+00
 -1      1616 4.73514E+00
 -1      1617 3.08303E+00
 -1      1618 2.90713E+00
 -1      1619 2.97324E+00
 -1      1620 1.76521E+00
 -1      1621 2.89521E+00
 -1      1622 1.57643E+00
 -1      1623 3.49459E+00
 -1      1624 2.36922E+00
 -1      1625 1.95767E+00
 -1      1626 2.62221E+00
 -1      1627 1.48636E+00
 -1      1628 2.62221E+00
 -1      1629 1.44991E+00
 -1      1630 2.79772E+00
 -1      1631 2.05429E+00
 -1      1632 1.62578E+00
 -1      1633 2.41206E+00
 -1      1634 1.46003E+00
 -1      1635 2.43474E+00
 -1      1636 1.46003E+00
 -1      1637 2.51714E+00
 -1      1638 1.93605E+00
 -1      1639 1.47320E+00
 -1      1640 2.22964E+00
 -1      1641 1.54888E+00
 -1      1642 2.29919E+00
 -1      1643 1.56261E+00
 -1      1644 2.32085E+00
 -1      1645 1.88926E+00
 -1      1646 1.50446E+00
 -1      1647 2.14089E+00
 -1      1648 1.68914E+00
 -1      1649 2.20716E+00
 -1      1650 1.71444E+00
 -1      1651 2.18527E+00
 -1      1652 1.91502E+00
 -1      1653 1.61901E+00
 -1      1654 2.00554E+00
 -1      1655 1.91392E+00
 -1      1656 2.08593E+00
 -1      1657 1.93822E+00
 -1      1658 2.07322E+00
 -1      1659 1.95973E+00
 -1      1660 1.80153E+00
 -1      1661 2.18786E+00
 -1      1662 2.18786E+00
 -1      1663 2.22094E+00
 -1      1664 2.22094E+00
 -1      1665 2.09670E+00
 -1      1666 2.18786E+00
 -1      1667 2.05089E+00
 -1      1668 2.51352E+00
 -1      1669 2.51352E+00
 -1      1670 2.56335E+00
 -1      1671 2.56335E+00
 -1      1672 2.35069E+00
 -1      1673 2.51352E+00
 -1      1674 2.35069E+00
 -1      1675 2.86224E+00
 -1      1676 2.86224E+00
 -1      1677 2.94642E+00
 -1      1678 2.94642E+00
 -1      1679 2.68788E+00
 -1      1680 2.86224E+00
 -1      1681 2.68788E+00
 -1      1682 3.25641E+00
 -1      1683 3.25641E+00
 -1      1684 3.32846E+00
 -1      1685 3.32846E+00
 -1      1686 3.05932E+00
 -1      1687 3.25641E+00
 -1      1688 3.05932E+00
 -1      1689 8.24294E+00
 -1      1690 8.24294E+00
 -1      1691 7.62815E+00
 -1      1692 7.62815E+00
 -1      1693 5.74968E+00
 -1      1694 8.24294E+00
 -1      1695 5.74968E+00
 -1      1696 1.90894E+01
 -1      1697 1.90894E+01
 -1      1698 1.91436E+01
 -1      1699 1.91436E+01
 -1      1700 1.36662E+01
 -1      1701 1.90894E+01
 -1      1702 1.36662E+01
 -1      1703 1.90894E+01
 -1      1704 1.90894E+01
 -1      1705 1.91436E+01
 -1      1706 1.91436E+01
 -1      1707 1.90894E+01
 -1      1708 1.90894E+01
 -1      1709 1.90894E+01
 -1      1710 1.41474E+01
 -1      1711 1.41474E+01
 -1      1712 1.37902E+01
 -1      1713 1.37902E+01
 -1      1714 1.66184E+01
 -1      1715 1.41474E+01
 -1      1716 1.66184E+01
 -1      1717 4.51176E+00
 -1      1718 4.51176E+00
 -1      1719 4.26926E+00
 -1      1720 4.26926E+00
 -1      1721 9.32957E+00
 -1      1722 4.51176E+00
 -1      1723 9.32957E+00
 -1      1724 2.20741E+00
 -1      1725 2.20741E+00
 -1      1726 2.31293E+00
 -1      1727 2.31293E+00
 -1      1728 3.35959E+00
 -1      1729 2.20741E+00
 -1      1730 3.35959E+00
 -1      1731 2.04547E+00
 -1      1732 2.04547E+00
 -1      1733 2.10854E+00
 -1      1734 2.10854E+00
 -1      1735 2.12644E+00
 -1      1736 2.04547E+00
 -1      1737 2.12644E+00
 -1      1738 1.81027E+00
 -1      1739 1.81027E+00
 -1      1740 1.84903E+00
 -1      1741 1.84903E+00
 -1      1742 1.92787E+00
 -1      1743 1.81027E+00
 -1      1744 1.92787E+00
 -1      1745 1.58927E+00
 -1      1746 1.58927E+00
 -1      1747 1.61685E+00
 -1      1748 1.61685E+00
 -1      1749 1.69977E+00
 -1      1750 1.58927E+00
 -1      1751 1.69977E+00
 -1      1752 1.54530E+00
 -1      1753 1.39951E+00
 -1      1754 1.61447E+00
 -1      1755 1.42077E+00
 -1      1756 1.56729E+00
 -1      1757 1.47241E+00
 -1      1758 1.49439E+00
 -1      1759 1.68778E+00
 -1      1760 1.31391E+00
 -1      1761 1.74636E+00
 -1      1762 1.31831E+00
 -1      1763 1.61654E+00
 -1      1764 1.50084E+00
 -1      1765 1.35671E+00
 -1      1766 1.80627E+00
 -1      1767 1.29787E+00
 -1      1768 1.86826E+00
 -1      1769 1.30010E+00
 -1      1770 1.74702E+00
 -1      1771 1.55207E+00
 -1      1772 1.30589E+00
 -1      1773 2.00420E+00
 -1      1774 1.28865E+00
 -1      1775 2.02065E+00
 -1      1776 1.28865E+00
 -1      1777 1.90524E+00
 -1      1778 1.64643E+00
 -1      1779 1.29326E+00
 -1      1780 2.22664E+00
 -1      1781 1.30276E+00
 -1      1782 2.22664E+00
 -1      1783 1.29420E+00
 -1      1784 2.11542E+00
 -1      1785 1.76470E+00
 -1      1786 1.29571E+00
 -1      1787 2.59827E+00
 -1      1788 1.47957E+00
 -1      1789 2.51696E+00
 -1      1790 1.38235E+00
 -1      1791 2.41245E+00
 -1      1792 2.03892E+00
 -1      1793 1.39116E+00
 -1      1794 3.65858E+00
 -1      1795 1.88319E+00
 -1      1796 3.27451E+00
 -1      1797 1.58358E+00
 -1      1798 3.12842E+00
 -1      1799 2.77088E+00
 -1      1800 1.68138E+00
 -1      1801 5.12993E+00
 -1      1802 3.43969E+00
 -1      1803 4.01018E+00
 -1      1804 2.34010E+00
 -1      1805 4.39426E+00
 -1      1806 4.28481E+00
 -1      1807 2.66144E+00
 -1      1808 9.71451E+00
 -1      1809 9.71451E+00
 -1      1810 8.49203E+00
 -1      1811 8.49203E+00
 -1      1812 7.42222E+00
 -1      1813 9.71451E+00
 -1      1814 6.57710E+00
 -1      1815 9.71451E+00
 -1      1816 9.71451E+00
 -1      1817 8.49203E+00
 -1      1818 8.49203E+00
 -1      1819 9.71451E+00
 -1      1820 9.71451E+00
 -1      1821 9.71451E+00
 -1      1822 9.77592E+00
 -1      1823 9.77592E+00
 -1      1824 9.77592E+00
 -1      1825 9.77592E+00
 -1      1826 9.77592E+00
 -1      1827 9.77592E+00
 -1      1828 9.77592E+00
 -1      1829 9.77592E+00
 -1      1830 9.77592E+00
 -1      1831 9.77592E+00
 -1      1832 9.77592E+00
 -1      1833 9.77592E+00
 -1      1834 5.45433E+00
 -1      1835 3.66415E+00
 -1      1836 5.45433E+00
 -1      1837 3.66415E+00
 -1      1838 7.61513E+00
 -1      1839 4.55924E+00
 -1      1840 6.72004E+00
 -1      1841 4.01594E+00
 -1      1842 2.15012E+00
 -1      1843 4.01594E+00
 -1      1844 2.15012E+00
 -1      1845 4.73514E+00
 -1      1846 3.08303E+00
 -1      1847 2.90713E+00
 -1      1848 2.97324E+00
 -1      1849 1.76521E+00
 -1      1850 2.97324E+00
 -1      1851 1.76521E+00
 -1      1852 3.49459E+00
 -1      1853 2.36922E+00
 -1      1854 1.95767E+00
 -1      1855 2.46103E+00
 -1      1856 1.48636E+00
 -1      1857 2.54162E+00
 -1      1858 1.48636E+00
 -1      1859 2.71713E+00
 -1      1860 1.97370E+00
 -1      1861 1.62578E+00
 -1      1862 2.10961E+00
 -1      1863 1.37170E+00
 -1      1864 2.26084E+00
 -1      1865 1.41587E+00
 -1      1866 2.28532E+00
 -1      1867 1.74065E+00
 -1      1868 1.42903E+00
 -1      1869 1.99182E+00
 -1      1870 1.43136E+00
 -1      1871 2.11073E+00
 -1      1872 1.49012E+00
 -1      1873 2.05072E+00
 -1      1874 1.71159E+00
 -1      1875 1.40153E+00
 -1      1876 1.87636E+00
 -1      1877 1.59833E+00
 -1      1878 2.00863E+00
 -1      1879 1.64373E+00
 -1      1880 1.93409E+00
 -1      1881 1.73734E+00
 -1      1882 1.51484E+00
 -1      1883 1.79789E+00
 -1      1884 1.79789E+00
 -1      1885 1.90172E+00
 -1      1886 1.85590E+00
 -1      1887 1.83712E+00
 -1      1888 1.79789E+00
 -1      1889 1.69811E+00
 -1      1890 2.03079E+00
 -1      1891 2.03079E+00
 -1      1892 2.10933E+00
 -1      1893 2.10933E+00
 -1      1894 1.91434E+00
 -1      1895 2.03079E+00
 -1      1896 1.91434E+00
 -1      1897 2.28616E+00
 -1      1898 2.28616E+00
 -1      1899 2.39984E+00
 -1      1900 2.39984E+00
 -1      1901 2.15848E+00
 -1      1902 2.28616E+00
 -1      1903 2.15848E+00
 -1      1904 2.50535E+00
 -1      1905 2.50535E+00
 -1      1906 2.68379E+00
 -1      1907 2.68379E+00
 -1      1908 2.39575E+00
 -1      1909 2.50535E+00
 -1      1910 2.39575E+00
 -1      1911 3.03279E+00
 -1      1912 3.03279E+00
 -1      1913 3.14460E+00
 -1      1914 3.14460E+00
 -1      1915 2.76907E+00
 -1      1916 3.03279E+00
 -1      1917 2.76907E+00
 -1      1918 8.24294E+00
 -1      1919 8.24294E+00
 -1      1920 8.24294E+00
 -1      1921 8.24294E+00
 -1      1922 5.63787E+00
 -1      1923 8.24294E+00
 -1      1924 5.63787E+00
 -1      1925 1.90894E+01
 -1      1926 1.90894E+01
 -1      1927 1.90894E+01
 -1      1928 1.90894E+01
 -1      1929 1.36662E+01
 -1      1930 1.90894E+01
 -1      1931 1.36662E+01
 -1      1932 1.90894E+01
 -1      1933 1.90894E+01
 -1      1934 1.90894E+01
 -1      1935 1.90894E+01
 -1      1936 1.90894E+01
 -1      1937 1.90894E+01
 -1      1938 1.90894E+01
 -1      1939 1.41474E+01
 -1      1940 1.41474E+01
 -1      1941 1.41474E+01
 -1      1942 1.41474E+01
 -1      1943 1.66184E+01
 -1      1944 1.41474E+01
 -1      1945 1.66184E+01
 -1      1946 4.51176E+00
 -1      1947 4.51176E+00
 -1      1948 4.51176E+00
 -1      1949 4.51176E+00
 -1      1950 9.32957E+00
 -1      1951 4.51176E+00
 -1      1952 9.32957E+00
 -1      1953 1.83927E+00
 -1      1954 1.83927E+00
 -1      1955 2.02334E+00
 -1      1956 2.02334E+00
 -1      1957 3.17552E+00
 -1      1958 1.83927E+00
 -1      1959 3.17552E+00
 -1      1960 1.77357E+00
 -1      1961 1.77357E+00
 -1      1962 1.90952E+00
 -1      1963 1.90952E+00
 -1      1964 1.80642E+00
 -1      1965 1.77357E+00
 -1      1966 1.80642E+00
 -1      1967 1.62845E+00
 -1      1968 1.62845E+00
 -1      1969 1.71936E+00
 -1      1970 1.71936E+00
 -1      1971 1.70101E+00
 -1      1972 1.62845E+00
 -1      1973 1.70101E+00
 -1      1974 1.45833E+00
 -1      1975 1.45833E+00
 -1      1976 1.52380E+00
 -1      1977 1.52380E+00
 -1      1978 1.54339E+00
 -1      1979 1.45833E+00
 -1      1980 1.54339E+00
 -1      1981 1.35886E+00
 -1      1982 1.32401E+00
 -1      1983 1.45208E+00
 -1      1984 1.36176E+00
 -1      1985 1.40859E+00
 -1      1986 1.34144E+00
 -1      1987 1.39117E+00
 -1      1988 1.45480E+00
 -1      1989 1.29821E+00
 -1      1990 1.57129E+00
 -1      1991 1.30606E+00
 -1      1992 1.40683E+00
 -1      1993 1.37650E+00
 -1      1994 1.31111E+00
 -1      1995 1.57438E+00
 -1      1996 1.27655E+00
 -1      1997 1.69033E+00
 -1      1998 1.28721E+00
 -1      1999 1.51459E+00
 -1      2000 1.42546E+00
 -1      2001 1.28738E+00
 -1      2002 1.72360E+00
 -1      2003 1.27803E+00
 -1      2004 1.86390E+00
 -1      2005 1.28334E+00
 -1      2006 1.64899E+00
 -1      2007 1.50081E+00
 -1      2008 1.27729E+00
 -1      2009 2.08036E+00
 -1      2010 1.30276E+00
 -1      2011 2.15350E+00
 -1      2012 1.30276E+00
 -1      2013 1.90198E+00
 -1      2014 1.69156E+00
 -1      2015 1.29039E+00
 -1      2016 2.59827E+00
 -1      2017 1.47957E+00
 -1      2018 2.59827E+00
 -1      2019 1.47957E+00
 -1      2020 2.33931E+00
 -1      2021 2.03892E+00
 -1      2022 1.39116E+00
 -1      2023 3.65858E+00
 -1      2024 1.88319E+00
 -1      2025 3.65858E+00
 -1      2026 1.88319E+00
 -1      2027 3.12842E+00
 -1      2028 2.77088E+00
 -1      2029 1.68138E+00
 -1      2030 5.12993E+00
 -1      2031 3.43969E+00
 -1      2032 5.12993E+00
 -1      2033 3.43969E+00
 -1      2034 4.39426E+00
 -1      2035 4.28481E+00
 -1      2036 2.66144E+00
 -1      2037 9.71451E+00
 -1      2038 9.71451E+00
 -1      2039 9.71451E+00
 -1      2040 9.71451E+00
 -1      2041 7.42222E+00
 -1      2042 9.71451E+00
 -1      2043 6.57710E+00
 -1      2044 9.71451E+00
 -1      2045 9.71451E+00
 -1      2046 9.71451E+00
 -1      2047 9.71451E+00
 -1      2048 9.71451E+00
 -1      2049 9.71451E+00
 -1      2050 9.71451E+00
 -1      2051 1.16569E+01
 -1      2052 1.16569E+01
 -1      2053 1.16569E+01
 -1      2054 1.16569E+01
 -1      2055 1.07164E+01
 -1      2056 1.16569E+01
 -1      2057 1.07164E+01
 -1      2058 1.16569E+01
 -1      2059 1.16569E+01
 -1      2060 1.07164E+01
 -1      2061 1.16569E+01
 -1      2062 1.07164E+01
 -1      2063 8.51813E+00
 -1      2064 8.51813E+00
 -1      2065 1.00875E+01
 -1      2066 6.98623E+00
 -1      2067 8.51813E+00
 -1      2068 1.00875E+01
 -1      2069 6.98623E+00
 -1      2070 6.13729E+00
 -1      2071 6.13729E+00
 -1      2072 7.32771E+00
 -1      2073 5.07661E+00
 -1      2074 6.13729E+00
 -1      2075 7.32771E+00
 -1      2076 5.07661E+00
 -1      2077 4.59034E+00
 -1      2078 4.75860E+00
 -1      2079 5.36382E+00
 -1      2080 3.78179E+00
 -1      2081 4.67447E+00
 -1      2082 5.44795E+00
 -1      2083 3.86592E+00
 -1      2084 3.64795E+00
 -1      2085 4.18098E+00
 -1      2086 4.11914E+00
 -1      2087 3.05449E+00
 -1      2088 3.91447E+00
 -1      2089 4.46979E+00
 -1      2090 3.40160E+00
 -1      2091 3.19681E+00
 -1      2092 3.61968E+00
 -1      2093 3.42238E+00
 -1      2094 2.65321E+00
 -1      2095 3.40825E+00
 -1      2096 3.90033E+00
 -1      2097 3.01587E+00
 -1      2098 2.82961E+00
 -1      2099 3.20887E+00
 -1      2100 3.01321E+00
 -1      2101 2.41072E+00
 -1      2102 3.01924E+00
 -1      2103 3.41428E+00
 -1      2104 2.71926E+00
 -1      2105 2.51077E+00
 -1      2106 2.78240E+00
 -1      2107 2.67019E+00
 -1      2108 2.19356E+00
 -1      2109 2.64658E+00
 -1      2110 2.99563E+00
 -1      2111 2.46165E+00
 -1      2112 2.06280E+00
 -1      2113 2.30962E+00
 -1      2114 2.28678E+00
 -1      2115 1.93034E+00
 -1      2116 2.18621E+00
 -1      2117 2.54601E+00
 -1      2118 2.15758E+00
 -1      2119 1.60734E+00
 -1      2120 1.83145E+00
 -1      2121 1.83507E+00
 -1      2122 1.81907E+00
 -1      2123 1.71939E+00
 -1      2124 2.07053E+00
 -1      2125 2.00965E+00
 -1      2126 1.31831E+00
 -1      2127 1.52542E+00
 -1      2128 1.46282E+00
 -1      2129 1.80223E+00
 -1      2130 1.42186E+00
 -1      2131 1.67843E+00
 -1      2132 2.01947E+00
 -1      2133 1.21417E+00
 -1      2134 1.26704E+00
 -1      2135 1.26624E+00
 -1      2136 1.85976E+00
 -1      2137 1.24060E+00
 -1      2138 1.39623E+00
 -1      2139 2.06464E+00
 -1      2140 1.24417E+00
 -1      2141 1.24417E+00
 -1      2142 1.22917E+00
 -1      2143 2.13848E+00
 -1      2144 1.24417E+00
 -1      2145 1.25560E+00
 -1      2146 2.25029E+00
 -1      2147 4.13051E+00
 -1      2148 4.13051E+00
 -1      2149 2.68734E+00
 -1      2150 6.18673E+00
 -1      2151 4.13051E+00
 -1      2152 2.68734E+00
 -1      2153 6.18673E+00
 -1      2154 7.21598E+00
 -1      2155 7.21598E+00
 -1      2156 5.67324E+00
 -1      2157 1.31527E+01
 -1      2158 7.21598E+00
 -1      2159 5.67324E+00
 -1      2160 1.31527E+01
 -1      2161 7.21598E+00
 -1      2162 7.21598E+00
 -1      2163 7.21598E+00
 -1      2164 1.31527E+01
 -1      2165 7.21598E+00
 -1      2166 7.21598E+00
 -1      2167 1.31527E+01
 -1      2168 5.75973E+00
 -1      2169 5.75973E+00
 -1      2170 6.48786E+00
 -1      2171 9.95356E+00
 -1      2172 5.75973E+00
 -1      2173 6.48786E+00
 -1      2174 9.95356E+00
 -1      2175 2.58621E+00
 -1      2176 2.58621E+00
 -1      2177 4.17297E+00
 -1      2178 3.54899E+00
 -1      2179 2.58621E+00
 -1      2180 4.17297E+00
 -1      2181 3.54899E+00
 -1      2182 1.02764E+00
 -1      2183 1.06808E+00
 -1      2184 1.80693E+00
 -1      2185 1.43346E+00
 -1      2186 1.04786E+00
 -1      2187 1.82715E+00
 -1      2188 1.63775E+00
 -1      2189 1.15933E+00
 -1      2190 1.20309E+00
 -1      2191 1.09349E+00
 -1      2192 1.46645E+00
 -1      2193 1.18121E+00
 -1      2194 1.13559E+00
 -1      2195 1.62428E+00
 -1      2196 1.24719E+00
 -1      2197 1.28589E+00
 -1      2198 1.20326E+00
 -1      2199 1.43782E+00
 -1      2200 1.26654E+00
 -1      2201 1.24449E+00
 -1      2202 1.54808E+00
 -1      2203 1.30526E+00
 -1      2204 1.38818E+00
 -1      2205 1.27623E+00
 -1      2206 1.38179E+00
 -1      2207 1.34672E+00
 -1      2208 1.33703E+00
 -1      2209 1.48872E+00
 -1      2210 1.71987E+00
 -1      2211 1.93445E+00
 -1      2212 1.51256E+00
 -1      2213 1.53936E+00
 -1      2214 1.82716E+00
 -1      2215 1.66131E+00
 -1      2216 1.73987E+00
 -1      2217 2.12242E+00
 -1      2218 2.35906E+00
 -1      2219 1.92114E+00
 -1      2220 1.78861E+00
 -1      2221 2.24074E+00
 -1      2222 2.14675E+00
 -1      2223 2.02342E+00
 -1      2224 2.40565E+00
 -1      2225 2.77156E+00
 -1      2226 2.26404E+00
 -1      2227 1.99002E+00
 -1      2228 2.58861E+00
 -1      2229 2.56531E+00
 -1      2230 2.28892E+00
 -1      2231 2.77200E+00
 -1      2232 3.15479E+00
 -1      2233 2.58882E+00
 -1      2234 2.24780E+00
 -1      2235 2.96339E+00
 -1      2236 2.96318E+00
 -1      2237 2.57950E+00
 -1      2238 3.21918E+00
 -1      2239 3.72067E+00
 -1      2240 2.99559E+00
 -1      2241 2.64977E+00
 -1      2242 3.46993E+00
 -1      2243 3.43773E+00
 -1      2244 2.97366E+00
 -1      2245 4.12484E+00
 -1      2246 4.26896E+00
 -1      2247 3.67201E+00
 -1      2248 3.36156E+00
 -1      2249 4.19690E+00
 -1      2250 3.99482E+00
 -1      2251 3.43361E+00
 -1      2252 5.55906E+00
 -1      2253 5.55906E+00
 -1      2254 4.84195E+00
 -1      2255 4.60882E+00
 -1      2256 5.55906E+00
 -1      2257 4.91401E+00
 -1      2258 4.60882E+00
 -1      2259 7.88481E+00
 -1      2260 7.88481E+00
 -1      2261 6.72194E+00
 -1      2262 6.50737E+00
 -1      2263 7.88481E+00
 -1      2264 6.72194E+00
 -1      2265 6.50737E+00
 -1      2266 1.11049E+01
 -1      2267 1.11049E+01
 -1      2268 9.49487E+00
 -1      2269 1.04097E+01
 -1      2270 1.11049E+01
 -1      2271 9.49487E+00
 -1      2272 1.04097E+01
 -1      2273 1.11049E+01
 -1      2274 1.11049E+01
 -1      2275 1.11049E+01
 -1      2276 1.04097E+01
 -1      2277 1.11049E+01
 -1      2278 1.11049E+01
 -1      2279 1.04097E+01
 -1      2280 8.47991E+00
 -1      2281 8.47991E+00
 -1      2282 1.00684E+01
 -1      2283 1.00684E+01
 -1      2284 7.93042E+00
 -1      2285 8.47991E+00
 -1      2286 7.93042E+00
 -1      2287 5.88266E+00
 -1      2288 7.20039E+00
 -1      2289 7.18129E+00
 -1      2290 4.56839E+00
 -1      2291 5.24947E+00
 -1      2292 5.69338E+00
 -1      2293 5.56607E+00
 -1      2294 4.25180E+00
 -1      2295 4.75860E+00
 -1      2296 4.75860E+00
 -1      2297 5.00404E+00
 -1      2298 3.78789E+00
 -1      2299 4.25537E+00
 -1      2300 4.21818E+00
 -1      2301 4.50699E+00
 -1      2302 3.43879E+00
 -1      2303 3.84542E+00
 -1      2304 3.73255E+00
 -1      2305 4.05040E+00
 -1      2306 3.15142E+00
 -1      2307 3.45359E+00
 -1      2308 3.33123E+00
 -1      2309 3.64951E+00
 -1      2310 2.91116E+00
 -1      2311 2.99201E+00
 -1      2312 2.88720E+00
 -1      2313 3.22280E+00
 -1      2314 2.63272E+00
 -1      2315 2.48729E+00
 -1      2316 2.39845E+00
 -1      2317 2.73965E+00
 -1      2318 2.32681E+00
 -1      2319 1.98739E+00
 -1      2320 1.90942E+00
 -1      2321 2.23734E+00
 -1      2322 2.12070E+00
 -1      2323 1.70109E+00
 -1      2324 1.61326E+00
 -1      2325 1.84424E+00
 -1      2326 2.15714E+00
 -1      2327 1.30391E+00
 -1      2328 1.28547E+00
 -1      2329 1.50250E+00
 -1      2330 2.16726E+00
 -1      2331 1.13738E+00
 -1      2332 1.19078E+00
 -1      2333 1.22065E+00
 -1      2334 2.26895E+00
 -1      2335 3.75170E+00
 -1      2336 3.94110E+00
 -1      2337 2.44454E+00
 -1      2338 5.38252E+00
 -1      2339 7.11882E+00
 -1      2340 7.16740E+00
 -1      2341 5.43526E+00
 -1      2342 1.31583E+01
 -1      2343 7.11882E+00
 -1      2344 7.16740E+00
 -1      2345 7.11882E+00
 -1      2346 1.31583E+01
 -1      2347 5.55831E+00
 -1      2348 5.65902E+00
 -1      2349 6.33857E+00
 -1      2350 9.49564E+00
 -1      2351 2.11554E+00
 -1      2352 2.35088E+00
 -1      2353 3.83693E+00
 -1      2354 3.07115E+00
 -1      2355 1.10189E+00
 -1      2356 1.08499E+00
 -1      2357 1.60872E+00
 -1      2358 1.76017E+00
 -1      2359 1.23332E+00
 -1      2360 1.21821E+00
 -1      2361 1.16760E+00
 -1      2362 1.70247E+00
 -1      2363 1.31254E+00
 -1      2364 1.29921E+00
 -1      2365 1.27293E+00
 -1      2366 1.60016E+00
 -1      2367 1.51864E+00
 -1      2368 1.45341E+00
 -1      2369 1.41559E+00
 -1      2370 1.58153E+00
 -1      2371 2.09269E+00
 -1      2372 2.01357E+00
 -1      2373 1.80566E+00
 -1      2374 1.88817E+00
 -1      2375 2.56240E+00
 -1      2376 2.46073E+00
 -1      2377 2.32754E+00
 -1      2378 2.18367E+00
 -1      2379 2.98740E+00
 -1      2380 2.87948E+00
 -1      2381 2.77490E+00
 -1      2382 2.45882E+00
 -1      2383 3.37791E+00
 -1      2384 3.26635E+00
 -1      2385 3.18266E+00
 -1      2386 2.70750E+00
 -1      2387 3.76747E+00
 -1      2388 3.74407E+00
 -1      2389 3.57269E+00
 -1      2390 2.99705E+00
 -1      2391 4.26896E+00
 -1      2392 4.26896E+00
 -1      2393 4.01822E+00
 -1      2394 3.35231E+00
 -1      2395 4.72784E+00
 -1      2396 5.14345E+00
 -1      2397 4.49840E+00
 -1      2398 3.80913E+00
 -1      2399 5.24935E+00
 -1      2400 6.56708E+00
 -1      2401 4.98859E+00
 -1      2402 4.06989E+00
 -1      2403 7.78051E+00
 -1      2404 9.44272E+00
 -1      2405 6.51493E+00
 -1      2406 7.52503E+00
 -1      2407 7.78051E+00
 -1      2408 9.44272E+00
 -1      2409 7.78051E+00
 -1      2410 7.52503E+00
 -1      2411 7.52685E+00
 -1      2412 7.52685E+00
 -1      2413 8.00338E+00
 -1      2414 8.00338E+00
 -1      2415 7.50137E+00
 -1      2416 7.52685E+00
 -1      2417 7.50137E+00
 -1      2418 4.79701E+00
 -1      2419 5.33984E+00
 -1      2420 6.16193E+00
 -1      2421 3.68736E+00
 -1      2422 4.54492E+00
 -1      2423 4.89720E+00
 -1      2424 4.67097E+00
 -1      2425 3.56132E+00
 -1      2426 4.51597E+00
 -1      2427 4.63729E+00
 -1      2428 4.53045E+00
 -1      2429 3.51539E+00
 -1      2430 4.25537E+00
 -1      2431 4.25537E+00
 -1      2432 4.38567E+00
 -1      2433 3.38509E+00
 -1      2434 3.89269E+00
 -1      2435 3.86905E+00
 -1      2436 4.07403E+00
 -1      2437 3.17505E+00
 -1      2438 3.53769E+00
 -1      2439 3.49564E+00
 -1      2440 3.71519E+00
 -1      2441 2.95915E+00
 -1      2442 3.09103E+00
 -1      2443 3.04152E+00
 -1      2444 3.31436E+00
 -1      2445 2.70457E+00
 -1      2446 2.54306E+00
 -1      2447 2.51518E+00
 -1      2448 2.81705E+00
 -1      2449 2.38244E+00
 -1      2450 2.04789E+00
 -1      2451 2.01764E+00
 -1      2452 2.29548E+00
 -1      2453 2.16179E+00
 -1      2454 1.75574E+00
 -1      2455 1.72842E+00
 -1      2456 1.90182E+00
 -1      2457 2.19993E+00
 -1      2458 1.31300E+00
 -1      2459 1.30845E+00
 -1      2460 1.53437E+00
 -1      2461 2.19310E+00
 -1      2462 1.14397E+00
 -1      2463 1.14068E+00
 -1      2464 1.22848E+00
 -1      2465 2.28480E+00
 -1      2466 3.38766E+00
 -1      2467 3.56968E+00
 -1      2468 2.26582E+00
 -1      2469 5.26002E+00
 -1      2470 6.91715E+00
 -1      2471 7.01799E+00
 -1      2472 5.15240E+00
 -1      2473 1.35525E+01
 -1      2474 6.91715E+00
 -1      2475 7.01799E+00
 -1      2476 6.91715E+00
 -1      2477 1.35525E+01
 -1      2478 5.31281E+00
 -1      2479 5.43556E+00
 -1      2480 6.11498E+00
 -1      2481 9.54624E+00
 -1      2482 1.72282E+00
 -1      2483 1.91918E+00
 -1      2484 3.51782E+00
 -1      2485 2.89263E+00
 -1      2486 1.10815E+00
 -1      2487 1.10502E+00
 -1      2488 1.41549E+00
 -1      2489 1.78712E+00
 -1      2490 1.24104E+00
 -1      2491 1.23718E+00
 -1      2492 1.17459E+00
 -1      2493 1.72222E+00
 -1      2494 1.32117E+00
 -1      2495 1.31685E+00
 -1      2496 1.28110E+00
 -1      2497 1.61715E+00
 -1      2498 1.55393E+00
 -1      2499 1.53629E+00
 -1      2500 1.43755E+00
 -1      2501 1.60819E+00
 -1      2502 2.14789E+00
 -1      2503 2.12029E+00
 -1      2504 1.85091E+00
 -1      2505 1.93968E+00
 -1      2506 2.64855E+00
 -1      2507 2.60547E+00
 -1      2508 2.39822E+00
 -1      2509 2.24701E+00
 -1      2510 3.06140E+00
 -1      2511 3.02440E+00
 -1      2512 2.85497E+00
 -1      2513 2.49673E+00
 -1      2514 3.40425E+00
 -1      2515 3.39108E+00
 -1      2516 3.23283E+00
 -1      2517 2.72067E+00
 -1      2518 3.76747E+00
 -1      2519 3.76747E+00
 -1      2520 3.58586E+00
 -1      2521 2.94016E+00
 -1      2522 4.01677E+00
 -1      2523 4.14286E+00
 -1      2524 3.89212E+00
 -1      2525 3.06481E+00
 -1      2526 4.03248E+00
 -1      2527 4.38016E+00
 -1      2528 4.02462E+00
 -1      2529 3.12286E+00
 -1      2530 4.24057E+00
 -1      2531 4.74496E+00
 -1      2532 4.13653E+00
 -1      2533 3.22690E+00
 -1      2534 6.79623E+00
 -1      2535 7.28837E+00
 -1      2536 5.51840E+00
 -1      2537 7.08202E+00
 -1      2538 6.79623E+00
 -1      2539 7.28837E+00
 -1      2540 6.79623E+00
 -1      2541 7.08202E+00
 -1      2542 7.48396E+00
 -1      2543 7.48396E+00
 -1      2544 7.50541E+00
 -1      2545 7.50541E+00
 -1      2546 7.47993E+00
 -1      2547 7.48396E+00
 -1      2548 7.47993E+00
 -1      2549 4.60827E+00
 -1      2550 4.70264E+00
 -1      2551 6.04612E+00
 -1      2552 3.46771E+00
 -1      2553 4.26010E+00
 -1      2554 4.40251E+00
 -1      2555 4.43419E+00
 -1      2556 3.29362E+00
 -1      2557 4.26010E+00
 -1      2558 4.38803E+00
 -1      2559 4.26010E+00
 -1      2560 3.31538E+00
 -1      2561 4.16716E+00
 -1      2562 4.21127E+00
 -1      2563 4.21363E+00
 -1      2564 3.28309E+00
 -1      2565 3.89269E+00
 -1      2566 3.89269E+00
 -1      2567 4.02992E+00
 -1      2568 3.14586E+00
 -1      2569 3.53769E+00
 -1      2570 3.53769E+00
 -1      2571 3.71519E+00
 -1      2572 2.95915E+00
 -1      2573 3.09103E+00
 -1      2574 3.09103E+00
 -1      2575 3.31436E+00
 -1      2576 2.70457E+00
 -1      2577 2.54306E+00
 -1      2578 2.54306E+00
 -1      2579 2.81705E+00
 -1      2580 2.38244E+00
 -1      2581 2.04789E+00
 -1      2582 2.04789E+00
 -1      2583 2.29548E+00
 -1      2584 2.16179E+00
 -1      2585 1.75574E+00
 -1      2586 1.75574E+00
 -1      2587 1.90182E+00
 -1      2588 2.19993E+00
 -1      2589 1.31300E+00
 -1      2590 1.31300E+00
 -1      2591 1.53437E+00
 -1      2592 2.19310E+00
 -1      2593 1.14397E+00
 -1      2594 1.14397E+00
 -1      2595 1.22848E+00
 -1      2596 2.28480E+00
 -1      2597 3.08107E+00
 -1      2598 3.23437E+00
 -1      2599 2.11252E+00
 -1      2600 5.10672E+00
 -1      2601 6.66874E+00
 -1      2602 6.79294E+00
 -1      2603 4.87491E+00
 -1      2604 1.34283E+01
 -1      2605 6.66874E+00
 -1      2606 6.79294E+00
 -1      2607 6.66874E+00
 -1      2608 1.34283E+01
 -1      2609 5.06723E+00
 -1      2610 5.19002E+00
 -1      2611 5.86798E+00
 -1      2612 9.42344E+00
 -1      2613 1.43078E+00
 -1      2614 1.57680E+00
 -1      2615 3.24900E+00
 -1      2616 2.74661E+00
 -1      2617 1.10815E+00
 -1      2618 1.10815E+00
 -1      2619 1.26947E+00
 -1      2620 1.78712E+00
 -1      2621 1.24104E+00
 -1      2622 1.24104E+00
 -1      2623 1.17459E+00
 -1      2624 1.72222E+00
 -1      2625 1.32117E+00
 -1      2626 1.32117E+00
 -1      2627 1.28110E+00
 -1      2628 1.61715E+00
 -1      2629 1.55393E+00
 -1      2630 1.55393E+00
 -1      2631 1.43755E+00
 -1      2632 1.60819E+00
 -1      2633 2.14789E+00
 -1      2634 2.14789E+00
 -1      2635 1.85091E+00
 -1      2636 1.93968E+00
 -1      2637 2.64855E+00
 -1      2638 2.64855E+00
 -1      2639 2.39822E+00
 -1      2640 2.24701E+00
 -1      2641 3.06140E+00
 -1      2642 3.06140E+00
 -1      2643 2.85497E+00
 -1      2644 2.49673E+00
 -1      2645 3.40425E+00
 -1      2646 3.40425E+00
 -1      2647 3.23283E+00
 -1      2648 2.68844E+00
 -1      2649 3.66951E+00
 -1      2650 3.71849E+00
 -1      2651 3.53688E+00
 -1      2652 2.82107E+00
 -1      2653 3.76323E+00
 -1      2654 3.89000E+00
 -1      2655 3.71637E+00
 -1      2656 2.86461E+00
 -1      2657 3.76323E+00
 -1      2658 3.89785E+00
 -1      2659 3.76323E+00
 -1      2660 2.86598E+00
 -1      2661 4.09824E+00
 -1      2662 4.16940E+00
 -1      2663 3.93073E+00
 -1      2664 3.03349E+00
 -1      2665 6.78301E+00
 -1      2666 6.78962E+00
 -1      2667 5.44062E+00
 -1      2668 7.07541E+00
 -1      2669 6.78301E+00
 -1      2670 6.78962E+00
 -1      2671 6.78301E+00
 -1      2672 7.07541E+00
 -1      2673 7.52685E+00
 -1      2674 7.52685E+00
 -1      2675 7.50541E+00
 -1      2676 7.50541E+00
 -1      2677 7.50137E+00
 -1      2678 7.52685E+00
 -1      2679 7.50137E+00
 -1      2680 4.79701E+00
 -1      2681 4.70264E+00
 -1      2682 6.16193E+00
 -1      2683 3.68736E+00
 -1      2684 4.54492E+00
 -1      2685 4.40251E+00
 -1      2686 4.67097E+00
 -1      2687 3.56132E+00
 -1      2688 4.51597E+00
 -1      2689 4.38803E+00
 -1      2690 4.53045E+00
 -1      2691 3.51539E+00
 -1      2692 4.25537E+00
 -1      2693 4.21127E+00
 -1      2694 4.38567E+00
 -1      2695 3.38509E+00
 -1      2696 3.89269E+00
 -1      2697 3.89269E+00
 -1      2698 4.07403E+00
 -1      2699 3.17505E+00
 -1      2700 3.53769E+00
 -1      2701 3.53769E+00
 -1      2702 3.71519E+00
 -1      2703 2.95915E+00
 -1      2704 3.09103E+00
 -1      2705 3.09103E+00
 -1      2706 3.31436E+00
 -1      2707 2.70457E+00
 -1      2708 2.54306E+00
 -1      2709 2.54306E+00
 -1      2710 2.81705E+00
 -1      2711 2.38244E+00
 -1      2712 2.04789E+00
 -1      2713 2.04789E+00
 -1      2714 2.29548E+00
 -1      2715 2.16179E+00
 -1      2716 1.75574E+00
 -1      2717 1.75574E+00
 -1      2718 1.90182E+00
 -1      2719 2.19993E+00
 -1      2720 1.31300E+00
 -1      2721 1.31300E+00
 -1      2722 1.53437E+00
 -1      2723 2.19310E+00
 -1      2724 1.14397E+00
 -1      2725 1.14397E+00
 -1      2726 1.22848E+00
 -1      2727 2.28480E+00
 -1      2728 3.38766E+00
 -1      2729 3.23437E+00
 -1      2730 2.26582E+00
 -1      2731 5.26002E+00
 -1      2732 6.91715E+00
 -1      2733 6.79294E+00
 -1      2734 5.15240E+00
 -1      2735 1.35525E+01
 -1      2736 6.91715E+00
 -1      2737 6.79294E+00
 -1      2738 6.91715E+00
 -1      2739 1.35525E+01
 -1      2740 5.31281E+00
 -1      2741 5.19002E+00
 -1      2742 6.11498E+00
 -1      2743 9.54624E+00
 -1      2744 1.72282E+00
 -1      2745 1.57680E+00
 -1      2746 3.51782E+00
 -1      2747 2.89263E+00
 -1      2748 1.10815E+00
 -1      2749 1.10815E+00
 -1      2750 1.41549E+00
 -1      2751 1.78712E+00
 -1      2752 1.24104E+00
 -1      2753 1.24104E+00
 -1      2754 1.17459E+00
 -1      2755 1.72222E+00
 -1      2756 1.32117E+00
 -1      2757 1.32117E+00
 -1      2758 1.28110E+00
 -1      2759 1.61715E+00
 -1      2760 1.55393E+00
 -1      2761 1.55393E+00
 -1      2762 1.43755E+00
 -1      2763 1.60819E+00
 -1      2764 2.14789E+00
 -1      2765 2.14789E+00
 -1      2766 1.85091E+00
 -1      2767 1.93968E+00
 -1      2768 2.64855E+00
 -1      2769 2.64855E+00
 -1      2770 2.39822E+00
 -1      2771 2.24701E+00
 -1      2772 3.06140E+00
 -1      2773 3.06140E+00
 -1      2774 2.85497E+00
 -1      2775 2.49673E+00
 -1      2776 3.40425E+00
 -1      2777 3.40425E+00
 -1      2778 3.23283E+00
 -1      2779 2.72067E+00
 -1      2780 3.76747E+00
 -1      2781 3.71849E+00
 -1      2782 3.58586E+00
 -1      2783 2.94016E+00
 -1      2784 4.01677E+00
 -1      2785 3.89000E+00
 -1      2786 3.89212E+00
 -1      2787 3.06481E+00
 -1      2788 4.03248E+00
 -1      2789 3.89785E+00
 -1      2790 4.02462E+00
 -1      2791 3.12286E+00
 -1      2792 4.24057E+00
 -1      2793 4.16940E+00
 -1      2794 4.13653E+00
 -1      2795 3.22690E+00
 -1      2796 6.79623E+00
 -1      2797 6.78962E+00
 -1      2798 5.51840E+00
 -1      2799 7.08202E+00
 -1      2800 6.79623E+00
 -1      2801 6.78962E+00
 -1      2802 6.79623E+00
 -1      2803 7.08202E+00
 -1      2804 8.47991E+00
 -1      2805 8.47991E+00
 -1      2806 8.00338E+00
 -1      2807 8.00338E+00
 -1      2808 7.93042E+00
 -1      2809 8.47991E+00
 -1      2810 7.93042E+00
 -1      2811 5.88266E+00
 -1      2812 5.33984E+00
 -1      2813 7.18129E+00
 -1      2814 4.56839E+00
 -1      2815 5.24947E+00
 -1      2816 4.89720E+00
 -1      2817 5.56607E+00
 -1      2818 4.25180E+00
 -1      2819 4.75860E+00
 -1      2820 4.63729E+00
 -1      2821 5.00404E+00
 -1      2822 3.78789E+00
 -1      2823 4.25537E+00
 -1      2824 4.25537E+00
 -1      2825 4.50699E+00
 -1      2826 3.43879E+00
 -1      2827 3.84542E+00
 -1      2828 3.86905E+00
 -1      2829 4.05040E+00
 -1      2830 3.15142E+00
 -1      2831 3.45359E+00
 -1      2832 3.49564E+00
 -1      2833 3.64951E+00
 -1      2834 2.91116E+00
 -1      2835 2.99201E+00
 -1      2836 3.04152E+00
 -1      2837 3.22280E+00
 -1      2838 2.63272E+00
 -1      2839 2.48729E+00
 -1      2840 2.51518E+00
 -1      2841 2.73965E+00
 -1      2842 2.32681E+00
 -1      2843 1.98739E+00
 -1      2844 2.01764E+00
 -1      2845 2.23734E+00
 -1      2846 2.12070E+00
 -1      2847 1.70109E+00
 -1      2848 1.72842E+00
 -1      2849 1.84424E+00
 -1      2850 2.15714E+00
 -1      2851 1.30391E+00
 -1      2852 1.30845E+00
 -1      2853 1.50250E+00
 -1      2854 2.16726E+00
 -1      2855 1.13738E+00
 -1      2856 1.14068E+00
 -1      2857 1.22065E+00
 -1      2858 2.26895E+00
 -1      2859 3.75170E+00
 -1      2860 3.56968E+00
 -1      2861 2.44454E+00
 -1      2862 5.38252E+00
 -1      2863 7.11882E+00
 -1      2864 7.01799E+00
 -1      2865 5.43526E+00
 -1      2866 1.31583E+01
 -1      2867 7.11882E+00
 -1      2868 7.01799E+00
 -1      2869 7.11882E+00
 -1      2870 1.31583E+01
 -1      2871 5.55831E+00
 -1      2872 5.43556E+00
 -1      2873 6.33857E+00
 -1      2874 9.49564E+00
 -1      2875 2.11554E+00
 -1      2876 1.91918E+00
 -1      2877 3.83693E+00
 -1      2878 3.07115E+00
 -1      2879 1.10189E+00
 -1      2880 1.10502E+00
 -1      2881 1.60872E+00
 -1      2882 1.76017E+00
 -1      2883 1.23332E+00
 -1      2884 1.23718E+00
 -1      2885 1.16760E+00
 -1      2886 1.70247E+00
 -1      2887 1.31254E+00
 -1      2888 1.31685E+00
 -1      2889 1.27293E+00
 -1      2890 1.60016E+00
 -1      2891 1.51864E+00
 -1      2892 1.53629E+00
 -1      2893 1.41559E+00
 -1      2894 1.58153E+00
 -1      2895 2.09269E+00
 -1      2896 2.12029E+00
 -1      2897 1.80566E+00
 -1      2898 1.88817E+00
 -1      2899 2.56240E+00
 -1      2900 2.60547E+00
 -1      2901 2.32754E+00
 -1      2902 2.18367E+00
 -1      2903 2.98740E+00
 -1      2904 3.02440E+00
 -1      2905 2.77490E+00
 -1      2906 2.45882E+00
 -1      2907 3.37791E+00
 -1      2908 3.39108E+00
 -1      2909 3.18266E+00
 -1      2910 2.70750E+00
 -1      2911 3.76747E+00
 -1      2912 3.76747E+00
 -1      2913 3.57269E+00
 -1      2914 2.99705E+00
 -1      2915 4.26896E+00
 -1      2916 4.14286E+00
 -1      2917 4.01822E+00
 -1      2918 3.35231E+00
 -1      2919 4.72784E+00
 -1      2920 4.38016E+00
 -1      2921 4.49840E+00
 -1      2922 3.80913E+00
 -1      2923 5.24935E+00
 -1      2924 4.74496E+00
 -1      2925 4.98859E+00
 -1      2926 4.06989E+00
 -1      2927 7.78051E+00
 -1      2928 7.28837E+00
 -1      2929 6.51493E+00
 -1      2930 7.52503E+00
 -1      2931 7.78051E+00
 -1      2932 7.28837E+00
 -1      2933 7.78051E+00
 -1      2934 7.52503E+00
 -1      2935 1.16569E+01
 -1      2936 1.16569E+01
 -1      2937 1.00684E+01
 -1      2938 1.00684E+01
 -1      2939 1.07164E+01
 -1      2940 1.16569E+01
 -1      2941 1.07164E+01
 -1      2942 8.51813E+00
 -1      2943 7.20039E+00
 -1      2944 1.00875E+01
 -1      2945 6.98623E+00
 -1      2946 6.13729E+00
 -1      2947 5.69338E+00
 -1      2948 7.32771E+00
 -1      2949 5.07661E+00
 -1      2950 4.75860E+00
 -1      2951 4.75860E+00
 -1      2952 5.44795E+00
 -1      2953 3.86592E+00
 -1      2954 4.18098E+00
 -1      2955 4.21818E+00
 -1      2956 4.46979E+00
 -1      2957 3.40160E+00
 -1      2958 3.61968E+00
 -1      2959 3.73255E+00
 -1      2960 3.90033E+00
 -1      2961 3.01587E+00
 -1      2962 3.20887E+00
 -1      2963 3.33123E+00
 -1      2964 3.41428E+00
 -1      2965 2.71926E+00
 -1      2966 2.78240E+00
 -1      2967 2.88720E+00
 -1      2968 2.99563E+00
 -1      2969 2.46165E+00
 -1      2970 2.30962E+00
 -1      2971 2.39845E+00
 -1      2972 2.54601E+00
 -1      2973 2.15758E+00
 -1      2974 1.83145E+00
 -1      2975 1.90942E+00
 -1      2976 2.07053E+00
 -1      2977 2.00965E+00
 -1      2978 1.52542E+00
 -1      2979 1.61326E+00
 -1      2980 1.67843E+00
 -1      2981 2.01947E+00
 -1      2982 1.26704E+00
 -1      2983 1.28547E+00
 -1      2984 1.39623E+00
 -1      2985 2.06464E+00
 -1      2986 1.24417E+00
 -1      2987 1.19078E+00
 -1      2988 1.25560E+00
 -1      2989 2.25029E+00
 -1      2990 4.13051E+00
 -1      2991 3.94110E+00
 -1      2992 2.68734E+00
 -1      2993 6.18673E+00
 -1      2994 7.21598E+00
 -1      2995 7.16740E+00
 -1      2996 5.67324E+00
 -1      2997 1.31527E+01
 -1      2998 7.21598E+00
 -1      2999 7.16740E+00
 -1      3000 7.21598E+00
 -1      3001 1.31527E+01
 -1      3002 5.75973E+00
 -1      3003 5.65902E+00
 -1      3004 6.48786E+00
 -1      3005 9.95356E+00
 -1      3006 2.58621E+00
 -1      3007 2.35088E+00
 -1      3008 4.17297E+00
 -1      3009 3.54899E+00
 -1      3010 1.06808E+00
 -1      3011 1.08499E+00
 -1      3012 1.82715E+00
 -1      3013 1.63775E+00
 -1      3014 1.20309E+00
 -1      3015 1.21821E+00
 -1      3016 1.13559E+00
 -1      3017 1.62428E+00
 -1      3018 1.28589E+00
 -1      3019 1.29921E+00
 -1      3020 1.24449E+00
 -1      3021 1.54808E+00
 -1      3022 1.38818E+00
 -1      3023 1.45341E+00
 -1      3024 1.33703E+00
 -1      3025 1.48872E+00
 -1      3026 1.93445E+00
 -1      3027 2.01357E+00
 -1      3028 1.66131E+00
 -1      3029 1.73987E+00
 -1      3030 2.35906E+00
 -1      3031 2.46073E+00
 -1      3032 2.14675E+00
 -1      3033 2.02342E+00
 -1      3034 2.77156E+00
 -1      3035 2.87948E+00
 -1      3036 2.56531E+00
 -1      3037 2.28892E+00
 -1      3038 3.15479E+00
 -1      3039 3.26635E+00
 -1      3040 2.96318E+00
 -1      3041 2.57950E+00
 -1      3042 3.72067E+00
 -1      3043 3.74407E+00
 -1      3044 3.43773E+00
 -1      3045 2.97366E+00
 -1      3046 4.26896E+00
 -1      3047 4.26896E+00
 -1      3048 3.99482E+00
 -1      3049 3.43361E+00
 -1      3050 5.55906E+00
 -1      3051 5.14345E+00
 -1      3052 4.91401E+00
 -1      3053 4.60882E+00
 -1      3054 7.88481E+00
 -1      3055 6.56708E+00
 -1      3056 6.72194E+00
 -1      3057 6.50737E+00
 -1      3058 1.11049E+01
 -1      3059 9.44272E+00
 -1      3060 9.49487E+00
 -1      3061 1.04097E+01
 -1      3062 1.11049E+01
 -1      3063 9.44272E+00
 -1      3064 1.11049E+01
 -1      3065 1.04097E+01
 -1      3066 1.16569E+01
 -1      3067 1.16569E+01
 -1      3068 1.16569E+01
 -1      3069 1.16569E+01
 -1      3070 1.07164E+01
 -1      3071 1.16569E+01
 -1      3072 1.07164E+01
 -1      3073 8.51813E+00
 -1      3074 8.51813E+00
 -1      3075 1.00875E+01
 -1      3076 6.98623E+00
 -1      3077 6.13729E+00
 -1      3078 6.13729E+00
 -1      3079 7.32771E+00
 -1      3080 5.07661E+00
 -1      3081 4.59034E+00
 -1      3082 4.67447E+00
 -1      3083 5.36382E+00
 -1      3084 3.78179E+00
 -1      3085 3.64795E+00
 -1      3086 3.91447E+00
 -1      3087 4.11914E+00
 -1      3088 3.05449E+00
 -1      3089 3.19681E+00
 -1      3090 3.40825E+00
 -1      3091 3.42238E+00
 -1      3092 2.65321E+00
 -1      3093 2.82961E+00
 -1      3094 3.01924E+00
 -1      3095 3.01321E+00
 -1      3096 2.41072E+00
 -1      3097 2.51077E+00
 -1      3098 2.64658E+00
 -1      3099 2.67019E+00
 -1      3100 2.19356E+00
 -1      3101 2.06280E+00
 -1      3102 2.18621E+00
 -1      3103 2.28678E+00
 -1      3104 1.93034E+00
 -1      3105 1.60734E+00
 -1      3106 1.71939E+00
 -1      3107 1.83507E+00
 -1      3108 1.81907E+00
 -1      3109 1.31831E+00
 -1      3110 1.42186E+00
 -1      3111 1.46282E+00
 -1      3112 1.80223E+00
 -1      3113 1.21417E+00
 -1      3114 1.24060E+00
 -1      3115 1.26624E+00
 -1      3116 1.85976E+00
 -1      3117 1.24417E+00
 -1      3118 1.24417E+00
 -1      3119 1.22917E+00
 -1      3120 2.13848E+00
 -1      3121 4.13051E+00
 -1      3122 4.13051E+00
 -1      3123 2.68734E+00
 -1      3124 6.18673E+00
 -1      3125 7.21598E+00
 -1      3126 7.21598E+00
 -1      3127 5.67324E+00
 -1      3128 1.31527E+01
 -1      3129 7.21598E+00
 -1      3130 7.21598E+00
 -1      3131 7.21598E+00
 -1      3132 1.31527E+01
 -1      3133 5.75973E+00
 -1      3134 5.75973E+00
 -1      3135 6.48786E+00
 -1      3136 9.95356E+00
 -1      3137 2.58621E+00
 -1      3138 2.58621E+00
 -1      3139 4.17297E+00
 -1      3140 3.54899E+00
 -1      3141 1.02764E+00
 -1      3142 1.04786E+00
 -1      3143 1.80693E+00
 -1      3144 1.43346E+00
 -1      3145 1.15933E+00
 -1      3146 1.18121E+00
 -1      3147 1.09349E+00
 -1      3148 1.46645E+00
 -1      3149 1.24719E+00
 -1      3150 1.26654E+00
 -1      3151 1.20326E+00
 -1      3152 1.43782E+00
 -1      3153 1.30526E+00
 -1      3154 1.34672E+00
 -1      3155 1.27623E+00
 -1      3156 1.38179E+00
 -1      3157 1.71987E+00
 -1      3158 1.82716E+00
 -1      3159 1.51256E+00
 -1      3160 1.53936E+00
 -1      3161 2.12242E+00
 -1      3162 2.24074E+00
 -1      3163 1.92114E+00
 -1      3164 1.78861E+00
 -1      3165 2.40565E+00
 -1      3166 2.58861E+00
 -1      3167 2.26404E+00
 -1      3168 1.99002E+00
 -1      3169 2.77200E+00
 -1      3170 2.96339E+00
 -1      3171 2.58882E+00
 -1      3172 2.24780E+00
 -1      3173 3.21918E+00
 -1      3174 3.46993E+00
 -1      3175 2.99559E+00
 -1      3176 2.64977E+00
 -1      3177 4.12484E+00
 -1      3178 4.19690E+00
 -1      3179 3.67201E+00
 -1      3180 3.36156E+00
 -1      3181 5.55906E+00
 -1      3182 5.55906E+00
 -1      3183 4.84195E+00
 -1      3184 4.60882E+00
 -1      3185 7.88481E+00
 -1      3186 7.88481E+00
 -1      3187 6.72194E+00
 -1      3188 6.50737E+00
 -1      3189 1.11049E+01
 -1      3190 1.11049E+01
 -1      3191 9.49487E+00
 -1      3192 1.04097E+01
 -1      3193 1.11049E+01
 -1      3194 1.11049E+01
 -1      3195 1.11049E+01
 -1      3196 1.04097E+01
 -1      3197 2.06761E+01
 -1      3198 2.06761E+01
 -1      3199 2.06761E+01
 -1      3200 2.06761E+01
 -1      3201 1.61665E+01
 -1      3202 2.06761E+01
 -1      3203 1.61665E+01
 -1      3204 2.06761E+01
 -1      3205 2.06761E+01
 -1      3206 1.61665E+01
 -1      3207 2.06761E+01
 -1      3208 1.61665E+01
 -1      3209 1.59645E+01
 -1      3210 1.59645E+01
 -1      3211 1.83203E+01
 -1      3212 1.22413E+01
 -1      3213 1.59645E+01
 -1      3214 1.83203E+01
 -1      3215 1.22413E+01
 -1      3216 1.01669E+01
 -1      3217 1.01669E+01
 -1      3218 1.30657E+01
 -1      3219 8.15212E+00
 -1      3220 1.01669E+01
 -1      3221 1.30657E+01
 -1      3222 8.15212E+00
 -1      3223 7.05131E+00
 -1      3224 7.05131E+00
 -1      3225 8.60913E+00
 -1      3226 5.82082E+00
 -1      3227 7.05131E+00
 -1      3228 8.60913E+00
 -1      3229 5.90495E+00
 -1      3230 5.24412E+00
 -1      3231 5.70864E+00
 -1      3232 6.14771E+00
 -1      3233 4.44603E+00
 -1      3234 5.47638E+00
 -1      3235 6.37997E+00
 -1      3236 4.94481E+00
 -1      3237 4.55396E+00
 -1      3238 4.88732E+00
 -1      3239 4.89904E+00
 -1      3240 3.87539E+00
 -1      3241 4.72064E+00
 -1      3242 5.29798E+00
 -1      3243 4.25350E+00
 -1      3244 4.02996E+00
 -1      3245 4.25561E+00
 -1      3246 4.29196E+00
 -1      3247 3.42978E+00
 -1      3248 4.14278E+00
 -1      3249 4.57147E+00
 -1      3250 3.73224E+00
 -1      3251 3.41748E+00
 -1      3252 3.61186E+00
 -1      3253 3.72372E+00
 -1      3254 2.96412E+00
 -1      3255 3.51467E+00
 -1      3256 3.93373E+00
 -1      3257 3.19713E+00
 -1      3258 2.71989E+00
 -1      3259 2.87422E+00
 -1      3260 3.06869E+00
 -1      3261 2.39135E+00
 -1      3262 2.79706E+00
 -1      3263 3.24304E+00
 -1      3264 2.59192E+00
 -1      3265 1.94789E+00
 -1      3266 2.04697E+00
 -1      3267 2.33389E+00
 -1      3268 1.77762E+00
 -1      3269 1.99743E+00
 -1      3270 2.46060E+00
 -1      3271 1.93921E+00
 -1      3272 1.28928E+00
 -1      3273 1.29474E+00
 -1      3274 1.61858E+00
 -1      3275 1.30379E+00
 -1      3276 1.29201E+00
 -1      3277 1.67086E+00
 -1      3278 1.41008E+00
 -1      3279 1.12395E+00
 -1      3280 1.12395E+00
 -1      3281 1.20661E+00
 -1      3282 1.16906E+00
 -1      3283 1.12395E+00
 -1      3284 1.20935E+00
 -1      3285 1.19549E+00
 -1      3286 9.48120E-01
 -1      3287 9.48120E-01
 -1      3288 1.03604E+00
 -1      3289 1.09615E+00
 -1      3290 9.48120E-01
 -1      3291 1.03604E+00
 -1      3292 1.09615E+00
 -1      3293 1.03232E+00
 -1      3294 1.03232E+00
 -1      3295 9.90219E-01
 -1      3296 2.58141E+00
 -1      3297 1.03232E+00
 -1      3298 9.90219E-01
 -1      3299 2.58141E+00
 -1      3300 2.21815E+00
 -1      3301 2.21815E+00
 -1      3302 1.62523E+00
 -1      3303 4.71706E+00
 -1      3304 2.21815E+00
 -1      3305 1.62523E+00
 -1      3306 4.71706E+00
 -1      3307 2.21815E+00
 -1      3308 2.21815E+00
 -1      3309 2.21815E+00
 -1      3310 4.71706E+00
 -1      3311 2.21815E+00
 -1      3312 2.21815E+00
 -1      3313 4.71706E+00
 -1      3314 1.20624E+00
 -1      3315 1.20624E+00
 -1      3316 1.71219E+00
 -1      3317 3.48299E+00
 -1      3318 1.20624E+00
 -1      3319 1.71219E+00
 -1      3320 3.48299E+00
 -1      3321 9.01897E-01
 -1      3322 9.01897E-01
 -1      3323 1.05407E+00
 -1      3324 1.74405E+00
 -1      3325 9.01897E-01
 -1      3326 1.05407E+00
 -1      3327 1.74405E+00
 -1      3328 9.24818E-01
 -1      3329 9.24818E-01
 -1      3330 9.13357E-01
 -1      3331 9.76231E-01
 -1      3332 9.24818E-01
 -1      3333 9.13357E-01
 -1      3334 9.96451E-01
 -1      3335 1.09695E+00
 -1      3336 1.09695E+00
 -1      3337 1.01088E+00
 -1      3338 1.12814E+00
 -1      3339 1.09695E+00
 -1      3340 1.01088E+00
 -1      3341 1.15002E+00
 -1      3342 1.25812E+00
 -1      3343 1.26805E+00
 -1      3344 1.17753E+00
 -1      3345 1.25266E+00
 -1      3346 1.26309E+00
 -1      3347 1.18250E+00
 -1      3348 1.27697E+00
 -1      3349 1.75465E+00
 -1      3350 1.86961E+00
 -1      3351 1.50639E+00
 -1      3352 1.52996E+00
 -1      3353 1.81213E+00
 -1      3354 1.56883E+00
 -1      3355 1.62890E+00
 -1      3356 2.50234E+00
 -1      3357 2.66526E+00
 -1      3358 2.12850E+00
 -1      3359 2.11110E+00
 -1      3360 2.58380E+00
 -1      3361 2.26744E+00
 -1      3362 2.29985E+00
 -1      3363 3.17621E+00
 -1      3364 3.37392E+00
 -1      3365 2.83928E+00
 -1      3366 2.64932E+00
 -1      3367 3.27507E+00
 -1      3368 3.01959E+00
 -1      3369 2.86649E+00
 -1      3370 3.76636E+00
 -1      3371 4.00138E+00
 -1      3372 3.47129E+00
 -1      3373 3.08601E+00
 -1      3374 3.88387E+00
 -1      3375 3.68765E+00
 -1      3376 3.38647E+00
 -1      3377 4.26029E+00
 -1      3378 4.64683E+00
 -1      3379 4.01332E+00
 -1      3380 3.51614E+00
 -1      3381 4.45356E+00
 -1      3382 4.32411E+00
 -1      3383 3.90081E+00
 -1      3384 4.99382E+00
 -1      3385 5.44435E+00
 -1      3386 4.62705E+00
 -1      3387 4.10650E+00
 -1      3388 5.21908E+00
 -1      3389 5.04559E+00
 -1      3390 4.58251E+00
 -1      3391 6.73384E+00
 -1      3392 6.73384E+00
 -1      3393 5.86383E+00
 -1      3394 5.42934E+00
 -1      3395 6.73384E+00
 -1      3396 6.08909E+00
 -1      3397 5.50140E+00
 -1      3398 9.49601E+00
 -1      3399 9.49601E+00
 -1      3400 8.11493E+00
 -1      3401 7.52754E+00
 -1      3402 9.49601E+00
 -1      3403 8.11493E+00
 -1      3404 7.52754E+00
 -1      3405 1.44740E+01
 -1      3406 1.44740E+01
 -1      3407 1.19850E+01
 -1      3408 1.11794E+01
 -1      3409 1.44740E+01
 -1      3410 1.19850E+01
 -1      3411 1.11794E+01
 -1      3412 1.80534E+01
 -1      3413 1.80534E+01
 -1      3414 1.62637E+01
 -1      3415 1.45792E+01
 -1      3416 1.80534E+01
 -1      3417 1.62637E+01
 -1      3418 1.45792E+01
 -1      3419 1.80534E+01
 -1      3420 1.80534E+01
 -1      3421 1.80534E+01
 -1      3422 1.45792E+01
 -1      3423 1.80534E+01
 -1      3424 1.80534E+01
 -1      3425 1.45792E+01
 -1      3426 1.87156E+01
 -1      3427 1.87156E+01
 -1      3428 1.96958E+01
 -1      3429 1.96958E+01
 -1      3430 1.35977E+01
 -1      3431 1.87156E+01
 -1      3432 1.35977E+01
 -1      3433 1.18311E+01
 -1      3434 1.38978E+01
 -1      3435 1.52733E+01
 -1      3436 8.85690E+00
 -1      3437 8.50583E+00
 -1      3438 9.33639E+00
 -1      3439 1.01685E+01
 -1      3440 6.87765E+00
 -1      3441 7.01560E+00
 -1      3442 7.03345E+00
 -1      3443 7.76072E+00
 -1      3444 5.88710E+00
 -1      3445 5.97521E+00
 -1      3446 5.84192E+00
 -1      3447 6.49540E+00
 -1      3448 5.11529E+00
 -1      3449 5.24221E+00
 -1      3450 5.06477E+00
 -1      3451 5.60871E+00
 -1      3452 4.54381E+00
 -1      3453 4.50799E+00
 -1      3454 4.38180E+00
 -1      3455 4.87510E+00
 -1      3456 3.98079E+00
 -1      3457 3.77674E+00
 -1      3458 3.69430E+00
 -1      3459 4.14236E+00
 -1      3460 3.38437E+00
 -1      3461 2.95471E+00
 -1      3462 2.91447E+00
 -1      3463 3.36572E+00
 -1      3464 2.72100E+00
 -1      3465 2.04865E+00
 -1      3466 2.04781E+00
 -1      3467 2.50168E+00
 -1      3468 2.01802E+00
 -1      3469 1.29474E+00
 -1      3470 1.29474E+00
 -1      3471 1.67169E+00
 -1      3472 1.49792E+00
 -1      3473 1.11416E+00
 -1      3474 1.11906E+00
 -1      3475 1.20445E+00
 -1      3476 1.20903E+00
 -1      3477 9.20646E-01
 -1      3478 9.34383E-01
 -1      3479 1.01740E+00
 -1      3480 1.02901E+00
 -1      3481 9.66194E-01
 -1      3482 9.99256E-01
 -1      3483 9.43420E-01
 -1      3484 2.35895E+00
 -1      3485 2.09399E+00
 -1      3486 2.15607E+00
 -1      3487 1.53009E+00
 -1      3488 4.60641E+00
 -1      3489 2.09399E+00
 -1      3490 2.15607E+00
 -1      3491 2.09399E+00
 -1      3492 4.60641E+00
 -1      3493 1.16076E+00
 -1      3494 1.18350E+00
 -1      3495 1.62738E+00
 -1      3496 3.35954E+00
 -1      3497 8.31589E-01
 -1      3498 8.66743E-01
 -1      3499 9.96176E-01
 -1      3500 1.47357E+00
 -1      3501 9.05135E-01
 -1      3502 9.14976E-01
 -1      3503 8.68362E-01
 -1      3504 1.00351E+00
 -1      3505 1.09328E+00
 -1      3506 1.09511E+00
 -1      3507 9.99207E-01
 -1      3508 1.16330E+00
 -1      3509 1.26805E+00
 -1      3510 1.26805E+00
 -1      3511 1.18067E+00
 -1      3512 1.29029E+00
 -1      3513 1.90343E+00
 -1      3514 1.88652E+00
 -1      3515 1.58574E+00
 -1      3516 1.71103E+00
 -1      3517 2.76954E+00
 -1      3518 2.71740E+00
 -1      3519 2.33648E+00
 -1      3520 2.43111E+00
 -1      3521 3.55382E+00
 -1      3522 3.46387E+00
 -1      3523 3.16168E+00
 -1      3524 3.05811E+00
 -1      3525 4.25176E+00
 -1      3526 4.12657E+00
 -1      3527 3.90279E+00
 -1      3528 3.61958E+00
 -1      3529 4.96949E+00
 -1      3530 4.80816E+00
 -1      3531 4.61062E+00
 -1      3532 4.17370E+00
 -1      3533 5.67993E+00
 -1      3534 5.56214E+00
 -1      3535 5.32471E+00
 -1      3536 4.72370E+00
 -1      3537 6.62644E+00
 -1      3538 6.68014E+00
 -1      3539 6.15318E+00
 -1      3540 5.44770E+00
 -1      3541 7.89755E+00
 -1      3542 8.69678E+00
 -1      3543 7.26199E+00
 -1      3544 6.31269E+00
 -1      3545 1.08314E+01
 -1      3546 1.26527E+01
 -1      3547 9.36448E+00
 -1      3548 8.04038E+00
 -1      3549 1.65330E+01
 -1      3550 1.72932E+01
 -1      3551 1.36822E+01
 -1      3552 1.21568E+01
 -1      3553 1.65330E+01
 -1      3554 1.72932E+01
 -1      3555 1.65330E+01
 -1      3556 1.21568E+01
 -1      3557 1.68413E+01
 -1      3558 1.68413E+01
 -1      3559 1.77784E+01
 -1      3560 1.77784E+01
 -1      3561 1.21841E+01
 -1      3562 1.68413E+01
 -1      3563 1.21841E+01
 -1      3564 1.02899E+01
 -1      3565 1.10605E+01
 -1      3566 1.35656E+01
 -1      3567 7.54346E+00
 -1      3568 7.37464E+00
 -1      3569 7.94023E+00
 -1      3570 8.83228E+00
 -1      3571 5.95978E+00
 -1      3572 6.68680E+00
 -1      3573 6.85120E+00
 -1      3574 7.03072E+00
 -1      3575 5.60138E+00
 -1      3576 6.00650E+00
 -1      3577 5.99085E+00
 -1      3578 6.34665E+00
 -1      3579 5.13094E+00
 -1      3580 5.36045E+00
 -1      3581 5.30133E+00
 -1      3582 5.68348E+00
 -1      3583 4.62657E+00
 -1      3584 4.61522E+00
 -1      3585 4.56160E+00
 -1      3586 4.98783E+00
 -1      3587 4.07645E+00
 -1      3588 3.80432E+00
 -1      3589 3.79053E+00
 -1      3590 4.20977E+00
 -1      3591 3.44768E+00
 -1      3592 2.95471E+00
 -1      3593 2.95471E+00
 -1      3594 3.37951E+00
 -1      3595 2.74888E+00
 -1      3596 2.04865E+00
 -1      3597 2.04865E+00
 -1      3598 2.50168E+00
 -1      3599 2.04827E+00
 -1      3600 1.28218E+00
 -1      3601 1.28846E+00
 -1      3602 1.66541E+00
 -1      3603 1.51896E+00
 -1      3604 1.08838E+00
 -1      3605 1.10127E+00
 -1      3606 1.18528E+00
 -1      3607 1.20069E+00
 -1      3608 8.77919E-01
 -1      3609 8.99282E-01
 -1      3610 9.83151E-01
 -1      3611 1.01094E+00
 -1      3612 8.82864E-01
 -1      3613 9.24529E-01
 -1      3614 8.80392E-01
 -1      3615 2.13526E+00
 -1      3616 1.81365E+00
 -1      3617 1.95382E+00
 -1      3618 1.34826E+00
 -1      3619 4.36540E+00
 -1      3620 1.81365E+00
 -1      3621 1.95382E+00
 -1      3622 1.81365E+00
 -1      3623 4.36540E+00
 -1      3624 1.09534E+00
 -1      3625 1.12805E+00
 -1      3626 1.45449E+00
 -1      3627 3.20407E+00
 -1      3628 7.51333E-01
 -1      3629 7.91461E-01
 -1      3630 9.23337E-01
 -1      3631 1.23708E+00
 -1      3632 8.72099E-01
 -1      3633 8.88617E-01
 -1      3634 8.11716E-01
 -1      3635 9.90124E-01
 -1      3636 1.07435E+00
 -1      3637 1.08381E+00
 -1      3638 9.73224E-01
 -1      3639 1.15769E+00
 -1      3640 1.26166E+00
 -1      3641 1.26486E+00
 -1      3642 1.16800E+00
 -1      3643 1.29141E+00
 -1      3644 1.90343E+00
 -1      3645 1.90343E+00
 -1      3646 1.58254E+00
 -1      3647 1.72868E+00
 -1      3648 2.76954E+00
 -1      3649 2.76954E+00
 -1      3650 2.33648E+00
 -1      3651 2.45871E+00
 -1      3652 3.59692E+00
 -1      3653 3.57537E+00
 -1      3654 3.18323E+00
 -1      3655 3.12273E+00
 -1      3656 4.37184E+00
 -1      3657 4.31180E+00
 -1      3658 3.98438E+00
 -1      3659 3.71662E+00
 -1      3660 5.07596E+00
 -1      3661 5.02273E+00
 -1      3662 4.72390E+00
 -1      3663 4.24011E+00
 -1      3664 5.68776E+00
 -1      3665 5.68384E+00
 -1      3666 5.38186E+00
 -1      3667 4.72761E+00
 -1      3668 6.33297E+00
 -1      3669 6.47971E+00
 -1      3670 6.01037E+00
 -1      3671 5.17487E+00
 -1      3672 6.84922E+00
 -1      3673 7.37338E+00
 -1      3674 6.59109E+00
 -1      3675 5.44085E+00
 -1      3676 9.38940E+00
 -1      3677 1.01104E+01
 -1      3678 8.11931E+00
 -1      3679 6.81498E+00
 -1      3680 1.50035E+01
 -1      3681 1.57683E+01
 -1      3682 1.21964E+01
 -1      3683 1.08999E+01
 -1      3684 1.50035E+01
 -1      3685 1.57683E+01
 -1      3686 1.50035E+01
 -1      3687 1.08999E+01
 -1      3688 1.59494E+01
 -1      3689 1.59494E+01
 -1      3690 1.63954E+01
 -1      3691 1.63954E+01
 -1      3692 1.17167E+01
 -1      3693 1.59494E+01
 -1      3694 1.17167E+01
 -1      3695 9.59711E+00
 -1      3696 9.94351E+00
 -1      3697 1.27733E+01
 -1      3698 7.10269E+00
 -1      3699 6.75868E+00
 -1      3700 7.06666E+00
 -1      3701 8.17790E+00
 -1      3702 5.50939E+00
 -1      3703 6.46511E+00
 -1      3704 6.57595E+00
 -1      3705 6.61190E+00
 -1      3706 5.36260E+00
 -1      3707 6.00650E+00
 -1      3708 6.00650E+00
 -1      3709 6.23580E+00
 -1      3710 5.08683E+00
 -1      3711 5.36045E+00
 -1      3712 5.36045E+00
 -1      3713 5.68348E+00
 -1      3714 4.62657E+00
 -1      3715 4.61522E+00
 -1      3716 4.61522E+00
 -1      3717 4.98783E+00
 -1      3718 4.07645E+00
 -1      3719 3.80432E+00
 -1      3720 3.80432E+00
 -1      3721 4.20977E+00
 -1      3722 3.44768E+00
 -1      3723 2.90658E+00
 -1      3724 2.93064E+00
 -1      3725 3.35545E+00
 -1      3726 2.72482E+00
 -1      3727 1.92849E+00
 -1      3728 1.98857E+00
 -1      3729 2.41753E+00
 -1      3730 1.98819E+00
 -1      3731 1.26938E+00
 -1      3732 1.27578E+00
 -1      3733 1.59894E+00
 -1      3734 1.51256E+00
 -1      3735 1.07293E+00
 -1      3736 1.08066E+00
 -1      3737 1.17116E+00
 -1      3738 1.19297E+00
 -1      3739 8.30217E-01
 -1      3740 8.54068E-01
 -1      3741 9.51576E-01
 -1      3742 9.87093E-01
 -1      3743 7.98326E-01
 -1      3744 8.40595E-01
 -1      3745 8.14272E-01
 -1      3746 1.93970E+00
 -1      3747 1.45186E+00
 -1      3748 1.63276E+00
 -1      3749 1.12509E+00
 -1      3750 4.06030E+00
 -1      3751 1.45186E+00
 -1      3752 1.63276E+00
 -1      3753 1.45186E+00
 -1      3754 4.06030E+00
 -1      3755 1.02381E+00
 -1      3756 1.05958E+00
 -1      3757 1.23784E+00
 -1      3758 3.04552E+00
 -1      3759 6.74947E-01
 -1      3760 7.13140E-01
 -1      3761 8.49381E-01
 -1      3762 1.05286E+00
 -1      3763 8.47835E-01
 -1      3764 8.59967E-01
 -1      3765 7.61391E-01
 -1      3766 9.77992E-01
 -1      3767 1.05879E+00
 -1      3768 1.06657E+00
 -1      3769 9.53313E-01
 -1      3770 1.14991E+00
 -1      3771 1.23455E+00
 -1      3772 1.24811E+00
 -1      3773 1.14667E+00
 -1      3774 1.27786E+00
 -1      3775 1.81734E+00
 -1      3776 1.86039E+00
 -1      3777 1.52595E+00
 -1      3778 1.68564E+00
 -1      3779 2.74576E+00
 -1      3780 2.75765E+00
 -1      3781 2.28155E+00
 -1      3782 2.44683E+00
 -1      3783 3.59692E+00
 -1      3784 3.59692E+00
 -1      3785 3.17134E+00
 -1      3786 3.12273E+00
 -1      3787 4.37184E+00
 -1      3788 4.37184E+00
 -1      3789 3.98438E+00
 -1      3790 3.71662E+00
 -1      3791 5.07596E+00
 -1      3792 5.07596E+00
 -1      3793 4.72390E+00
 -1      3794 4.24011E+00
 -1      3795 5.68776E+00
 -1      3796 5.68776E+00
 -1      3797 5.38186E+00
 -1      3798 4.67863E+00
 -1      3799 6.10224E+00
 -1      3800 6.21761E+00
 -1      3801 5.89500E+00
 -1      3802 4.93273E+00
 -1      3803 6.27081E+00
 -1      3804 6.56001E+00
 -1      3805 6.18652E+00
 -1      3806 5.01702E+00
 -1      3807 8.77642E+00
 -1      3808 9.08291E+00
 -1      3809 7.52361E+00
 -1      3810 6.43733E+00
 -1      3811 1.42843E+01
 -1      3812 1.46439E+01
 -1      3813 1.15304E+01
 -1      3814 1.05337E+01
 -1      3815 1.42843E+01
 -1      3816 1.46439E+01
 -1      3817 1.42843E+01
 -1      3818 1.05337E+01
 -1      3819 1.68413E+01
 -1      3820 1.68413E+01
 -1      3821 1.63954E+01
 -1      3822 1.63954E+01
 -1      3823 1.21841E+01
 -1      3824 1.68413E+01
 -1      3825 1.21841E+01
 -1      3826 1.02899E+01
 -1      3827 9.94351E+00
 -1      3828 1.35656E+01
 -1      3829 7.54346E+00
 -1      3830 7.37464E+00
 -1      3831 7.06666E+00
 -1      3832 8.83228E+00
 -1      3833 5.95978E+00
 -1      3834 6.68680E+00
 -1      3835 6.57595E+00
 -1      3836 7.03072E+00
 -1      3837 5.60138E+00
 -1      3838 6.00650E+00
 -1      3839 6.00650E+00
 -1      3840 6.34665E+00
 -1      3841 5.13094E+00
 -1      3842 5.36045E+00
 -1      3843 5.36045E+00
 -1      3844 5.68348E+00
 -1      3845 4.62657E+00
 -1      3846 4.61522E+00
 -1      3847 4.61522E+00
 -1      3848 4.98783E+00
 -1      3849 4.07645E+00
 -1      3850 3.80432E+00
 -1      3851 3.80432E+00
 -1      3852 4.20977E+00
 -1      3853 3.44768E+00
 -1      3854 2.95471E+00
 -1      3855 2.93064E+00
 -1      3856 3.37951E+00
 -1      3857 2.74888E+00
 -1      3858 2.04865E+00
 -1      3859 1.98857E+00
 -1      3860 2.50168E+00
 -1      3861 2.04827E+00
 -1      3862 1.28218E+00
 -1      3863 1.27578E+00
 -1      3864 1.66541E+00
 -1      3865 1.51896E+00
 -1      3866 1.08838E+00
 -1      3867 1.08066E+00
 -1      3868 1.18528E+00
 -1      3869 1.20069E+00
 -1      3870 8.77919E-01
 -1      3871 8.54068E-01
 -1      3872 9.83151E-01
 -1      3873 1.01094E+00
 -1      3874 8.82864E-01
 -1      3875 8.40595E-01
 -1      3876 8.80392E-01
 -1      3877 2.13526E+00
 -1      3878 1.81365E+00
 -1      3879 1.63276E+00
 -1      3880 1.34826E+00
 -1      3881 4.36540E+00
 -1      3882 1.81365E+00
 -1      3883 1.63276E+00
 -1      3884 1.81365E+00
 -1      3885 4.36540E+00
 -1      3886 1.09534E+00
 -1      3887 1.05958E+00
 -1      3888 1.45449E+00
 -1      3889 3.20407E+00
 -1      3890 7.51333E-01
 -1      3891 7.13140E-01
 -1      3892 9.23337E-01
 -1      3893 1.23708E+00
 -1      3894 8.72099E-01
 -1      3895 8.59967E-01
 -1      3896 8.11716E-01
 -1      3897 9.90124E-01
 -1      3898 1.07435E+00
 -1      3899 1.06657E+00
 -1      3900 9.73224E-01
 -1      3901 1.15769E+00
 -1      3902 1.26166E+00
 -1      3903 1.24811E+00
 -1      3904 1.16800E+00
 -1      3905 1.29141E+00
 -1      3906 1.90343E+00
 -1      3907 1.86039E+00
 -1      3908 1.58254E+00
 -1      3909 1.72868E+00
 -1      3910 2.76954E+00
 -1      3911 2.75765E+00
 -1      3912 2.33648E+00
 -1      3913 2.45871E+00
 -1      3914 3.59692E+00
 -1      3915 3.59692E+00
 -1      3916 3.18323E+00
 -1      3917 3.12273E+00
 -1      3918 4.37184E+00
 -1      3919 4.37184E+00
 -1      3920 3.98438E+00
 -1      3921 3.71662E+00
 -1      3922 5.07596E+00
 -1      3923 5.07596E+00
 -1      3924 4.72390E+00
 -1      3925 4.24011E+00
 -1      3926 5.68776E+00
 -1      3927 5.68776E+00
 -1      3928 5.38186E+00
 -1      3929 4.72761E+00
 -1      3930 6.33297E+00
 -1      3931 6.21761E+00
 -1      3932 6.01037E+00
 -1      3933 5.17487E+00
 -1      3934 6.84922E+00
 -1      3935 6.56001E+00
 -1      3936 6.59109E+00
 -1      3937 5.44085E+00
 -1      3938 9.38940E+00
 -1      3939 9.08291E+00
 -1      3940 8.11931E+00
 -1      3941 6.81498E+00
 -1      3942 1.50035E+01
 -1      3943 1.46439E+01
 -1      3944 1.21964E+01
 -1      3945 1.08999E+01
 -1      3946 1.50035E+01
 -1      3947 1.46439E+01
 -1      3948 1.50035E+01
 -1      3949 1.08999E+01
 -1      3950 1.87156E+01
 -1      3951 1.87156E+01
 -1      3952 1.77784E+01
 -1      3953 1.77784E+01
 -1      3954 1.35977E+01
 -1      3955 1.87156E+01
 -1      3956 1.35977E+01
 -1      3957 1.18311E+01
 -1      3958 1.10605E+01
 -1      3959 1.52733E+01
 -1      3960 8.85690E+00
 -1      3961 8.50583E+00
 -1      3962 7.94023E+00
 -1      3963 1.01685E+01
 -1      3964 6.87765E+00
 -1      3965 7.01560E+00
 -1      3966 6.85120E+00
 -1      3967 7.76072E+00
 -1      3968 5.88710E+00
 -1      3969 5.97521E+00
 -1      3970 5.99085E+00
 -1      3971 6.49540E+00
 -1      3972 5.11529E+00
 -1      3973 5.24221E+00
 -1      3974 5.30133E+00
 -1      3975 5.60871E+00
 -1      3976 4.54381E+00
 -1      3977 4.50799E+00
 -1      3978 4.56160E+00
 -1      3979 4.87510E+00
 -1      3980 3.98079E+00
 -1      3981 3.77674E+00
 -1      3982 3.79053E+00
 -1      3983 4.14236E+00
 -1      3984 3.38437E+00
 -1      3985 2.95471E+00
 -1      3986 2.95471E+00
 -1      3987 3.36572E+00
 -1      3988 2.72100E+00
 -1      3989 2.04865E+00
 -1      3990 2.04865E+00
 -1      3991 2.50168E+00
 -1      3992 2.01802E+00
 -1      3993 1.29474E+00
 -1      3994 1.28846E+00
 -1      3995 1.67169E+00
 -1      3996 1.49792E+00
 -1      3997 1.11416E+00
 -1      3998 1.10127E+00
 -1      3999 1.20445E+00
 -1      4000 1.20903E+00
 -1      4001 9.20646E-01
 -1      4002 8.99282E-01
 -1      4003 1.01740E+00
 -1      4004 1.02901E+00
 -1      4005 9.66194E-01
 -1      4006 9.24529E-01
 -1      4007 9.43420E-01
 -1      4008 2.35895E+00
 -1      4009 2.09399E+00
 -1      4010 1.95382E+00
 -1      4011 1.53009E+00
 -1      4012 4.60641E+00
 -1      4013 2.09399E+00
 -1      4014 1.95382E+00
 -1      4015 2.09399E+00
 -1      4016 4.60641E+00
 -1      4017 1.16076E+00
 -1      4018 1.12805E+00
 -1      4019 1.62738E+00
 -1      4020 3.35954E+00
 -1      4021 8.31589E-01
 -1      4022 7.91461E-01
 -1      4023 9.96176E-01
 -1      4024 1.47357E+00
 -1      4025 9.05135E-01
 -1      4026 8.88617E-01
 -1      4027 8.68362E-01
 -1      4028 1.00351E+00
 -1      4029 1.09328E+00
 -1      4030 1.08381E+00
 -1      4031 9.99207E-01
 -1      4032 1.16330E+00
 -1      4033 1.26805E+00
 -1      4034 1.26486E+00
 -1      4035 1.18067E+00
 -1      4036 1.29029E+00
 -1      4037 1.90343E+00
 -1      4038 1.90343E+00
 -1      4039 1.58574E+00
 -1      4040 1.71103E+00
 -1      4041 2.76954E+00
 -1      4042 2.76954E+00
 -1      4043 2.33648E+00
 -1      4044 2.43111E+00
 -1      4045 3.55382E+00
 -1      4046 3.57537E+00
 -1      4047 3.16168E+00
 -1      4048 3.05811E+00
 -1      4049 4.25176E+00
 -1      4050 4.31180E+00
 -1      4051 3.90279E+00
 -1      4052 3.61958E+00
 -1      4053 4.96949E+00
 -1      4054 5.02273E+00
 -1      4055 4.61062E+00
 -1      4056 4.17370E+00
 -1      4057 5.67993E+00
 -1      4058 5.68384E+00
 -1      4059 5.32471E+00
 -1      4060 4.72370E+00
 -1      4061 6.62644E+00
 -1      4062 6.47971E+00
 -1      4063 6.15318E+00
 -1      4064 5.44770E+00
 -1      4065 7.89755E+00
 -1      4066 7.37338E+00
 -1      4067 7.26199E+00
 -1      4068 6.31269E+00
 -1      4069 1.08314E+01
 -1      4070 1.01104E+01
 -1      4071 9.36448E+00
 -1      4072 8.04038E+00
 -1      4073 1.65330E+01
 -1      4074 1.57683E+01
 -1      4075 1.36822E+01
 -1      4076 1.21568E+01
 -1      4077 1.65330E+01
 -1      4078 1.57683E+01
 -1      4079 1.65330E+01
 -1      4080 1.21568E+01
 -1      4081 2.06761E+01
 -1      4082 2.06761E+01
 -1      4083 1.96958E+01
 -1      4084 1.96958E+01
 -1      4085 1.61665E+01
 -1      4086 2.06761E+01
 -1      4087 1.61665E+01
 -1      4088 1.59645E+01
 -1      4089 1.38978E+01
 -1      4090 1.83203E+01
 -1      4091 1.22413E+01
 -1      4092 1.01669E+01
 -1      4093 9.33639E+00
 -1      4094 1.30657E+01
 -1      4095 8.15212E+00
 -1      4096 7.05131E+00
 -1      4097 7.03345E+00
 -1      4098 8.60913E+00
 -1      4099 5.90495E+00
 -1      4100 5.70864E+00
 -1      4101 5.84192E+00
 -1      4102 6.37997E+00
 -1      4103 4.94481E+00
 -1      4104 4.88732E+00
 -1      4105 5.06477E+00
 -1      4106 5.29798E+00
 -1      4107 4.25350E+00
 -1      4108 4.25561E+00
 -1      4109 4.38180E+00
 -1      4110 4.57147E+00
 -1      4111 3.73224E+00
 -1      4112 3.61186E+00
 -1      4113 3.69430E+00
 -1      4114 3.93373E+00
 -1      4115 3.19713E+00
 -1      4116 2.87422E+00
 -1      4117 2.91447E+00
 -1      4118 3.24304E+00
 -1      4119 2.59192E+00
 -1      4120 2.04697E+00
 -1      4121 2.04781E+00
 -1      4122 2.46060E+00
 -1      4123 1.93921E+00
 -1      4124 1.29474E+00
 -1      4125 1.29474E+00
 -1      4126 1.67086E+00
 -1      4127 1.41008E+00
 -1      4128 1.12395E+00
 -1      4129 1.11906E+00
 -1      4130 1.20935E+00
 -1      4131 1.19549E+00
 -1      4132 9.48120E-01
 -1      4133 9.34383E-01
 -1      4134 1.03604E+00
 -1      4135 1.09615E+00
 -1      4136 1.03232E+00
 -1      4137 9.99256E-01
 -1      4138 9.90219E-01
 -1      4139 2.58141E+00
 -1      4140 2.21815E+00
 -1      4141 2.15607E+00
 -1      4142 1.62523E+00
 -1      4143 4.71706E+00
 -1      4144 2.21815E+00
 -1      4145 2.15607E+00
 -1      4146 2.21815E+00
 -1      4147 4.71706E+00
 -1      4148 1.20624E+00
 -1      4149 1.18350E+00
 -1      4150 1.71219E+00
 -1      4151 3.48299E+00
 -1      4152 9.01897E-01
 -1      4153 8.66743E-01
 -1      4154 1.05407E+00
 -1      4155 1.74405E+00
 -1      4156 9.24818E-01
 -1      4157 9.14976E-01
 -1      4158 9.13357E-01
 -1      4159 9.96451E-01
 -1      4160 1.09695E+00
 -1      4161 1.09511E+00
 -1      4162 1.01088E+00
 -1      4163 1.15002E+00
 -1      4164 1.26805E+00
 -1      4165 1.26805E+00
 -1      4166 1.18250E+00
 -1      4167 1.27697E+00
 -1      4168 1.86961E+00
 -1      4169 1.88652E+00
 -1      4170 1.56883E+00
 -1      4171 1.62890E+00
 -1      4172 2.66526E+00
 -1      4173 2.71740E+00
 -1      4174 2.26744E+00
 -1      4175 2.29985E+00
 -1      4176 3.37392E+00
 -1      4177 3.46387E+00
 -1      4178 3.01959E+00
 -1      4179 2.86649E+00
 -1      4180 4.00138E+00
 -1      4181 4.12657E+00
 -1      4182 3.68765E+00
 -1      4183 3.38647E+00
 -1      4184 4.64683E+00
 -1      4185 4.80816E+00
 -1      4186 4.32411E+00
 -1      4187 3.90081E+00
 -1      4188 5.44435E+00
 -1      4189 5.56214E+00
 -1      4190 5.04559E+00
 -1      4191 4.58251E+00
 -1      4192 6.73384E+00
 -1      4193 6.68014E+00
 -1      4194 6.08909E+00
 -1      4195 5.50140E+00
 -1      4196 9.49601E+00
 -1      4197 8.69678E+00
 -1      4198 8.11493E+00
 -1      4199 7.52754E+00
 -1      4200 1.44740E+01
 -1      4201 1.26527E+01
 -1      4202 1.19850E+01
 -1      4203 1.11794E+01
 -1      4204 1.80534E+01
 -1      4205 1.72932E+01
 -1      4206 1.62637E+01
 -1      4207 1.45792E+01
 -1      4208 1.80534E+01
 -1      4209 1.72932E+01
 -1      4210 1.80534E+01
 -1      4211 1.45792E+01
 -1      4212 2.06761E+01
 -1      4213 2.06761E+01
 -1      4214 2.06761E+01
 -1      4215 2.06761E+01
 -1      4216 1.61665E+01
 -1      4217 2.06761E+01
 -1      4218 1.61665E+01
 -1      4219 1.59645E+01
 -1      4220 1.59645E+01
 -1      4221 1.83203E+01
 -1      4222 1.22413E+01
 -1      4223 1.01669E+01
 -1      4224 1.01669E+01
 -1      4225 1.30657E+01
 -1      4226 8.15212E+00
 -1      4227 7.05131E+00
 -1      4228 7.05131E+00
 -1      4229 8.60913E+00
 -1      4230 5.82082E+00
 -1      4231 5.24412E+00
 -1      4232 5.47638E+00
 -1      4233 6.14771E+00
 -1      4234 4.44603E+00
 -1      4235 4.55396E+00
 -1      4236 4.72064E+00
 -1      4237 4.89904E+00
 -1      4238 3.87539E+00
 -1      4239 4.02996E+00
 -1      4240 4.14278E+00
 -1      4241 4.29196E+00
 -1      4242 3.42978E+00
 -1      4243 3.41748E+00
 -1      4244 3.51467E+00
 -1      4245 3.72372E+00
 -1      4246 2.96412E+00
 -1      4247 2.71989E+00
 -1      4248 2.79706E+00
 -1      4249 3.06869E+00
 -1      4250 2.39135E+00
 -1      4251 1.94789E+00
 -1      4252 1.99743E+00
 -1      4253 2.33389E+00
 -1      4254 1.77762E+00
 -1      4255 1.28928E+00
 -1      4256 1.29201E+00
 -1      4257 1.61858E+00
 -1      4258 1.30379E+00
 -1      4259 1.12395E+00
 -1      4260 1.12395E+00
 -1      4261 1.20661E+00
 -1      4262 1.16906E+00
 -1      4263 9.48120E-01
 -1      4264 9.48120E-01
 -1      4265 1.03604E+00
 -1      4266 1.09615E+00
 -1      4267 1.03232E+00
 -1      4268 1.03232E+00
 -1      4269 9.90219E-01
 -1      4270 2.58141E+00
 -1      4271 2.21815E+00
 -1      4272 2.21815E+00
 -1      4273 1.62523E+00
 -1      4274 4.71706E+00
 -1      4275 2.21815E+00
 -1      4276 2.21815E+00
 -1      4277 2.21815E+00
 -1      4278 4.71706E+00
 -1      4279 1.20624E+00
 -1      4280 1.20624E+00
 -1      4281 1.71219E+00
 -1      4282 3.48299E+00
 -1      4283 9.01897E-01
 -1      4284 9.01897E-01
 -1      4285 1.05407E+00
 -1      4286 1.74405E+00
 -1      4287 9.24818E-01
 -1      4288 9.24818E-01
 -1      4289 9.13357E-01
 -1      4290 9.76231E-01
 -1      4291 1.09695E+00
 -1      4292 1.09695E+00
 -1      4293 1.01088E+00
 -1      4294 1.12814E+00
 -1      4295 1.25812E+00
 -1      4296 1.26309E+00
 -1      4297 1.17753E+00
 -1      4298 1.25266E+00
 -1      4299 1.75465E+00
 -1      4300 1.81213E+00
 -1      4301 1.50639E+00
 -1      4302 1.52996E+00
 -1      4303 2.50234E+00
 -1      4304 2.58380E+00
 -1      4305 2.12850E+00
 -1      4306 2.11110E+00
 -1      4307 3.17621E+00
 -1      4308 3.27507E+00
 -1      4309 2.83928E+00
 -1      4310 2.64932E+00
 -1      4311 3.76636E+00
 -1      4312 3.88387E+00
 -1      4313 3.47129E+00
 -1      4314 3.08601E+00
 -1      4315 4.26029E+00
 -1      4316 4.45356E+00
 -1      4317 4.01332E+00
 -1      4318 3.51614E+00
 -1      4319 4.99382E+00
 -1      4320 5.21908E+00
 -1      4321 4.62705E+00
 -1      4322 4.10650E+00
 -1      4323 6.73384E+00
 -1      4324 6.73384E+00
 -1      4325 5.86383E+00
 -1      4326 5.42934E+00
 -1      4327 9.49601E+00
 -1      4328 9.49601E+00
 -1      4329 8.11493E+00
 -1      4330 7.52754E+00
 -1      4331 1.44740E+01
 -1      4332 1.44740E+01
 -1      4333 1.19850E+01
 -1      4334 1.11794E+01
 -1      4335 1.80534E+01
 -1      4336 1.80534E+01
 -1      4337 1.62637E+01
 -1      4338 1.45792E+01
 -1      4339 1.80534E+01
 -1      4340 1.80534E+01
 -1      4341 1.80534E+01
 -1      4342 1.45792E+01
 -1      4343 2.06761E+01
 -1      4344 2.06761E+01
 -1      4345 2.06761E+01
 -1      4346 2.06761E+01
 -1      4347 2.06761E+01
 -1      4348 2.06761E+01
 -1      4349 2.06761E+01
 -1      4350 2.06761E+01
 -1      4351 2.06761E+01
 -1      4352 2.06761E+01
 -1      4353 2.06761E+01
 -1      4354 2.06761E+01
 -1      4355 1.59645E+01
 -1      4356 1.59645E+01
 -1      4357 1.83203E+01
 -1      4358 1.59645E+01
 -1      4359 1.59645E+01
 -1      4360 1.83203E+01
 -1      4361 1.59645E+01
 -1      4362 1.01669E+01
 -1      4363 1.01669E+01
 -1      4364 1.30657E+01
 -1      4365 1.01669E+01
 -1      4366 1.01669E+01
 -1      4367 1.30657E+01
 -1      4368 1.01669E+01
 -1      4369 7.05131E+00
 -1      4370 7.05131E+00
 -1      4371 8.60913E+00
 -1      4372 7.05131E+00
 -1      4373 7.05131E+00
 -1      4374 8.60913E+00
 -1      4375 7.05131E+00
 -1      4376 5.24412E+00
 -1      4377 5.70864E+00
 -1      4378 6.14771E+00
 -1      4379 5.24412E+00
 -1      4380 5.47638E+00
 -1      4381 6.37997E+00
 -1      4382 5.70864E+00
 -1      4383 4.55396E+00
 -1      4384 4.88732E+00
 -1      4385 4.89904E+00
 -1      4386 4.55396E+00
 -1      4387 4.72064E+00
 -1      4388 5.29798E+00
 -1      4389 4.88732E+00
 -1      4390 4.02996E+00
 -1      4391 4.25561E+00
 -1      4392 4.29196E+00
 -1      4393 4.02996E+00
 -1      4394 4.14278E+00
 -1      4395 4.57147E+00
 -1      4396 4.25561E+00
 -1      4397 3.41748E+00
 -1      4398 3.61186E+00
 -1      4399 3.72372E+00
 -1      4400 3.41748E+00
 -1      4401 3.51467E+00
 -1      4402 3.93373E+00
 -1      4403 3.61186E+00
 -1      4404 2.71989E+00
 -1      4405 2.87422E+00
 -1      4406 3.06869E+00
 -1      4407 2.71989E+00
 -1      4408 2.79706E+00
 -1      4409 3.24304E+00
 -1      4410 2.87422E+00
 -1      4411 1.94789E+00
 -1      4412 2.04697E+00
 -1      4413 2.33389E+00
 -1      4414 1.94789E+00
 -1      4415 1.99743E+00
 -1      4416 2.46060E+00
 -1      4417 2.04697E+00
 -1      4418 1.28928E+00
 -1      4419 1.29474E+00
 -1      4420 1.61858E+00
 -1      4421 1.28928E+00
 -1      4422 1.29201E+00
 -1      4423 1.67086E+00
 -1      4424 1.29474E+00
 -1      4425 1.12395E+00
 -1      4426 1.12395E+00
 -1      4427 1.20661E+00
 -1      4428 1.12395E+00
 -1      4429 1.12395E+00
 -1      4430 1.20935E+00
 -1      4431 1.12395E+00
 -1      4432 9.48120E-01
 -1      4433 9.48120E-01
 -1      4434 1.03604E+00
 -1      4435 9.48120E-01
 -1      4436 9.48120E-01
 -1      4437 1.03604E+00
 -1      4438 9.48120E-01
 -1      4439 9.66683E-01
 -1      4440 9.66683E-01
 -1      4441 9.57402E-01
 -1      4442 9.99500E-01
 -1      4443 9.66683E-01
 -1      4444 9.57402E-01
 -1      4445 9.99500E-01
 -1      4446 9.66683E-01
 -1      4447 9.66683E-01
 -1      4448 9.66683E-01
 -1      4449 1.59241E+00
 -1      4450 9.66683E-01
 -1      4451 9.66683E-01
 -1      4452 1.59241E+00
 -1      4453 7.60123E-01
 -1      4454 7.60123E-01
 -1      4455 8.63403E-01
 -1      4456 1.48913E+00
 -1      4457 7.60123E-01
 -1      4458 8.63403E-01
 -1      4459 1.48913E+00
 -1      4460 9.66683E-01
 -1      4461 9.66683E-01
 -1      4462 8.63403E-01
 -1      4463 1.08646E+00
 -1      4464 9.66683E-01
 -1      4465 8.63403E-01
 -1      4466 1.08646E+00
 -1      4467 9.66683E-01
 -1      4468 9.66683E-01
 -1      4469 9.66683E-01
 -1      4470 9.34290E-01
 -1      4471 9.66683E-01
 -1      4472 9.66683E-01
 -1      4473 9.34290E-01
 -1      4474 9.48120E-01
 -1      4475 9.48120E-01
 -1      4476 9.57402E-01
 -1      4477 9.36469E-01
 -1      4478 9.48120E-01
 -1      4479 9.57402E-01
 -1      4480 9.36469E-01
 -1      4481 1.12395E+00
 -1      4482 1.12395E+00
 -1      4483 1.03604E+00
 -1      4484 1.11045E+00
 -1      4485 1.12395E+00
 -1      4486 1.03604E+00
 -1      4487 1.11045E+00
 -1      4488 1.28928E+00
 -1      4489 1.29474E+00
 -1      4490 1.20661E+00
 -1      4491 1.27370E+00
 -1      4492 1.29201E+00
 -1      4493 1.20935E+00
 -1      4494 1.28140E+00
 -1      4495 1.94789E+00
 -1      4496 2.04697E+00
 -1      4497 1.61858E+00
 -1      4498 1.85127E+00
 -1      4499 1.99743E+00
 -1      4500 1.67086E+00
 -1      4501 1.95829E+00
 -1      4502 2.71989E+00
 -1      4503 2.87422E+00
 -1      4504 2.33389E+00
 -1      4505 2.61112E+00
 -1      4506 2.79706E+00
 -1      4507 2.46060E+00
 -1      4508 2.76974E+00
 -1      4509 3.41748E+00
 -1      4510 3.61186E+00
 -1      4511 3.06869E+00
 -1      4512 3.29685E+00
 -1      4513 3.51467E+00
 -1      4514 3.24304E+00
 -1      4515 3.49289E+00
 -1      4516 4.02996E+00
 -1      4517 4.25561E+00
 -1      4518 3.72372E+00
 -1      4519 3.89816E+00
 -1      4520 4.14278E+00
 -1      4521 3.93373E+00
 -1      4522 4.12849E+00
 -1      4523 4.55396E+00
 -1      4524 4.88732E+00
 -1      4525 4.29196E+00
 -1      4526 4.40712E+00
 -1      4527 4.72064E+00
 -1      4528 4.57147E+00
 -1      4529 4.76708E+00
 -1      4530 5.24412E+00
 -1      4531 5.70864E+00
 -1      4532 4.89904E+00
 -1      4533 5.11897E+00
 -1      4534 5.47638E+00
 -1      4535 5.29798E+00
 -1      4536 5.57649E+00
 -1      4537 7.05131E+00
 -1      4538 7.05131E+00
 -1      4539 6.14771E+00
 -1      4540 6.89257E+00
 -1      4541 7.05131E+00
 -1      4542 6.37997E+00
 -1      4543 6.89257E+00
 -1      4544 1.01669E+01
 -1      4545 1.01669E+01
 -1      4546 8.60913E+00
 -1      4547 9.83148E+00
 -1      4548 1.01669E+01
 -1      4549 8.60913E+00
 -1      4550 9.83148E+00
 -1      4551 1.59645E+01
 -1      4552 1.59645E+01
 -1      4553 1.30657E+01
 -1      4554 1.52192E+01
 -1      4555 1.59645E+01
 -1      4556 1.30657E+01
 -1      4557 1.52192E+01
 -1      4558 2.06761E+01
 -1      4559 2.06761E+01
 -1      4560 1.83203E+01
 -1      4561 1.93648E+01
 -1      4562 2.06761E+01
 -1      4563 1.83203E+01
 -1      4564 1.93648E+01
 -1      4565 2.06761E+01
 -1      4566 2.06761E+01
 -1      4567 2.06761E+01
 -1      4568 1.93648E+01
 -1      4569 2.06761E+01
 -1      4570 2.06761E+01
 -1      4571 1.93648E+01
 -1      4572 1.87156E+01
 -1      4573 1.87156E+01
 -1      4574 1.96958E+01
 -1      4575 1.96958E+01
 -1      4576 1.87156E+01
 -1      4577 1.87156E+01
 -1      4578 1.87156E+01
 -1      4579 1.18311E+01
 -1      4580 1.38978E+01
 -1      4581 1.52733E+01
 -1      4582 1.18311E+01
 -1      4583 8.50583E+00
 -1      4584 9.33639E+00
 -1      4585 1.01685E+01
 -1      4586 8.50583E+00
 -1      4587 7.01560E+00
 -1      4588 7.03345E+00
 -1      4589 7.76072E+00
 -1      4590 7.01560E+00
 -1      4591 5.97521E+00
 -1      4592 5.84192E+00
 -1      4593 6.49540E+00
 -1      4594 5.97521E+00
 -1      4595 5.24221E+00
 -1      4596 5.06477E+00
 -1      4597 5.60871E+00
 -1      4598 5.24221E+00
 -1      4599 4.50799E+00
 -1      4600 4.38180E+00
 -1      4601 4.87510E+00
 -1      4602 4.50799E+00
 -1      4603 3.77674E+00
 -1      4604 3.69430E+00
 -1      4605 4.14236E+00
 -1      4606 3.77674E+00
 -1      4607 2.95471E+00
 -1      4608 2.91447E+00
 -1      4609 3.36572E+00
 -1      4610 2.95471E+00
 -1      4611 2.04865E+00
 -1      4612 2.04781E+00
 -1      4613 2.50168E+00
 -1      4614 2.04865E+00
 -1      4615 1.29474E+00
 -1      4616 1.29474E+00
 -1      4617 1.67169E+00
 -1      4618 1.29474E+00
 -1      4619 1.11416E+00
 -1      4620 1.11906E+00
 -1      4621 1.20445E+00
 -1      4622 1.11416E+00
 -1      4623 9.20646E-01
 -1      4624 9.34383E-01
 -1      4625 1.01740E+00
 -1      4626 9.20646E-01
 -1      4627 9.25710E-01
 -1      4628 9.46196E-01
 -1      4629 9.23178E-01
 -1      4630 9.45952E-01
 -1      4631 9.25710E-01
 -1      4632 9.46196E-01
 -1      4633 9.25710E-01
 -1      4634 1.50985E+00
 -1      4635 7.01653E-01
 -1      4636 7.30888E-01
 -1      4637 8.13681E-01
 -1      4638 1.39782E+00
 -1      4639 9.25710E-01
 -1      4640 9.46196E-01
 -1      4641 8.13681E-01
 -1      4642 1.04324E+00
 -1      4643 9.25710E-01
 -1      4644 9.46196E-01
 -1      4645 9.25710E-01
 -1      4646 8.78650E-01
 -1      4647 9.20646E-01
 -1      4648 9.34383E-01
 -1      4649 9.23178E-01
 -1      4650 9.12890E-01
 -1      4651 1.11416E+00
 -1      4652 1.11906E+00
 -1      4653 1.01740E+00
 -1      4654 1.10372E+00
 -1      4655 1.29474E+00
 -1      4656 1.29474E+00
 -1      4657 1.20445E+00
 -1      4658 1.28140E+00
 -1      4659 2.04865E+00
 -1      4660 2.04781E+00
 -1      4661 1.67169E+00
 -1      4662 1.97604E+00
 -1      4663 2.95471E+00
 -1      4664 2.91447E+00
 -1      4665 2.50168E+00
 -1      4666 2.86212E+00
 -1      4667 3.77674E+00
 -1      4668 3.69430E+00
 -1      4669 3.36572E+00
 -1      4670 3.66528E+00
 -1      4671 4.50799E+00
 -1      4672 4.38180E+00
 -1      4673 4.14236E+00
 -1      4674 4.37988E+00
 -1      4675 5.24221E+00
 -1      4676 5.06477E+00
 -1      4677 4.87510E+00
 -1      4678 5.10585E+00
 -1      4679 5.97521E+00
 -1      4680 5.84192E+00
 -1      4681 5.60871E+00
 -1      4682 5.82757E+00
 -1      4683 7.01560E+00
 -1      4684 7.03345E+00
 -1      4685 6.49540E+00
 -1      4686 6.82102E+00
 -1      4687 8.50583E+00
 -1      4688 9.33639E+00
 -1      4689 7.76072E+00
 -1      4690 8.20169E+00
 -1      4691 1.18311E+01
 -1      4692 1.38978E+01
 -1      4693 1.01685E+01
 -1      4694 1.13313E+01
 -1      4695 1.87156E+01
 -1      4696 1.96958E+01
 -1      4697 1.52733E+01
 -1      4698 1.76243E+01
 -1      4699 1.87156E+01
 -1      4700 1.96958E+01
 -1      4701 1.87156E+01
 -1      4702 1.76243E+01
 -1      4703 1.68413E+01
 -1      4704 1.68413E+01
 -1      4705 1.77784E+01
 -1      4706 1.77784E+01
 -1      4707 1.68413E+01
 -1      4708 1.68413E+01
 -1      4709 1.68413E+01
 -1      4710 1.02899E+01
 -1      4711 1.10605E+01
 -1      4712 1.35656E+01
 -1      4713 1.02899E+01
 -1      4714 7.37464E+00
 -1      4715 7.94023E+00
 -1      4716 8.83228E+00
 -1      4717 7.37464E+00
 -1      4718 6.68680E+00
 -1      4719 6.85120E+00
 -1      4720 7.03072E+00
 -1      4721 6.68680E+00
 -1      4722 6.00650E+00
 -1      4723 5.99085E+00
 -1      4724 6.34665E+00
 -1      4725 6.00650E+00
 -1      4726 5.36045E+00
 -1      4727 5.30133E+00
 -1      4728 5.68348E+00
 -1      4729 5.36045E+00
 -1      4730 4.61522E+00
 -1      4731 4.56160E+00
 -1      4732 4.98783E+00
 -1      4733 4.61522E+00
 -1      4734 3.80432E+00
 -1      4735 3.79053E+00
 -1      4736 4.20977E+00
 -1      4737 3.80432E+00
 -1      4738 2.95471E+00
 -1      4739 2.95471E+00
 -1      4740 3.37951E+00
 -1      4741 2.95471E+00
 -1      4742 2.04865E+00
 -1      4743 2.04865E+00
 -1      4744 2.50168E+00
 -1      4745 2.04865E+00
 -1      4746 1.28218E+00
 -1      4747 1.28846E+00
 -1      4748 1.66541E+00
 -1      4749 1.28218E+00
 -1      4750 1.08730E+00
 -1      4751 1.10073E+00
 -1      4752 1.18474E+00
 -1      4753 1.08784E+00
 -1      4754 8.77919E-01
 -1      4755 8.99282E-01
 -1      4756 9.82611E-01
 -1      4757 8.77919E-01
 -1      4758 8.63143E-01
 -1      4759 8.94426E-01
 -1      4760 8.70531E-01
 -1      4761 8.73003E-01
 -1      4762 8.63143E-01
 -1      4763 8.94426E-01
 -1      4764 8.63143E-01
 -1      4765 1.33840E+00
 -1      4766 6.25934E-01
 -1      4767 6.63794E-01
 -1      4768 7.44539E-01
 -1      4769 1.21979E+00
 -1      4770 8.63143E-01
 -1      4771 8.94426E-01
 -1      4772 7.44539E-01
 -1      4773 9.79241E-01
 -1      4774 8.63143E-01
 -1      4775 8.94426E-01
 -1      4776 8.63143E-01
 -1      4777 8.07238E-01
 -1      4778 8.77919E-01
 -1      4779 8.99282E-01
 -1      4780 8.70531E-01
 -1      4781 8.75009E-01
 -1      4782 1.08730E+00
 -1      4783 1.10073E+00
 -1      4784 9.82611E-01
 -1      4785 1.08083E+00
 -1      4786 1.28218E+00
 -1      4787 1.28846E+00
 -1      4788 1.18474E+00
 -1      4789 1.27192E+00
 -1      4790 2.04865E+00
 -1      4791 2.04865E+00
 -1      4792 1.66541E+00
 -1      4793 1.97604E+00
 -1      4794 2.95471E+00
 -1      4795 2.95471E+00
 -1      4796 2.50168E+00
 -1      4797 2.86212E+00
 -1      4798 3.80432E+00
 -1      4799 3.79053E+00
 -1      4800 3.37951E+00
 -1      4801 3.70062E+00
 -1      4802 4.61522E+00
 -1      4803 4.56160E+00
 -1      4804 4.20977E+00
 -1      4805 4.49353E+00
 -1      4806 5.36045E+00
 -1      4807 5.30133E+00
 -1      4808 4.98783E+00
 -1      4809 5.21821E+00
 -1      4810 6.00650E+00
 -1      4811 5.99085E+00
 -1      4812 5.68348E+00
 -1      4813 5.84713E+00
 -1      4814 6.68680E+00
 -1      4815 6.85120E+00
 -1      4816 6.34665E+00
 -1      4817 6.50988E+00
 -1      4818 7.37464E+00
 -1      4819 7.94023E+00
 -1      4820 7.03072E+00
 -1      4821 7.11193E+00
 -1      4822 1.02899E+01
 -1      4823 1.10605E+01
 -1      4824 8.83228E+00
 -1      4825 9.83966E+00
 -1      4826 1.68413E+01
 -1      4827 1.77784E+01
 -1      4828 1.35656E+01
 -1      4829 1.59224E+01
 -1      4830 1.68413E+01
 -1      4831 1.77784E+01
 -1      4832 1.68413E+01
 -1      4833 1.59224E+01
 -1      4834 1.59494E+01
 -1      4835 1.59494E+01
 -1      4836 1.63954E+01
 -1      4837 1.63954E+01
 -1      4838 1.59494E+01
 -1      4839 1.59494E+01
 -1      4840 1.59494E+01
 -1      4841 9.59711E+00
 -1      4842 9.94351E+00
 -1      4843 1.27733E+01
 -1      4844 9.59711E+00
 -1      4845 6.75868E+00
 -1      4846 7.06666E+00
 -1      4847 8.17790E+00
 -1      4848 6.75868E+00
 -1      4849 6.46511E+00
 -1      4850 6.57595E+00
 -1      4851 6.61190E+00
 -1      4852 6.46511E+00
 -1      4853 6.00650E+00
 -1      4854 6.00650E+00
 -1      4855 6.23580E+00
 -1      4856 6.00650E+00
 -1      4857 5.36045E+00
 -1      4858 5.36045E+00
 -1      4859 5.68348E+00
 -1      4860 5.36045E+00
 -1      4861 4.61522E+00
 -1      4862 4.61522E+00
 -1      4863 4.98783E+00
 -1      4864 4.61522E+00
 -1      4865 3.80432E+00
 -1      4866 3.80432E+00
 -1      4867 4.20977E+00
 -1      4868 3.80432E+00
 -1      4869 2.90658E+00
 -1      4870 2.93064E+00
 -1      4871 3.35545E+00
 -1      4872 2.90658E+00
 -1      4873 1.92849E+00
 -1      4874 1.98857E+00
 -1      4875 2.41753E+00
 -1      4876 1.92849E+00
 -1      4877 1.24672E+00
 -1      4878 1.26445E+00
 -1      4879 1.58761E+00
 -1      4880 1.25805E+00
 -1      4881 1.03971E+00
 -1      4882 1.06350E+00
 -1      4883 1.14321E+00
 -1      4884 1.05632E+00
 -1      4885 8.22664E-01
 -1      4886 8.50292E-01
 -1      4887 9.31185E-01
 -1      4888 8.26441E-01
 -1      4889 7.86166E-01
 -1      4890 8.24654E-01
 -1      4891 8.04415E-01
 -1      4892 7.92246E-01
 -1      4893 7.86166E-01
 -1      4894 8.24654E-01
 -1      4895 7.86166E-01
 -1      4896 1.11901E+00
 -1      4897 5.41226E-01
 -1      4898 5.83580E-01
 -1      4899 6.63696E-01
 -1      4900 9.96544E-01
 -1      4901 7.86166E-01
 -1      4902 8.24654E-01
 -1      4903 6.63696E-01
 -1      4904 9.04990E-01
 -1      4905 7.86166E-01
 -1      4906 8.24654E-01
 -1      4907 7.86166E-01
 -1      4908 7.30556E-01
 -1      4909 8.22664E-01
 -1      4910 8.50292E-01
 -1      4911 8.04415E-01
 -1      4912 8.35249E-01
 -1      4913 1.03971E+00
 -1      4914 1.06350E+00
 -1      4915 9.31185E-01
 -1      4916 1.04925E+00
 -1      4917 1.24672E+00
 -1      4918 1.26445E+00
 -1      4919 1.14321E+00
 -1      4920 1.24064E+00
 -1      4921 1.92849E+00
 -1      4922 1.98857E+00
 -1      4923 1.58761E+00
 -1      4924 1.87292E+00
 -1      4925 2.90658E+00
 -1      4926 2.93064E+00
 -1      4927 2.41753E+00
 -1      4928 2.82617E+00
 -1      4929 3.80432E+00
 -1      4930 3.80432E+00
 -1      4931 3.35545E+00
 -1      4932 3.70062E+00
 -1      4933 4.61522E+00
 -1      4934 4.61522E+00
 -1      4935 4.20977E+00
 -1      4936 4.49353E+00
 -1      4937 5.36045E+00
 -1      4938 5.36045E+00
 -1      4939 4.98783E+00
 -1      4940 5.21821E+00
 -1      4941 6.00650E+00
 -1      4942 6.00650E+00
 -1      4943 5.68348E+00
 -1      4944 5.84713E+00
 -1      4945 6.46511E+00
 -1      4946 6.57595E+00
 -1      4947 6.23580E+00
 -1      4948 6.28367E+00
 -1      4949 6.75868E+00
 -1      4950 7.06666E+00
 -1      4951 6.61190E+00
 -1      4952 6.51475E+00
 -1      4953 9.59711E+00
 -1      4954 9.94351E+00
 -1      4955 8.17790E+00
 -1      4956 9.18676E+00
 -1      4957 1.59494E+01
 -1      4958 1.63954E+01
 -1      4959 1.27733E+01
 -1      4960 1.51169E+01
 -1      4961 1.59494E+01
 -1      4962 1.63954E+01
 -1      4963 1.59494E+01
 -1      4964 1.51169E+01
 -1      4965 1.68413E+01
 -1      4966 1.68413E+01
 -1      4967 1.63954E+01
 -1      4968 1.63954E+01
 -1      4969 1.68413E+01
 -1      4970 1.68413E+01
 -1      4971 1.68413E+01
 -1      4972 1.02899E+01
 -1      4973 9.94351E+00
 -1      4974 1.35656E+01
 -1      4975 1.02899E+01
 -1      4976 7.37464E+00
 -1      4977 7.06666E+00
 -1      4978 8.83228E+00
 -1      4979 7.37464E+00
 -1      4980 6.68680E+00
 -1      4981 6.57595E+00
 -1      4982 7.03072E+00
 -1      4983 6.68680E+00
 -1      4984 6.00650E+00
 -1      4985 6.00650E+00
 -1      4986 6.34665E+00
 -1      4987 6.00650E+00
 -1      4988 5.36045E+00
 -1      4989 5.36045E+00
 -1      4990 5.68348E+00
 -1      4991 5.36045E+00
 -1      4992 4.61522E+00
 -1      4993 4.61522E+00
 -1      4994 4.98783E+00
 -1      4995 4.61522E+00
 -1      4996 3.80432E+00
 -1      4997 3.80432E+00
 -1      4998 4.20977E+00
 -1      4999 3.80432E+00
 -1      5000 2.95471E+00
 -1      5001 2.93064E+00
 -1      5002 3.37951E+00
 -1      5003 2.95471E+00
 -1      5004 2.04865E+00
 -1      5005 1.98857E+00
 -1      5006 2.50168E+00
 -1      5007 2.04865E+00
 -1      5008 1.28218E+00
 -1      5009 1.26445E+00
 -1      5010 1.66541E+00
 -1      5011 1.28218E+00
 -1      5012 1.08730E+00
 -1      5013 1.06350E+00
 -1      5014 1.18474E+00
 -1      5015 1.08784E+00
 -1      5016 8.77919E-01
 -1      5017 8.50292E-01
 -1      5018 9.82611E-01
 -1      5019 8.77919E-01
 -1      5020 8.63143E-01
 -1      5021 8.24654E-01
 -1      5022 8.70531E-01
 -1      5023 8.73003E-01
 -1      5024 8.63143E-01
 -1      5025 8.24654E-01
 -1      5026 8.63143E-01
 -1      5027 1.33840E+00
 -1      5028 6.25934E-01
 -1      5029 5.83580E-01
 -1      5030 7.44539E-01
 -1      5031 1.21979E+00
 -1      5032 8.63143E-01
 -1      5033 8.24654E-01
 -1      5034 7.44539E-01
 -1      5035 9.79241E-01
 -1      5036 8.63143E-01
 -1      5037 8.24654E-01
 -1      5038 8.63143E-01
 -1      5039 8.07238E-01
 -1      5040 8.77919E-01
 -1      5041 8.50292E-01
 -1      5042 8.70531E-01
 -1      5043 8.75009E-01
 -1      5044 1.08730E+00
 -1      5045 1.06350E+00
 -1      5046 9.82611E-01
 -1      5047 1.08083E+00
 -1      5048 1.28218E+00
 -1      5049 1.26445E+00
 -1      5050 1.18474E+00
 -1      5051 1.27192E+00
 -1      5052 2.04865E+00
 -1      5053 1.98857E+00
 -1      5054 1.66541E+00
 -1      5055 1.97604E+00
 -1      5056 2.95471E+00
 -1      5057 2.93064E+00
 -1      5058 2.50168E+00
 -1      5059 2.86212E+00
 -1      5060 3.80432E+00
 -1      5061 3.80432E+00
 -1      5062 3.37951E+00
 -1      5063 3.70062E+00
 -1      5064 4.61522E+00
 -1      5065 4.61522E+00
 -1      5066 4.20977E+00
 -1      5067 4.49353E+00
 -1      5068 5.36045E+00
 -1      5069 5.36045E+00
 -1      5070 4.98783E+00
 -1      5071 5.21821E+00
 -1      5072 6.00650E+00
 -1      5073 6.00650E+00
 -1      5074 5.68348E+00
 -1      5075 5.84713E+00
 -1      5076 6.68680E+00
 -1      5077 6.57595E+00
 -1      5078 6.34665E+00
 -1      5079 6.50988E+00
 -1      5080 7.37464E+00
 -1      5081 7.06666E+00
 -1      5082 7.03072E+00
 -1      5083 7.11193E+00
 -1      5084 1.02899E+01
 -1      5085 9.94351E+00
 -1      5086 8.83228E+00
 -1      5087 9.83966E+00
 -1      5088 1.68413E+01
 -1      5089 1.63954E+01
 -1      5090 1.35656E+01
 -1      5091 1.59224E+01
 -1      5092 1.68413E+01
 -1      5093 1.63954E+01
 -1      5094 1.68413E+01
 -1      5095 1.59224E+01
 -1      5096 1.87156E+01
 -1      5097 1.87156E+01
 -1      5098 1.77784E+01
 -1      5099 1.77784E+01
 -1      5100 1.87156E+01
 -1      5101 1.87156E+01
 -1      5102 1.87156E+01
 -1      5103 1.18311E+01
 -1      5104 1.10605E+01
 -1      5105 1.52733E+01
 -1      5106 1.18311E+01
 -1      5107 8.50583E+00
 -1      5108 7.94023E+00
 -1      5109 1.01685E+01
 -1      5110 8.50583E+00
 -1      5111 7.01560E+00
 -1      5112 6.85120E+00
 -1      5113 7.76072E+00
 -1      5114 7.01560E+00
 -1      5115 5.97521E+00
 -1      5116 5.99085E+00
 -1      5117 6.49540E+00
 -1      5118 5.97521E+00
 -1      5119 5.24221E+00
 -1      5120 5.30133E+00
 -1      5121 5.60871E+00
 -1      5122 5.24221E+00
 -1      5123 4.50799E+00
 -1      5124 4.56160E+00
 -1      5125 4.87510E+00
 -1      5126 4.50799E+00
 -1      5127 3.77674E+00
 -1      5128 3.79053E+00
 -1      5129 4.14236E+00
 -1      5130 3.77674E+00
 -1      5131 2.95471E+00
 -1      5132 2.95471E+00
 -1      5133 3.36572E+00
 -1      5134 2.95471E+00
 -1      5135 2.04865E+00
 -1      5136 2.04865E+00
 -1      5137 2.50168E+00
 -1      5138 2.04865E+00
 -1      5139 1.29474E+00
 -1      5140 1.28846E+00
 -1      5141 1.67169E+00
 -1      5142 1.29474E+00
 -1      5143 1.11416E+00
 -1      5144 1.10073E+00
 -1      5145 1.20445E+00
 -1      5146 1.11416E+00
 -1      5147 9.20646E-01
 -1      5148 8.99282E-01
 -1      5149 1.01740E+00
 -1      5150 9.20646E-01
 -1      5151 9.25710E-01
 -1      5152 8.94426E-01
 -1      5153 9.23178E-01
 -1      5154 9.45952E-01
 -1      5155 9.25710E-01
 -1      5156 8.94426E-01
 -1      5157 9.25710E-01
 -1      5158 1.50985E+00
 -1      5159 7.01653E-01
 -1      5160 6.63794E-01
 -1      5161 8.13681E-01
 -1      5162 1.39782E+00
 -1      5163 9.25710E-01
 -1      5164 8.94426E-01
 -1      5165 8.13681E-01
 -1      5166 1.04324E+00
 -1      5167 9.25710E-01
 -1      5168 8.94426E-01
 -1      5169 9.25710E-01
 -1      5170 8.78650E-01
 -1      5171 9.20646E-01
 -1      5172 8.99282E-01
 -1      5173 9.23178E-01
 -1      5174 9.12890E-01
 -1      5175 1.11416E+00
 -1      5176 1.10073E+00
 -1      5177 1.01740E+00
 -1      5178 1.10372E+00
 -1      5179 1.29474E+00
 -1      5180 1.28846E+00
 -1      5181 1.20445E+00
 -1      5182 1.28140E+00
 -1      5183 2.04865E+00
 -1      5184 2.04865E+00
 -1      5185 1.67169E+00
 -1      5186 1.97604E+00
 -1      5187 2.95471E+00
 -1      5188 2.95471E+00
 -1      5189 2.50168E+00
 -1      5190 2.86212E+00
 -1      5191 3.77674E+00
 -1      5192 3.79053E+00
 -1      5193 3.36572E+00
 -1      5194 3.66528E+00
 -1      5195 4.50799E+00
 -1      5196 4.56160E+00
 -1      5197 4.14236E+00
 -1      5198 4.37988E+00
 -1      5199 5.24221E+00
 -1      5200 5.30133E+00
 -1      5201 4.87510E+00
 -1      5202 5.10585E+00
 -1      5203 5.97521E+00
 -1      5204 5.99085E+00
 -1      5205 5.60871E+00
 -1      5206 5.82757E+00
 -1      5207 7.01560E+00
 -1      5208 6.85120E+00
 -1      5209 6.49540E+00
 -1      5210 6.82102E+00
 -1      5211 8.50583E+00
 -1      5212 7.94023E+00
 -1      5213 7.76072E+00
 -1      5214 8.20169E+00
 -1      5215 1.18311E+01
 -1      5216 1.10605E+01
 -1      5217 1.01685E+01
 -1      5218 1.13313E+01
 -1      5219 1.87156E+01
 -1      5220 1.77784E+01
 -1      5221 1.52733E+01
 -1      5222 1.76243E+01
 -1      5223 1.87156E+01
 -1      5224 1.77784E+01
 -1      5225 1.87156E+01
 -1      5226 1.76243E+01
 -1      5227 2.06761E+01
 -1      5228 2.06761E+01
 -1      5229 1.96958E+01
 -1      5230 1.96958E+01
 -1      5231 2.06761E+01
 -1      5232 2.06761E+01
 -1      5233 2.06761E+01
 -1      5234 1.59645E+01
 -1      5235 1.38978E+01
 -1      5236 1.83203E+01
 -1      5237 1.59645E+01
 -1      5238 1.01669E+01
 -1      5239 9.33639E+00
 -1      5240 1.30657E+01
 -1      5241 1.01669E+01
 -1      5242 7.05131E+00
 -1      5243 7.03345E+00
 -1      5244 8.60913E+00
 -1      5245 7.05131E+00
 -1      5246 5.70864E+00
 -1      5247 5.84192E+00
 -1      5248 6.37997E+00
 -1      5249 5.70864E+00
 -1      5250 4.88732E+00
 -1      5251 5.06477E+00
 -1      5252 5.29798E+00
 -1      5253 4.88732E+00
 -1      5254 4.25561E+00
 -1      5255 4.38180E+00
 -1      5256 4.57147E+00
 -1      5257 4.25561E+00
 -1      5258 3.61186E+00
 -1      5259 3.69430E+00
 -1      5260 3.93373E+00
 -1      5261 3.61186E+00
 -1      5262 2.87422E+00
 -1      5263 2.91447E+00
 -1      5264 3.24304E+00
 -1      5265 2.87422E+00
 -1      5266 2.04697E+00
 -1      5267 2.04781E+00
 -1      5268 2.46060E+00
 -1      5269 2.04697E+00
 -1      5270 1.29474E+00
 -1      5271 1.29474E+00
 -1      5272 1.67086E+00
 -1      5273 1.29474E+00
 -1      5274 1.12395E+00
 -1      5275 1.11906E+00
 -1      5276 1.20935E+00
 -1      5277 1.12395E+00
 -1      5278 9.48120E-01
 -1      5279 9.34383E-01
 -1      5280 1.03604E+00
 -1      5281 9.48120E-01
 -1      5282 9.66683E-01
 -1      5283 9.46196E-01
 -1      5284 9.57402E-01
 -1      5285 9.99500E-01
 -1      5286 9.66683E-01
 -1      5287 9.46196E-01
 -1      5288 9.66683E-01
 -1      5289 1.59241E+00
 -1      5290 7.60123E-01
 -1      5291 7.30888E-01
 -1      5292 8.63403E-01
 -1      5293 1.48913E+00
 -1      5294 9.66683E-01
 -1      5295 9.46196E-01
 -1      5296 8.63403E-01
 -1      5297 1.08646E+00
 -1      5298 9.66683E-01
 -1      5299 9.46196E-01
 -1      5300 9.66683E-01
 -1      5301 9.34290E-01
 -1      5302 9.48120E-01
 -1      5303 9.34383E-01
 -1      5304 9.57402E-01
 -1      5305 9.36469E-01
 -1      5306 1.12395E+00
 -1      5307 1.11906E+00
 -1      5308 1.03604E+00
 -1      5309 1.11045E+00
 -1      5310 1.29474E+00
 -1      5311 1.29474E+00
 -1      5312 1.20935E+00
 -1      5313 1.28140E+00
 -1      5314 2.04697E+00
 -1      5315 2.04781E+00
 -1      5316 1.67086E+00
 -1      5317 1.95829E+00
 -1      5318 2.87422E+00
 -1      5319 2.91447E+00
 -1      5320 2.46060E+00
 -1      5321 2.76974E+00
 -1      5322 3.61186E+00
 -1      5323 3.69430E+00
 -1      5324 3.24304E+00
 -1      5325 3.49289E+00
 -1      5326 4.25561E+00
 -1      5327 4.38180E+00
 -1      5328 3.93373E+00
 -1      5329 4.12849E+00
 -1      5330 4.88732E+00
 -1      5331 5.06477E+00
 -1      5332 4.57147E+00
 -1      5333 4.76708E+00
 -1      5334 5.70864E+00
 -1      5335 5.84192E+00
 -1      5336 5.29798E+00
 -1      5337 5.57649E+00
 -1      5338 7.05131E+00
 -1      5339 7.03345E+00
 -1      5340 6.37997E+00
 -1      5341 6.89257E+00
 -1      5342 1.01669E+01
 -1      5343 9.33639E+00
 -1      5344 8.60913E+00
 -1      5345 9.83148E+00
 -1      5346 1.59645E+01
 -1      5347 1.38978E+01
 -1      5348 1.30657E+01
 -1      5349 1.52192E+01
 -1      5350 2.06761E+01
 -1      5351 1.96958E+01
 -1      5352 1.83203E+01
 -1      5353 1.93648E+01
 -1      5354 2.06761E+01
 -1      5355 1.96958E+01
 -1      5356 2.06761E+01
 -1      5357 1.93648E+01
 -1      5358 2.06761E+01
 -1      5359 2.06761E+01
 -1      5360 2.06761E+01
 -1      5361 2.06761E+01
 -1      5362 2.06761E+01
 -1      5363 2.06761E+01
 -1      5364 2.06761E+01
 -1      5365 1.59645E+01
 -1      5366 1.59645E+01
 -1      5367 1.83203E+01
 -1      5368 1.59645E+01
 -1      5369 1.01669E+01
 -1      5370 1.01669E+01
 -1      5371 1.30657E+01
 -1      5372 1.01669E+01
 -1      5373 7.05131E+00
 -1      5374 7.05131E+00
 -1      5375 8.60913E+00
 -1      5376 7.05131E+00
 -1      5377 5.24412E+00
 -1      5378 5.47638E+00
 -1      5379 6.14771E+00
 -1      5380 5.24412E+00
 -1      5381 4.55396E+00
 -1      5382 4.72064E+00
 -1      5383 4.89904E+00
 -1      5384 4.55396E+00
 -1      5385 4.02996E+00
 -1      5386 4.14278E+00
 -1      5387 4.29196E+00
 -1      5388 4.02996E+00
 -1      5389 3.41748E+00
 -1      5390 3.51467E+00
 -1      5391 3.72372E+00
 -1      5392 3.41748E+00
 -1      5393 2.71989E+00
 -1      5394 2.79706E+00
 -1      5395 3.06869E+00
 -1      5396 2.71989E+00
 -1      5397 1.94789E+00
 -1      5398 1.99743E+00
 -1      5399 2.33389E+00
 -1      5400 1.94789E+00
 -1      5401 1.28928E+00
 -1      5402 1.29201E+00
 -1      5403 1.61858E+00
 -1      5404 1.28928E+00
 -1      5405 1.12395E+00
 -1      5406 1.12395E+00
 -1      5407 1.20661E+00
 -1      5408 1.12395E+00
 -1      5409 9.48120E-01
 -1      5410 9.48120E-01
 -1      5411 1.03604E+00
 -1      5412 9.48120E-01
 -1      5413 9.66683E-01
 -1      5414 9.66683E-01
 -1      5415 9.57402E-01
 -1      5416 9.99500E-01
 -1      5417 9.66683E-01
 -1      5418 9.66683E-01
 -1      5419 9.66683E-01
 -1      5420 1.59241E+00
 -1      5421 7.60123E-01
 -1      5422 7.60123E-01
 -1      5423 8.63403E-01
 -1      5424 1.48913E+00
 -1      5425 9.66683E-01
 -1      5426 9.66683E-01
 -1      5427 8.63403E-01
 -1      5428 1.08646E+00
 -1      5429 9.66683E-01
 -1      5430 9.66683E-01
 -1      5431 9.66683E-01
 -1      5432 9.34290E-01
 -1      5433 9.48120E-01
 -1      5434 9.48120E-01
 -1      5435 9.57402E-01
 -1      5436 9.36469E-01
 -1      5437 1.12395E+00
 -1      5438 1.12395E+00
 -1      5439 1.03604E+00
 -1      5440 1.11045E+00
 -1      5441 1.28928E+00
 -1      5442 1.29201E+00
 -1      5443 1.20661E+00
 -1      5444 1.27370E+00
 -1      5445 1.94789E+00
 -1      5446 1.99743E+00
 -1      5447 1.61858E+00
 -1      5448 1.85127E+00
 -1      5449 2.71989E+00
 -1      5450 2.79706E+00
 -1      5451 2.33389E+00
 -1      5452 2.61112E+00
 -1      5453 3.41748E+00
 -1      5454 3.51467E+00
 -1      5455 3.06869E+00
 -1      5456 3.29685E+00
 -1      5457 4.02996E+00
 -1      5458 4.14278E+00
 -1      5459 3.72372E+00
 -1      5460 3.89816E+00
 -1      5461 4.55396E+00
 -1      5462 4.72064E+00
 -1      5463 4.29196E+00
 -1      5464 4.40712E+00
 -1      5465 5.24412E+00
 -1      5466 5.47638E+00
 -1      5467 4.89904E+00
 -1      5468 5.11897E+00
 -1      5469 7.05131E+00
 -1      5470 7.05131E+00
 -1      5471 6.14771E+00
 -1      5472 6.89257E+00
 -1      5473 1.01669E+01
 -1      5474 1.01669E+01
 -1      5475 8.60913E+00
 -1      5476 9.83148E+00
 -1      5477 1.59645E+01
 -1      5478 1.59645E+01
 -1      5479 1.30657E+01
 -1      5480 1.52192E+01
 -1      5481 2.06761E+01
 -1      5482 2.06761E+01
 -1      5483 1.83203E+01
 -1      5484 1.93648E+01
 -1      5485 2.06761E+01
 -1      5486 2.06761E+01
 -1      5487 2.06761E+01
 -1      5488 1.93648E+01
 -1      5489 1.80534E+01
 -1      5490 1.80534E+01
 -1      5491 1.80534E+01
 -1      5492 1.80534E+01
 -1      5493 1.93648E+01
 -1      5494 1.80534E+01
 -1      5495 1.93648E+01
 -1      5496 1.80534E+01
 -1      5497 1.80534E+01
 -1      5498 1.93648E+01
 -1      5499 1.80534E+01
 -1      5500 1.93648E+01
 -1      5501 1.44740E+01
 -1      5502 1.44740E+01
 -1      5503 1.62637E+01
 -1      5504 1.52192E+01
 -1      5505 1.44740E+01
 -1      5506 1.62637E+01
 -1      5507 1.52192E+01
 -1      5508 9.49601E+00
 -1      5509 9.49601E+00
 -1      5510 1.19850E+01
 -1      5511 9.83148E+00
 -1      5512 9.49601E+00
 -1      5513 1.19850E+01
 -1      5514 9.83148E+00
 -1      5515 6.73384E+00
 -1      5516 6.73384E+00
 -1      5517 8.11493E+00
 -1      5518 6.89257E+00
 -1      5519 6.73384E+00
 -1      5520 8.11493E+00
 -1      5521 6.89257E+00
 -1      5522 4.99382E+00
 -1      5523 5.44435E+00
 -1      5524 5.86383E+00
 -1      5525 5.11897E+00
 -1      5526 5.21908E+00
 -1      5527 6.08909E+00
 -1      5528 5.57649E+00
 -1      5529 4.26029E+00
 -1      5530 4.64683E+00
 -1      5531 4.62705E+00
 -1      5532 4.40712E+00
 -1      5533 4.45356E+00
 -1      5534 5.04559E+00
 -1      5535 4.76708E+00
 -1      5536 3.76636E+00
 -1      5537 4.00138E+00
 -1      5538 4.01332E+00
 -1      5539 3.89816E+00
 -1      5540 3.88387E+00
 -1      5541 4.32411E+00
 -1      5542 4.12849E+00
 -1      5543 3.17621E+00
 -1      5544 3.37392E+00
 -1      5545 3.47129E+00
 -1      5546 3.29685E+00
 -1      5547 3.27507E+00
 -1      5548 3.68765E+00
 -1      5549 3.49289E+00
 -1      5550 2.50234E+00
 -1      5551 2.66526E+00
 -1      5552 2.83928E+00
 -1      5553 2.61112E+00
 -1      5554 2.58380E+00
 -1      5555 3.01959E+00
 -1      5556 2.76974E+00
 -1      5557 1.75465E+00
 -1      5558 1.86961E+00
 -1      5559 2.12850E+00
 -1      5560 1.85127E+00
 -1      5561 1.81213E+00
 -1      5562 2.26744E+00
 -1      5563 1.95829E+00
 -1      5564 1.25812E+00
 -1      5565 1.26805E+00
 -1      5566 1.50639E+00
 -1      5567 1.27370E+00
 -1      5568 1.26309E+00
 -1      5569 1.56883E+00
 -1      5570 1.28140E+00
 -1      5571 1.09695E+00
 -1      5572 1.09695E+00
 -1      5573 1.17753E+00
 -1      5574 1.11045E+00
 -1      5575 1.09695E+00
 -1      5576 1.18250E+00
 -1      5577 1.11045E+00
 -1      5578 9.24818E-01
 -1      5579 9.24818E-01
 -1      5580 1.01088E+00
 -1      5581 9.36469E-01
 -1      5582 9.24818E-01
 -1      5583 1.01088E+00
 -1      5584 9.36469E-01
 -1      5585 9.01897E-01
 -1      5586 9.01897E-01
 -1      5587 9.13357E-01
 -1      5588 9.34290E-01
 -1      5589 9.01897E-01
 -1      5590 9.13357E-01
 -1      5591 9.34290E-01
 -1      5592 1.20624E+00
 -1      5593 1.20624E+00
 -1      5594 1.05407E+00
 -1      5595 1.08646E+00
 -1      5596 1.20624E+00
 -1      5597 1.05407E+00
 -1      5598 1.08646E+00
 -1      5599 2.21815E+00
 -1      5600 2.21815E+00
 -1      5601 1.71219E+00
 -1      5602 1.48913E+00
 -1      5603 2.21815E+00
 -1      5604 1.71219E+00
 -1      5605 1.48913E+00
 -1      5606 2.21815E+00
 -1      5607 2.21815E+00
 -1      5608 2.21815E+00
 -1      5609 1.59241E+00
 -1      5610 2.21815E+00
 -1      5611 2.21815E+00
 -1      5612 1.59241E+00
 -1      5613 1.03232E+00
 -1      5614 1.03232E+00
 -1      5615 1.62523E+00
 -1      5616 9.99500E-01
 -1      5617 1.03232E+00
 -1      5618 1.62523E+00
 -1      5619 9.99500E-01
 -1      5620 9.48120E-01
 -1      5621 9.48120E-01
 -1      5622 9.90219E-01
 -1      5623 9.48120E-01
 -1      5624 9.48120E-01
 -1      5625 9.90219E-01
 -1      5626 9.48120E-01
 -1      5627 1.12395E+00
 -1      5628 1.12395E+00
 -1      5629 1.03604E+00
 -1      5630 1.12395E+00
 -1      5631 1.12395E+00
 -1      5632 1.03604E+00
 -1      5633 1.12395E+00
 -1      5634 1.28928E+00
 -1      5635 1.29474E+00
 -1      5636 1.20661E+00
 -1      5637 1.28928E+00
 -1      5638 1.29201E+00
 -1      5639 1.20935E+00
 -1      5640 1.29474E+00
 -1      5641 1.94789E+00
 -1      5642 2.04697E+00
 -1      5643 1.61858E+00
 -1      5644 1.94789E+00
 -1      5645 1.99743E+00
 -1      5646 1.67086E+00
 -1      5647 2.04697E+00
 -1      5648 2.71989E+00
 -1      5649 2.87422E+00
 -1      5650 2.33389E+00
 -1      5651 2.71989E+00
 -1      5652 2.79706E+00
 -1      5653 2.46060E+00
 -1      5654 2.87422E+00
 -1      5655 3.41748E+00
 -1      5656 3.61186E+00
 -1      5657 3.06869E+00
 -1      5658 3.41748E+00
 -1      5659 3.51467E+00
 -1      5660 3.24304E+00
 -1      5661 3.61186E+00
 -1      5662 4.02996E+00
 -1      5663 4.25561E+00
 -1      5664 3.72372E+00
 -1      5665 4.02996E+00
 -1      5666 4.14278E+00
 -1      5667 3.93373E+00
 -1      5668 4.25561E+00
 -1      5669 4.55396E+00
 -1      5670 4.88732E+00
 -1      5671 4.29196E+00
 -1      5672 4.55396E+00
 -1      5673 4.72064E+00
 -1      5674 4.57147E+00
 -1      5675 4.88732E+00
 -1      5676 5.24412E+00
 -1      5677 5.70864E+00
 -1      5678 4.89904E+00
 -1      5679 5.24412E+00
 -1      5680 5.47638E+00
 -1      5681 5.29798E+00
 -1      5682 5.70864E+00
 -1      5683 7.05131E+00
 -1      5684 7.05131E+00
 -1      5685 6.14771E+00
 -1      5686 7.05131E+00
 -1      5687 7.05131E+00
 -1      5688 6.37997E+00
 -1      5689 7.05131E+00
 -1      5690 1.01669E+01
 -1      5691 1.01669E+01
 -1      5692 8.60913E+00
 -1      5693 1.01669E+01
 -1      5694 1.01669E+01
 -1      5695 8.60913E+00
 -1      5696 1.01669E+01
 -1      5697 1.59645E+01
 -1      5698 1.59645E+01
 -1      5699 1.30657E+01
 -1      5700 1.59645E+01
 -1      5701 1.59645E+01
 -1      5702 1.30657E+01
 -1      5703 1.59645E+01
 -1      5704 2.06761E+01
 -1      5705 2.06761E+01
 -1      5706 1.83203E+01
 -1      5707 2.06761E+01
 -1      5708 2.06761E+01
 -1      5709 1.83203E+01
 -1      5710 2.06761E+01
 -1      5711 2.06761E+01
 -1      5712 2.06761E+01
 -1      5713 2.06761E+01
 -1      5714 2.06761E+01
 -1      5715 2.06761E+01
 -1      5716 2.06761E+01
 -1      5717 2.06761E+01
 -1      5718 1.65330E+01
 -1      5719 1.65330E+01
 -1      5720 1.72932E+01
 -1      5721 1.72932E+01
 -1      5722 1.76243E+01
 -1      5723 1.65330E+01
 -1      5724 1.76243E+01
 -1      5725 1.08314E+01
 -1      5726 1.26527E+01
 -1      5727 1.36822E+01
 -1      5728 1.13313E+01
 -1      5729 7.89755E+00
 -1      5730 8.69678E+00
 -1      5731 9.36448E+00
 -1      5732 8.20169E+00
 -1      5733 6.62644E+00
 -1      5734 6.68014E+00
 -1      5735 7.26199E+00
 -1      5736 6.82102E+00
 -1      5737 5.67993E+00
 -1      5738 5.56214E+00
 -1      5739 6.15318E+00
 -1      5740 5.82757E+00
 -1      5741 4.96949E+00
 -1      5742 4.80816E+00
 -1      5743 5.32471E+00
 -1      5744 5.10585E+00
 -1      5745 4.25176E+00
 -1      5746 4.12657E+00
 -1      5747 4.61062E+00
 -1      5748 4.37988E+00
 -1      5749 3.55382E+00
 -1      5750 3.46387E+00
 -1      5751 3.90279E+00
 -1      5752 3.66528E+00
 -1      5753 2.76954E+00
 -1      5754 2.71740E+00
 -1      5755 3.16168E+00
 -1      5756 2.86212E+00
 -1      5757 1.90343E+00
 -1      5758 1.88652E+00
 -1      5759 2.33648E+00
 -1      5760 1.97604E+00
 -1      5761 1.26805E+00
 -1      5762 1.26805E+00
 -1      5763 1.58574E+00
 -1      5764 1.28140E+00
 -1      5765 1.09328E+00
 -1      5766 1.09511E+00
 -1      5767 1.18067E+00
 -1      5768 1.10372E+00
 -1      5769 9.05135E-01
 -1      5770 9.14976E-01
 -1      5771 9.99207E-01
 -1      5772 9.12890E-01
 -1      5773 8.31589E-01
 -1      5774 8.66743E-01
 -1      5775 8.68362E-01
 -1      5776 8.78650E-01
 -1      5777 1.16076E+00
 -1      5778 1.18350E+00
 -1      5779 9.96176E-01
 -1      5780 1.04324E+00
 -1      5781 2.09399E+00
 -1      5782 2.15607E+00
 -1      5783 1.62738E+00
 -1      5784 1.39782E+00
 -1      5785 2.09399E+00
 -1      5786 2.15607E+00
 -1      5787 2.09399E+00
 -1      5788 1.50985E+00
 -1      5789 9.66194E-01
 -1      5790 9.99256E-01
 -1      5791 1.53009E+00
 -1      5792 9.45952E-01
 -1      5793 9.20646E-01
 -1      5794 9.34383E-01
 -1      5795 9.43420E-01
 -1      5796 9.20646E-01
 -1      5797 1.11416E+00
 -1      5798 1.11906E+00
 -1      5799 1.01740E+00
 -1      5800 1.11416E+00
 -1      5801 1.29474E+00
 -1      5802 1.29474E+00
 -1      5803 1.20445E+00
 -1      5804 1.29474E+00
 -1      5805 2.04865E+00
 -1      5806 2.04781E+00
 -1      5807 1.67169E+00
 -1      5808 2.04865E+00
 -1      5809 2.95471E+00
 -1      5810 2.91447E+00
 -1      5811 2.50168E+00
 -1      5812 2.95471E+00
 -1      5813 3.77674E+00
 -1      5814 3.69430E+00
 -1      5815 3.36572E+00
 -1      5816 3.77674E+00
 -1      5817 4.50799E+00
 -1      5818 4.38180E+00
 -1      5819 4.14236E+00
 -1      5820 4.50799E+00
 -1      5821 5.24221E+00
 -1      5822 5.06477E+00
 -1      5823 4.87510E+00
 -1      5824 5.24221E+00
 -1      5825 5.97521E+00
 -1      5826 5.84192E+00
 -1      5827 5.60871E+00
 -1      5828 5.97521E+00
 -1      5829 7.01560E+00
 -1      5830 7.03345E+00
 -1      5831 6.49540E+00
 -1      5832 7.01560E+00
 -1      5833 8.50583E+00
 -1      5834 9.33639E+00
 -1      5835 7.76072E+00
 -1      5836 8.50583E+00
 -1      5837 1.18311E+01
 -1      5838 1.38978E+01
 -1      5839 1.01685E+01
 -1      5840 1.18311E+01
 -1      5841 1.87156E+01
 -1      5842 1.96958E+01
 -1      5843 1.52733E+01
 -1      5844 1.87156E+01
 -1      5845 1.87156E+01
 -1      5846 1.96958E+01
 -1      5847 1.87156E+01
 -1      5848 1.87156E+01
 -1      5849 1.50035E+01
 -1      5850 1.50035E+01
 -1      5851 1.57683E+01
 -1      5852 1.57683E+01
 -1      5853 1.59224E+01
 -1      5854 1.50035E+01
 -1      5855 1.59224E+01
 -1      5856 9.38940E+00
 -1      5857 1.01104E+01
 -1      5858 1.21964E+01
 -1      5859 9.83966E+00
 -1      5860 6.84922E+00
 -1      5861 7.37338E+00
 -1      5862 8.11931E+00
 -1      5863 7.11193E+00
 -1      5864 6.33297E+00
 -1      5865 6.47971E+00
 -1      5866 6.59109E+00
 -1      5867 6.50988E+00
 -1      5868 5.68776E+00
 -1      5869 5.68384E+00
 -1      5870 6.01037E+00
 -1      5871 5.84713E+00
 -1      5872 5.07596E+00
 -1      5873 5.02273E+00
 -1      5874 5.38186E+00
 -1      5875 5.21821E+00
 -1      5876 4.37184E+00
 -1      5877 4.31180E+00
 -1      5878 4.72390E+00
 -1      5879 4.49353E+00
 -1      5880 3.59692E+00
 -1      5881 3.57537E+00
 -1      5882 3.98438E+00
 -1      5883 3.70062E+00
 -1      5884 2.76954E+00
 -1      5885 2.76954E+00
 -1      5886 3.18323E+00
 -1      5887 2.86212E+00
 -1      5888 1.90343E+00
 -1      5889 1.90343E+00
 -1      5890 2.33648E+00
 -1      5891 1.97604E+00
 -1      5892 1.26166E+00
 -1      5893 1.26486E+00
 -1      5894 1.58254E+00
 -1      5895 1.27192E+00
 -1      5896 1.07435E+00
 -1      5897 1.08381E+00
 -1      5898 1.16800E+00
 -1      5899 1.08083E+00
 -1      5900 8.72099E-01
 -1      5901 8.88617E-01
 -1      5902 9.73224E-01
 -1      5903 8.75009E-01
 -1      5904 7.51333E-01
 -1      5905 7.91461E-01
 -1      5906 8.11716E-01
 -1      5907 8.07238E-01
 -1      5908 1.09534E+00
 -1      5909 1.12805E+00
 -1      5910 9.23337E-01
 -1      5911 9.79241E-01
 -1      5912 1.81365E+00
 -1      5913 1.95382E+00
 -1      5914 1.45449E+00
 -1      5915 1.21979E+00
 -1      5916 1.81365E+00
 -1      5917 1.95382E+00
 -1      5918 1.81365E+00
 -1      5919 1.33840E+00
 -1      5920 8.82864E-01
 -1      5921 9.24529E-01
 -1      5922 1.34826E+00
 -1      5923 8.73003E-01
 -1      5924 8.77919E-01
 -1      5925 8.99282E-01
 -1      5926 8.80392E-01
 -1      5927 8.77919E-01
 -1      5928 1.08838E+00
 -1      5929 1.10127E+00
 -1      5930 9.83151E-01
 -1      5931 1.08784E+00
 -1      5932 1.28218E+00
 -1      5933 1.28846E+00
 -1      5934 1.18528E+00
 -1      5935 1.28218E+00
 -1      5936 2.04865E+00
 -1      5937 2.04865E+00
 -1      5938 1.66541E+00
 -1      5939 2.04865E+00
 -1      5940 2.95471E+00
 -1      5941 2.95471E+00
 -1      5942 2.50168E+00
 -1      5943 2.95471E+00
 -1      5944 3.80432E+00
 -1      5945 3.79053E+00
 -1      5946 3.37951E+00
 -1      5947 3.80432E+00
 -1      5948 4.61522E+00
 -1      5949 4.56160E+00
 -1      5950 4.20977E+00
 -1      5951 4.61522E+00
 -1      5952 5.36045E+00
 -1      5953 5.30133E+00
 -1      5954 4.98783E+00
 -1      5955 5.36045E+00
 -1      5956 6.00650E+00
 -1      5957 5.99085E+00
 -1      5958 5.68348E+00
 -1      5959 6.00650E+00
 -1      5960 6.68680E+00
 -1      5961 6.85120E+00
 -1      5962 6.34665E+00
 -1      5963 6.68680E+00
 -1      5964 7.37464E+00
 -1      5965 7.94023E+00
 -1      5966 7.03072E+00
 -1      5967 7.37464E+00
 -1      5968 1.02899E+01
 -1      5969 1.10605E+01
 -1      5970 8.83228E+00
 -1      5971 1.02899E+01
 -1      5972 1.68413E+01
 -1      5973 1.77784E+01
 -1      5974 1.35656E+01
 -1      5975 1.68413E+01
 -1      5976 1.68413E+01
 -1      5977 1.77784E+01
 -1      5978 1.68413E+01
 -1      5979 1.68413E+01
 -1      5980 1.42843E+01
 -1      5981 1.42843E+01
 -1      5982 1.46439E+01
 -1      5983 1.46439E+01
 -1      5984 1.51169E+01
 -1      5985 1.42843E+01
 -1      5986 1.51169E+01
 -1      5987 8.77642E+00
 -1      5988 9.08291E+00
 -1      5989 1.15304E+01
 -1      5990 9.18676E+00
 -1      5991 6.27081E+00
 -1      5992 6.56001E+00
 -1      5993 7.52361E+00
 -1      5994 6.51475E+00
 -1      5995 6.10224E+00
 -1      5996 6.21761E+00
 -1      5997 6.18652E+00
 -1      5998 6.28367E+00
 -1      5999 5.68776E+00
 -1      6000 5.68776E+00
 -1      6001 5.89500E+00
 -1      6002 5.84713E+00
 -1      6003 5.07596E+00
 -1      6004 5.07596E+00
 -1      6005 5.38186E+00
 -1      6006 5.21821E+00
 -1      6007 4.37184E+00
 -1      6008 4.37184E+00
 -1      6009 4.72390E+00
 -1      6010 4.49353E+00
 -1      6011 3.59692E+00
 -1      6012 3.59692E+00
 -1      6013 3.98438E+00
 -1      6014 3.70062E+00
 -1      6015 2.74576E+00
 -1      6016 2.75765E+00
 -1      6017 3.17134E+00
 -1      6018 2.82617E+00
 -1      6019 1.81734E+00
 -1      6020 1.86039E+00
 -1      6021 2.28155E+00
 -1      6022 1.87292E+00
 -1      6023 1.23455E+00
 -1      6024 1.24811E+00
 -1      6025 1.52595E+00
 -1      6026 1.24064E+00
 -1      6027 1.05879E+00
 -1      6028 1.06657E+00
 -1      6029 1.14667E+00
 -1      6030 1.04925E+00
 -1      6031 8.47835E-01
 -1      6032 8.59967E-01
 -1      6033 9.53313E-01
 -1      6034 8.35249E-01
 -1      6035 6.74947E-01
 -1      6036 7.13140E-01
 -1      6037 7.61391E-01
 -1      6038 7.30556E-01
 -1      6039 1.02381E+00
 -1      6040 1.05958E+00
 -1      6041 8.49381E-01
 -1      6042 9.04990E-01
 -1      6043 1.45186E+00
 -1      6044 1.63276E+00
 -1      6045 1.23784E+00
 -1      6046 9.96544E-01
 -1      6047 1.45186E+00
 -1      6048 1.63276E+00
 -1      6049 1.45186E+00
 -1      6050 1.11901E+00
 -1      6051 7.98326E-01
 -1      6052 8.40595E-01
 -1      6053 1.12509E+00
 -1      6054 7.92246E-01
 -1      6055 8.30217E-01
 -1      6056 8.54068E-01
 -1      6057 8.14272E-01
 -1      6058 8.26441E-01
 -1      6059 1.07293E+00
 -1      6060 1.08066E+00
 -1      6061 9.51576E-01
 -1      6062 1.05632E+00
 -1      6063 1.26938E+00
 -1      6064 1.27578E+00
 -1      6065 1.17116E+00
 -1      6066 1.25805E+00
 -1      6067 1.92849E+00
 -1      6068 1.98857E+00
 -1      6069 1.59894E+00
 -1      6070 1.92849E+00
 -1      6071 2.90658E+00
 -1      6072 2.93064E+00
 -1      6073 2.41753E+00
 -1      6074 2.90658E+00
 -1      6075 3.80432E+00
 -1      6076 3.80432E+00
 -1      6077 3.35545E+00
 -1      6078 3.80432E+00
 -1      6079 4.61522E+00
 -1      6080 4.61522E+00
 -1      6081 4.20977E+00
 -1      6082 4.61522E+00
 -1      6083 5.36045E+00
 -1      6084 5.36045E+00
 -1      6085 4.98783E+00
 -1      6086 5.36045E+00
 -1      6087 6.00650E+00
 -1      6088 6.00650E+00
 -1      6089 5.68348E+00
 -1      6090 6.00650E+00
 -1      6091 6.46511E+00
 -1      6092 6.57595E+00
 -1      6093 6.23580E+00
 -1      6094 6.46511E+00
 -1      6095 6.75868E+00
 -1      6096 7.06666E+00
 -1      6097 6.61190E+00
 -1      6098 6.75868E+00
 -1      6099 9.59711E+00
 -1      6100 9.94351E+00
 -1      6101 8.17790E+00
 -1      6102 9.59711E+00
 -1      6103 1.59494E+01
 -1      6104 1.63954E+01
 -1      6105 1.27733E+01
 -1      6106 1.59494E+01
 -1      6107 1.59494E+01
 -1      6108 1.63954E+01
 -1      6109 1.59494E+01
 -1      6110 1.59494E+01
 -1      6111 1.50035E+01
 -1      6112 1.50035E+01
 -1      6113 1.46439E+01
 -1      6114 1.46439E+01
 -1      6115 1.59224E+01
 -1      6116 1.50035E+01
 -1      6117 1.59224E+01
 -1      6118 9.38940E+00
 -1      6119 9.08291E+00
 -1      6120 1.21964E+01
 -1      6121 9.83966E+00
 -1      6122 6.84922E+00
 -1      6123 6.56001E+00
 -1      6124 8.11931E+00
 -1      6125 7.11193E+00
 -1      6126 6.33297E+00
 -1      6127 6.21761E+00
 -1      6128 6.59109E+00
 -1      6129 6.50988E+00
 -1      6130 5.68776E+00
 -1      6131 5.68776E+00
 -1      6132 6.01037E+00
 -1      6133 5.84713E+00
 -1      6134 5.07596E+00
 -1      6135 5.07596E+00
 -1      6136 5.38186E+00
 -1      6137 5.21821E+00
 -1      6138 4.37184E+00
 -1      6139 4.37184E+00
 -1      6140 4.72390E+00
 -1      6141 4.49353E+00
 -1      6142 3.59692E+00
 -1      6143 3.59692E+00
 -1      6144 3.98438E+00
 -1      6145 3.70062E+00
 -1      6146 2.76954E+00
 -1      6147 2.75765E+00
 -1      6148 3.18323E+00
 -1      6149 2.86212E+00
 -1      6150 1.90343E+00
 -1      6151 1.86039E+00
 -1      6152 2.33648E+00
 -1      6153 1.97604E+00
 -1      6154 1.26166E+00
 -1      6155 1.24811E+00
 -1      6156 1.58254E+00
 -1      6157 1.27192E+00
 -1      6158 1.07435E+00
 -1      6159 1.06657E+00
 -1      6160 1.16800E+00
 -1      6161 1.08083E+00
 -1      6162 8.72099E-01
 -1      6163 8.59967E-01
 -1      6164 9.73224E-01
 -1      6165 8.75009E-01
 -1      6166 7.51333E-01
 -1      6167 7.13140E-01
 -1      6168 8.11716E-01
 -1      6169 8.07238E-01
 -1      6170 1.09534E+00
 -1      6171 1.05958E+00
 -1      6172 9.23337E-01
 -1      6173 9.79241E-01
 -1      6174 1.81365E+00
 -1      6175 1.63276E+00
 -1      6176 1.45449E+00
 -1      6177 1.21979E+00
 -1      6178 1.81365E+00
 -1      6179 1.63276E+00
 -1      6180 1.81365E+00
 -1      6181 1.33840E+00
 -1      6182 8.82864E-01
 -1      6183 8.40595E-01
 -1      6184 1.34826E+00
 -1      6185 8.73003E-01
 -1      6186 8.77919E-01
 -1      6187 8.54068E-01
 -1      6188 8.80392E-01
 -1      6189 8.77919E-01
 -1      6190 1.08838E+00
 -1      6191 1.08066E+00
 -1      6192 9.83151E-01
 -1      6193 1.08784E+00
 -1      6194 1.28218E+00
 -1      6195 1.27578E+00
 -1      6196 1.18528E+00
 -1      6197 1.28218E+00
 -1      6198 2.04865E+00
 -1      6199 1.98857E+00
 -1      6200 1.66541E+00
 -1      6201 2.04865E+00
 -1      6202 2.95471E+00
 -1      6203 2.93064E+00
 -1      6204 2.50168E+00
 -1      6205 2.95471E+00
 -1      6206 3.80432E+00
 -1      6207 3.80432E+00
 -1      6208 3.37951E+00
 -1      6209 3.80432E+00
 -1      6210 4.61522E+00
 -1      6211 4.61522E+00
 -1      6212 4.20977E+00
 -1      6213 4.61522E+00
 -1      6214 5.36045E+00
 -1      6215 5.36045E+00
 -1      6216 4.98783E+00
 -1      6217 5.36045E+00
 -1      6218 6.00650E+00
 -1      6219 6.00650E+00
 -1      6220 5.68348E+00
 -1      6221 6.00650E+00
 -1      6222 6.68680E+00
 -1      6223 6.57595E+00
 -1      6224 6.34665E+00
 -1      6225 6.68680E+00
 -1      6226 7.37464E+00
 -1      6227 7.06666E+00
 -1      6228 7.03072E+00
 -1      6229 7.37464E+00
 -1      6230 1.02899E+01
 -1      6231 9.94351E+00
 -1      6232 8.83228E+00
 -1      6233 1.02899E+01
 -1      6234 1.68413E+01
 -1      6235 1.63954E+01
 -1      6236 1.35656E+01
 -1      6237 1.68413E+01
 -1      6238 1.68413E+01
 -1      6239 1.63954E+01
 -1      6240 1.68413E+01
 -1      6241 1.68413E+01
 -1      6242 1.65330E+01
 -1      6243 1.65330E+01
 -1      6244 1.57683E+01
 -1      6245 1.57683E+01
 -1      6246 1.76243E+01
 -1      6247 1.65330E+01
 -1      6248 1.76243E+01
 -1      6249 1.08314E+01
 -1      6250 1.01104E+01
 -1      6251 1.36822E+01
 -1      6252 1.13313E+01
 -1      6253 7.89755E+00
 -1      6254 7.37338E+00
 -1      6255 9.36448E+00
 -1      6256 8.20169E+00
 -1      6257 6.62644E+00
 -1      6258 6.47971E+00
 -1      6259 7.26199E+00
 -1      6260 6.82102E+00
 -1      6261 5.67993E+00
 -1      6262 5.68384E+00
 -1      6263 6.15318E+00
 -1      6264 5.82757E+00
 -1      6265 4.96949E+00
 -1      6266 5.02273E+00
 -1      6267 5.32471E+00
 -1      6268 5.10585E+00
 -1      6269 4.25176E+00
 -1      6270 4.31180E+00
 -1      6271 4.61062E+00
 -1      6272 4.37988E+00
 -1      6273 3.55382E+00
 -1      6274 3.57537E+00
 -1      6275 3.90279E+00
 -1      6276 3.66528E+00
 -1      6277 2.76954E+00
 -1      6278 2.76954E+00
 -1      6279 3.16168E+00
 -1      6280 2.86212E+00
 -1      6281 1.90343E+00
 -1      6282 1.90343E+00
 -1      6283 2.33648E+00
 -1      6284 1.97604E+00
 -1      6285 1.26805E+00
 -1      6286 1.26486E+00
 -1      6287 1.58574E+00
 -1      6288 1.28140E+00
 -1      6289 1.09328E+00
 -1      6290 1.08381E+00
 -1      6291 1.18067E+00
 -1      6292 1.10372E+00
 -1      6293 9.05135E-01
 -1      6294 8.88617E-01
 -1      6295 9.99207E-01
 -1      6296 9.12890E-01
 -1      6297 8.31589E-01
 -1      6298 7.91461E-01
 -1      6299 8.68362E-01
 -1      6300 8.78650E-01
 -1      6301 1.16076E+00
 -1      6302 1.12805E+00
 -1      6303 9.96176E-01
 -1      6304 1.04324E+00
 -1      6305 2.09399E+00
 -1      6306 1.95382E+00
 -1      6307 1.62738E+00
 -1      6308 1.39782E+00
 -1      6309 2.09399E+00
 -1      6310 1.95382E+00
 -1      6311 2.09399E+00
 -1      6312 1.50985E+00
 -1      6313 9.66194E-01
 -1      6314 9.24529E-01
 -1      6315 1.53009E+00
 -1      6316 9.45952E-01
 -1      6317 9.20646E-01
 -1      6318 8.99282E-01
 -1      6319 9.43420E-01
 -1      6320 9.20646E-01
 -1      6321 1.11416E+00
 -1      6322 1.10127E+00
 -1      6323 1.01740E+00
 -1      6324 1.11416E+00
 -1      6325 1.29474E+00
 -1      6326 1.28846E+00
 -1      6327 1.20445E+00
 -1      6328 1.29474E+00
 -1      6329 2.04865E+00
 -1      6330 2.04865E+00
 -1      6331 1.67169E+00
 -1      6332 2.04865E+00
 -1      6333 2.95471E+00
 -1      6334 2.95471E+00
 -1      6335 2.50168E+00
 -1      6336 2.95471E+00
 -1      6337 3.77674E+00
 -1      6338 3.79053E+00
 -1      6339 3.36572E+00
 -1      6340 3.77674E+00
 -1      6341 4.50799E+00
 -1      6342 4.56160E+00
 -1      6343 4.14236E+00
 -1      6344 4.50799E+00
 -1      6345 5.24221E+00
 -1      6346 5.30133E+00
 -1      6347 4.87510E+00
 -1      6348 5.24221E+00
 -1      6349 5.97521E+00
 -1      6350 5.99085E+00
 -1      6351 5.60871E+00
 -1      6352 5.97521E+00
 -1      6353 7.01560E+00
 -1      6354 6.85120E+00
 -1      6355 6.49540E+00
 -1      6356 7.01560E+00
 -1      6357 8.50583E+00
 -1      6358 7.94023E+00
 -1      6359 7.76072E+00
 -1      6360 8.50583E+00
 -1      6361 1.18311E+01
 -1      6362 1.10605E+01
 -1      6363 1.01685E+01
 -1      6364 1.18311E+01
 -1      6365 1.87156E+01
 -1      6366 1.77784E+01
 -1      6367 1.52733E+01
 -1      6368 1.87156E+01
 -1      6369 1.87156E+01
 -1      6370 1.77784E+01
 -1      6371 1.87156E+01
 -1      6372 1.87156E+01
 -1      6373 1.80534E+01
 -1      6374 1.80534E+01
 -1      6375 1.72932E+01
 -1      6376 1.72932E+01
 -1      6377 1.93648E+01
 -1      6378 1.80534E+01
 -1      6379 1.93648E+01
 -1      6380 1.44740E+01
 -1      6381 1.26527E+01
 -1      6382 1.62637E+01
 -1      6383 1.52192E+01
 -1      6384 9.49601E+00
 -1      6385 8.69678E+00
 -1      6386 1.19850E+01
 -1      6387 9.83148E+00
 -1      6388 6.73384E+00
 -1      6389 6.68014E+00
 -1      6390 8.11493E+00
 -1      6391 6.89257E+00
 -1      6392 5.44435E+00
 -1      6393 5.56214E+00
 -1      6394 6.08909E+00
 -1      6395 5.57649E+00
 -1      6396 4.64683E+00
 -1      6397 4.80816E+00
 -1      6398 5.04559E+00
 -1      6399 4.76708E+00
 -1      6400 4.00138E+00
 -1      6401 4.12657E+00
 -1      6402 4.32411E+00
 -1      6403 4.12849E+00
 -1      6404 3.37392E+00
 -1      6405 3.46387E+00
 -1      6406 3.68765E+00
 -1      6407 3.49289E+00
 -1      6408 2.66526E+00
 -1      6409 2.71740E+00
 -1      6410 3.01959E+00
 -1      6411 2.76974E+00
 -1      6412 1.86961E+00
 -1      6413 1.88652E+00
 -1      6414 2.26744E+00
 -1      6415 1.95829E+00
 -1      6416 1.26805E+00
 -1      6417 1.26805E+00
 -1      6418 1.56883E+00
 -1      6419 1.28140E+00
 -1      6420 1.09695E+00
 -1      6421 1.09511E+00
 -1      6422 1.18250E+00
 -1      6423 1.11045E+00
 -1      6424 9.24818E-01
 -1      6425 9.14976E-01
 -1      6426 1.01088E+00
 -1      6427 9.36469E-01
 -1      6428 9.01897E-01
 -1      6429 8.66743E-01
 -1      6430 9.13357E-01
 -1      6431 9.34290E-01
 -1      6432 1.20624E+00
 -1      6433 1.18350E+00
 -1      6434 1.05407E+00
 -1      6435 1.08646E+00
 -1      6436 2.21815E+00
 -1      6437 2.15607E+00
 -1      6438 1.71219E+00
 -1      6439 1.48913E+00
 -1      6440 2.21815E+00
 -1      6441 2.15607E+00
 -1      6442 2.21815E+00
 -1      6443 1.59241E+00
 -1      6444 1.03232E+00
 -1      6445 9.99256E-01
 -1      6446 1.62523E+00
 -1      6447 9.99500E-01
 -1      6448 9.48120E-01
 -1      6449 9.34383E-01
 -1      6450 9.90219E-01
 -1      6451 9.48120E-01
 -1      6452 1.12395E+00
 -1      6453 1.11906E+00
 -1      6454 1.03604E+00
 -1      6455 1.12395E+00
 -1      6456 1.29474E+00
 -1      6457 1.29474E+00
 -1      6458 1.20935E+00
 -1      6459 1.29474E+00
 -1      6460 2.04697E+00
 -1      6461 2.04781E+00
 -1      6462 1.67086E+00
 -1      6463 2.04697E+00
 -1      6464 2.87422E+00
 -1      6465 2.91447E+00
 -1      6466 2.46060E+00
 -1      6467 2.87422E+00
 -1      6468 3.61186E+00
 -1      6469 3.69430E+00
 -1      6470 3.24304E+00
 -1      6471 3.61186E+00
 -1      6472 4.25561E+00
 -1      6473 4.38180E+00
 -1      6474 3.93373E+00
 -1      6475 4.25561E+00
 -1      6476 4.88732E+00
 -1      6477 5.06477E+00
 -1      6478 4.57147E+00
 -1      6479 4.88732E+00
 -1      6480 5.70864E+00
 -1      6481 5.84192E+00
 -1      6482 5.29798E+00
 -1      6483 5.70864E+00
 -1      6484 7.05131E+00
 -1      6485 7.03345E+00
 -1      6486 6.37997E+00
 -1      6487 7.05131E+00
 -1      6488 1.01669E+01
 -1      6489 9.33639E+00
 -1      6490 8.60913E+00
 -1      6491 1.01669E+01
 -1      6492 1.59645E+01
 -1      6493 1.38978E+01
 -1      6494 1.30657E+01
 -1      6495 1.59645E+01
 -1      6496 2.06761E+01
 -1      6497 1.96958E+01
 -1      6498 1.83203E+01
 -1      6499 2.06761E+01
 -1      6500 2.06761E+01
 -1      6501 1.96958E+01
 -1      6502 2.06761E+01
 -1      6503 2.06761E+01
 -1      6504 1.80534E+01
 -1      6505 1.80534E+01
 -1      6506 1.80534E+01
 -1      6507 1.80534E+01
 -1      6508 1.93648E+01
 -1      6509 1.80534E+01
 -1      6510 1.93648E+01
 -1      6511 1.44740E+01
 -1      6512 1.44740E+01
 -1      6513 1.62637E+01
 -1      6514 1.52192E+01
 -1      6515 9.49601E+00
 -1      6516 9.49601E+00
 -1      6517 1.19850E+01
 -1      6518 9.83148E+00
 -1      6519 6.73384E+00
 -1      6520 6.73384E+00
 -1      6521 8.11493E+00
 -1      6522 6.89257E+00
 -1      6523 4.99382E+00
 -1      6524 5.21908E+00
 -1      6525 5.86383E+00
 -1      6526 5.11897E+00
 -1      6527 4.26029E+00
 -1      6528 4.45356E+00
 -1      6529 4.62705E+00
 -1      6530 4.40712E+00
 -1      6531 3.76636E+00
 -1      6532 3.88387E+00
 -1      6533 4.01332E+00
 -1      6534 3.89816E+00
 -1      6535 3.17621E+00
 -1      6536 3.27507E+00
 -1      6537 3.47129E+00
 -1      6538 3.29685E+00
 -1      6539 2.50234E+00
 -1      6540 2.58380E+00
 -1      6541 2.83928E+00
 -1      6542 2.61112E+00
 -1      6543 1.75465E+00
 -1      6544 1.81213E+00
 -1      6545 2.12850E+00
 -1      6546 1.85127E+00
 -1      6547 1.25812E+00
 -1      6548 1.26309E+00
 -1      6549 1.50639E+00
 -1      6550 1.27370E+00
 -1      6551 1.09695E+00
 -1      6552 1.09695E+00
 -1      6553 1.17753E+00
 -1      6554 1.11045E+00
 -1      6555 9.24818E-01
 -1      6556 9.24818E-01
 -1      6557 1.01088E+00
 -1      6558 9.36469E-01
 -1      6559 9.01897E-01
 -1      6560 9.01897E-01
 -1      6561 9.13357E-01
 -1      6562 9.34290E-01
 -1      6563 1.20624E+00
 -1      6564 1.20624E+00
 -1      6565 1.05407E+00
 -1      6566 1.08646E+00
 -1      6567 2.21815E+00
 -1      6568 2.21815E+00
 -1      6569 1.71219E+00
 -1      6570 1.48913E+00
 -1      6571 2.21815E+00
 -1      6572 2.21815E+00
 -1      6573 2.21815E+00
 -1      6574 1.59241E+00
 -1      6575 1.03232E+00
 -1      6576 1.03232E+00
 -1      6577 1.62523E+00
 -1      6578 9.99500E-01
 -1      6579 9.48120E-01
 -1      6580 9.48120E-01
 -1      6581 9.90219E-01
 -1      6582 9.48120E-01
 -1      6583 1.12395E+00
 -1      6584 1.12395E+00
 -1      6585 1.03604E+00
 -1      6586 1.12395E+00
 -1      6587 1.28928E+00
 -1      6588 1.29201E+00
 -1      6589 1.20661E+00
 -1      6590 1.28928E+00
 -1      6591 1.94789E+00
 -1      6592 1.99743E+00
 -1      6593 1.61858E+00
 -1      6594 1.94789E+00
 -1      6595 2.71989E+00
 -1      6596 2.79706E+00
 -1      6597 2.33389E+00
 -1      6598 2.71989E+00
 -1      6599 3.41748E+00
 -1      6600 3.51467E+00
 -1      6601 3.06869E+00
 -1      6602 3.41748E+00
 -1      6603 4.02996E+00
 -1      6604 4.14278E+00
 -1      6605 3.72372E+00
 -1      6606 4.02996E+00
 -1      6607 4.55396E+00
 -1      6608 4.72064E+00
 -1      6609 4.29196E+00
 -1      6610 4.55396E+00
 -1      6611 5.24412E+00
 -1      6612 5.47638E+00
 -1      6613 4.89904E+00
 -1      6614 5.24412E+00
 -1      6615 7.05131E+00
 -1      6616 7.05131E+00
 -1      6617 6.14771E+00
 -1      6618 7.05131E+00
 -1      6619 1.01669E+01
 -1      6620 1.01669E+01
 -1      6621 8.60913E+00
 -1      6622 1.01669E+01
 -1      6623 1.59645E+01
 -1      6624 1.59645E+01
 -1      6625 1.30657E+01
 -1      6626 1.59645E+01
 -1      6627 2.06761E+01
 -1      6628 2.06761E+01
 -1      6629 1.83203E+01
 -1      6630 2.06761E+01
 -1      6631 2.06761E+01
 -1      6632 2.06761E+01
 -1      6633 2.06761E+01
 -1      6634 2.06761E+01
 -1      6635 1.11049E+01
 -1      6636 1.11049E+01
 -1      6637 1.11049E+01
 -1      6638 1.11049E+01
 -1      6639 1.45792E+01
 -1      6640 1.11049E+01
 -1      6641 1.45792E+01
 -1      6642 1.11049E+01
 -1      6643 1.11049E+01
 -1      6644 1.45792E+01
 -1      6645 1.11049E+01
 -1      6646 1.45792E+01
 -1      6647 7.88481E+00
 -1      6648 7.88481E+00
 -1      6649 9.49487E+00
 -1      6650 1.11794E+01
 -1      6651 7.88481E+00
 -1      6652 9.49487E+00
 -1      6653 1.11794E+01
 -1      6654 5.55906E+00
 -1      6655 5.55906E+00
 -1      6656 6.72194E+00
 -1      6657 7.52754E+00
 -1      6658 5.55906E+00
 -1      6659 6.72194E+00
 -1      6660 7.52754E+00
 -1      6661 4.12484E+00
 -1      6662 4.26896E+00
 -1      6663 4.84195E+00
 -1      6664 5.42934E+00
 -1      6665 4.19690E+00
 -1      6666 4.91401E+00
 -1      6667 5.50140E+00
 -1      6668 3.21918E+00
 -1      6669 3.72067E+00
 -1      6670 3.67201E+00
 -1      6671 4.10650E+00
 -1      6672 3.46993E+00
 -1      6673 3.99482E+00
 -1      6674 4.58251E+00
 -1      6675 2.77200E+00
 -1      6676 3.15479E+00
 -1      6677 2.99559E+00
 -1      6678 3.51614E+00
 -1      6679 2.96339E+00
 -1      6680 3.43773E+00
 -1      6681 3.90081E+00
 -1      6682 2.40565E+00
 -1      6683 2.77156E+00
 -1      6684 2.58882E+00
 -1      6685 3.08601E+00
 -1      6686 2.58861E+00
 -1      6687 2.96318E+00
 -1      6688 3.38647E+00
 -1      6689 2.12242E+00
 -1      6690 2.35906E+00
 -1      6691 2.26404E+00
 -1      6692 2.64932E+00
 -1      6693 2.24074E+00
 -1      6694 2.56531E+00
 -1      6695 2.86649E+00
 -1      6696 1.71987E+00
 -1      6697 1.93445E+00
 -1      6698 1.92114E+00
 -1      6699 2.11110E+00
 -1      6700 1.82716E+00
 -1      6701 2.14675E+00
 -1      6702 2.29985E+00
 -1      6703 1.30526E+00
 -1      6704 1.38818E+00
 -1      6705 1.51256E+00
 -1      6706 1.52996E+00
 -1      6707 1.34672E+00
 -1      6708 1.66131E+00
 -1      6709 1.62890E+00
 -1      6710 1.24719E+00
 -1      6711 1.28589E+00
 -1      6712 1.27623E+00
 -1      6713 1.25266E+00
 -1      6714 1.26654E+00
 -1      6715 1.33703E+00
 -1      6716 1.27697E+00
 -1      6717 1.15933E+00
 -1      6718 1.20309E+00
 -1      6719 1.20326E+00
 -1      6720 1.12814E+00
 -1      6721 1.18121E+00
 -1      6722 1.24449E+00
 -1      6723 1.15002E+00
 -1      6724 1.02764E+00
 -1      6725 1.06808E+00
 -1      6726 1.09349E+00
 -1      6727 9.76231E-01
 -1      6728 1.04786E+00
 -1      6729 1.13559E+00
 -1      6730 9.96451E-01
 -1      6731 2.58621E+00
 -1      6732 2.58621E+00
 -1      6733 1.80693E+00
 -1      6734 1.74405E+00
 -1      6735 2.58621E+00
 -1      6736 1.82715E+00
 -1      6737 1.74405E+00
 -1      6738 5.75973E+00
 -1      6739 5.75973E+00
 -1      6740 4.17297E+00
 -1      6741 3.48299E+00
 -1      6742 5.75973E+00
 -1      6743 4.17297E+00
 -1      6744 3.48299E+00
 -1      6745 7.21598E+00
 -1      6746 7.21598E+00
 -1      6747 6.48786E+00
 -1      6748 4.71706E+00
 -1      6749 7.21598E+00
 -1      6750 6.48786E+00
 -1      6751 4.71706E+00
 -1      6752 7.21598E+00
 -1      6753 7.21598E+00
 -1      6754 7.21598E+00
 -1      6755 4.71706E+00
 -1      6756 7.21598E+00
 -1      6757 7.21598E+00
 -1      6758 4.71706E+00
 -1      6759 4.13051E+00
 -1      6760 4.13051E+00
 -1      6761 5.67324E+00
 -1      6762 2.58141E+00
 -1      6763 4.13051E+00
 -1      6764 5.67324E+00
 -1      6765 2.58141E+00
 -1      6766 1.24417E+00
 -1      6767 1.24417E+00
 -1      6768 2.68734E+00
 -1      6769 1.09615E+00
 -1      6770 1.24417E+00
 -1      6771 2.68734E+00
 -1      6772 1.09615E+00
 -1      6773 1.21417E+00
 -1      6774 1.26704E+00
 -1      6775 1.22917E+00
 -1      6776 1.16906E+00
 -1      6777 1.24060E+00
 -1      6778 1.25560E+00
 -1      6779 1.19549E+00
 -1      6780 1.31831E+00
 -1      6781 1.52542E+00
 -1      6782 1.26624E+00
 -1      6783 1.30379E+00
 -1      6784 1.42186E+00
 -1      6785 1.39623E+00
 -1      6786 1.41008E+00
 -1      6787 1.60734E+00
 -1      6788 1.83145E+00
 -1      6789 1.46282E+00
 -1      6790 1.77762E+00
 -1      6791 1.71939E+00
 -1      6792 1.67843E+00
 -1      6793 1.93921E+00
 -1      6794 2.06280E+00
 -1      6795 2.30962E+00
 -1      6796 1.83507E+00
 -1      6797 2.39135E+00
 -1      6798 2.18621E+00
 -1      6799 2.07053E+00
 -1      6800 2.59192E+00
 -1      6801 2.51077E+00
 -1      6802 2.78240E+00
 -1      6803 2.28678E+00
 -1      6804 2.96412E+00
 -1      6805 2.64658E+00
 -1      6806 2.54601E+00
 -1      6807 3.19713E+00
 -1      6808 2.82961E+00
 -1      6809 3.20887E+00
 -1      6810 2.67019E+00
 -1      6811 3.42978E+00
 -1      6812 3.01924E+00
 -1      6813 2.99563E+00
 -1      6814 3.73224E+00
 -1      6815 3.19681E+00
 -1      6816 3.61968E+00
 -1      6817 3.01321E+00
 -1      6818 3.87539E+00
 -1      6819 3.40825E+00
 -1      6820 3.41428E+00
 -1      6821 4.25350E+00
 -1      6822 3.64795E+00
 -1      6823 4.18098E+00
 -1      6824 3.42238E+00
 -1      6825 4.44603E+00
 -1      6826 3.91447E+00
 -1      6827 3.90033E+00
 -1      6828 4.94481E+00
 -1      6829 4.59034E+00
 -1      6830 4.75860E+00
 -1      6831 4.11914E+00
 -1      6832 5.82082E+00
 -1      6833 4.67447E+00
 -1      6834 4.46979E+00
 -1      6835 5.90495E+00
 -1      6836 6.13729E+00
 -1      6837 6.13729E+00
 -1      6838 5.36382E+00
 -1      6839 8.15212E+00
 -1      6840 6.13729E+00
 -1      6841 5.44795E+00
 -1      6842 8.15212E+00
 -1      6843 8.51813E+00
 -1      6844 8.51813E+00
 -1      6845 7.32771E+00
 -1      6846 1.22413E+01
 -1      6847 8.51813E+00
 -1      6848 7.32771E+00
 -1      6849 1.22413E+01
 -1      6850 1.16569E+01
 -1      6851 1.16569E+01
 -1      6852 1.00875E+01
 -1      6853 1.61665E+01
 -1      6854 1.16569E+01
 -1      6855 1.00875E+01
 -1      6856 1.61665E+01
 -1      6857 1.16569E+01
 -1      6858 1.16569E+01
 -1      6859 1.16569E+01
 -1      6860 1.61665E+01
 -1      6861 1.16569E+01
 -1      6862 1.16569E+01
 -1      6863 1.61665E+01
 -1      6864 7.78051E+00
 -1      6865 7.78051E+00
 -1      6866 9.44272E+00
 -1      6867 9.44272E+00
 -1      6868 1.21568E+01
 -1      6869 7.78051E+00
 -1      6870 1.21568E+01
 -1      6871 5.24935E+00
 -1      6872 6.56708E+00
 -1      6873 6.51493E+00
 -1      6874 8.04038E+00
 -1      6875 4.72784E+00
 -1      6876 5.14345E+00
 -1      6877 4.98859E+00
 -1      6878 6.31269E+00
 -1      6879 4.26896E+00
 -1      6880 4.26896E+00
 -1      6881 4.49840E+00
 -1      6882 5.44770E+00
 -1      6883 3.76747E+00
 -1      6884 3.74407E+00
 -1      6885 4.01822E+00
 -1      6886 4.72370E+00
 -1      6887 3.37791E+00
 -1      6888 3.26635E+00
 -1      6889 3.57269E+00
 -1      6890 4.17370E+00
 -1      6891 2.98740E+00
 -1      6892 2.87948E+00
 -1      6893 3.18266E+00
 -1      6894 3.61958E+00
 -1      6895 2.56240E+00
 -1      6896 2.46073E+00
 -1      6897 2.77490E+00
 -1      6898 3.05811E+00
 -1      6899 2.09269E+00
 -1      6900 2.01357E+00
 -1      6901 2.32754E+00
 -1      6902 2.43111E+00
 -1      6903 1.51864E+00
 -1      6904 1.45341E+00
 -1      6905 1.80566E+00
 -1      6906 1.71103E+00
 -1      6907 1.31254E+00
 -1      6908 1.29921E+00
 -1      6909 1.41559E+00
 -1      6910 1.29029E+00
 -1      6911 1.23332E+00
 -1      6912 1.21821E+00
 -1      6913 1.27293E+00
 -1      6914 1.16330E+00
 -1      6915 1.10189E+00
 -1      6916 1.08499E+00
 -1      6917 1.16760E+00
 -1      6918 1.00351E+00
 -1      6919 2.11554E+00
 -1      6920 2.35088E+00
 -1      6921 1.60872E+00
 -1      6922 1.47357E+00
 -1      6923 5.55831E+00
 -1      6924 5.65902E+00
 -1      6925 3.83693E+00
 -1      6926 3.35954E+00
 -1      6927 7.11882E+00
 -1      6928 7.16740E+00
 -1      6929 6.33857E+00
 -1      6930 4.60641E+00
 -1      6931 7.11882E+00
 -1      6932 7.16740E+00
 -1      6933 7.11882E+00
 -1      6934 4.60641E+00
 -1      6935 3.75170E+00
 -1      6936 3.94110E+00
 -1      6937 5.43526E+00
 -1      6938 2.35895E+00
 -1      6939 1.13738E+00
 -1      6940 1.19078E+00
 -1      6941 2.44454E+00
 -1      6942 1.02901E+00
 -1      6943 1.30391E+00
 -1      6944 1.28547E+00
 -1      6945 1.22065E+00
 -1      6946 1.20903E+00
 -1      6947 1.70109E+00
 -1      6948 1.61326E+00
 -1      6949 1.50250E+00
 -1      6950 1.49792E+00
 -1      6951 1.98739E+00
 -1      6952 1.90942E+00
 -1      6953 1.84424E+00
 -1      6954 2.01802E+00
 -1      6955 2.48729E+00
 -1      6956 2.39845E+00
 -1      6957 2.23734E+00
 -1      6958 2.72100E+00
 -1      6959 2.99201E+00
 -1      6960 2.88720E+00
 -1      6961 2.73965E+00
 -1      6962 3.38437E+00
 -1      6963 3.45359E+00
 -1      6964 3.33123E+00
 -1      6965 3.22280E+00
 -1      6966 3.98079E+00
 -1      6967 3.84542E+00
 -1      6968 3.73255E+00
 -1      6969 3.64951E+00
 -1      6970 4.54381E+00
 -1      6971 4.25537E+00
 -1      6972 4.21818E+00
 -1      6973 4.05040E+00
 -1      6974 5.11529E+00
 -1      6975 4.75860E+00
 -1      6976 4.75860E+00
 -1      6977 4.50699E+00
 -1      6978 5.88710E+00
 -1      6979 5.24947E+00
 -1      6980 5.69338E+00
 -1      6981 5.00404E+00
 -1      6982 6.87765E+00
 -1      6983 5.88266E+00
 -1      6984 7.20039E+00
 -1      6985 5.56607E+00
 -1      6986 8.85690E+00
 -1      6987 8.47991E+00
 -1      6988 1.00684E+01
 -1      6989 7.18129E+00
 -1      6990 1.35977E+01
 -1      6991 8.47991E+00
 -1      6992 1.00684E+01
 -1      6993 8.47991E+00
 -1      6994 1.35977E+01
 -1      6995 6.79623E+00
 -1      6996 6.79623E+00
 -1      6997 7.28837E+00
 -1      6998 7.28837E+00
 -1      6999 1.08999E+01
 -1      7000 6.79623E+00
 -1      7001 1.08999E+01
 -1      7002 4.24057E+00
 -1      7003 4.74496E+00
 -1      7004 5.51840E+00
 -1      7005 6.81498E+00
 -1      7006 4.03248E+00
 -1      7007 4.38016E+00
 -1      7008 4.13653E+00
 -1      7009 5.44085E+00
 -1      7010 4.01677E+00
 -1      7011 4.14286E+00
 -1      7012 4.02462E+00
 -1      7013 5.17487E+00
 -1      7014 3.76747E+00
 -1      7015 3.76747E+00
 -1      7016 3.89212E+00
 -1      7017 4.72761E+00
 -1      7018 3.40425E+00
 -1      7019 3.39108E+00
 -1      7020 3.58586E+00
 -1      7021 4.24011E+00
 -1      7022 3.06140E+00
 -1      7023 3.02440E+00
 -1      7024 3.23283E+00
 -1      7025 3.71662E+00
 -1      7026 2.64855E+00
 -1      7027 2.60547E+00
 -1      7028 2.85497E+00
 -1      7029 3.12273E+00
 -1      7030 2.14789E+00
 -1      7031 2.12029E+00
 -1      7032 2.39822E+00
 -1      7033 2.45871E+00
 -1      7034 1.55393E+00
 -1      7035 1.53629E+00
 -1      7036 1.85091E+00
 -1      7037 1.72868E+00
 -1      7038 1.32117E+00
 -1      7039 1.31685E+00
 -1      7040 1.43755E+00
 -1      7041 1.29141E+00
 -1      7042 1.24104E+00
 -1      7043 1.23718E+00
 -1      7044 1.28110E+00
 -1      7045 1.15769E+00
 -1      7046 1.10815E+00
 -1      7047 1.10502E+00
 -1      7048 1.17459E+00
 -1      7049 9.90124E-01
 -1      7050 1.72282E+00
 -1      7051 1.91918E+00
 -1      7052 1.41549E+00
 -1      7053 1.23708E+00
 -1      7054 5.31281E+00
 -1      7055 5.43556E+00
 -1      7056 3.51782E+00
 -1      7057 3.20407E+00
 -1      7058 6.91715E+00
 -1      7059 7.01799E+00
 -1      7060 6.11498E+00
 -1      7061 4.36540E+00
 -1      7062 6.91715E+00
 -1      7063 7.01799E+00
 -1      7064 6.91715E+00
 -1      7065 4.36540E+00
 -1      7066 3.38766E+00
 -1      7067 3.56968E+00
 -1      7068 5.15240E+00
 -1      7069 2.13526E+00
 -1      7070 1.14397E+00
 -1      7071 1.14068E+00
 -1      7072 2.26582E+00
 -1      7073 1.01094E+00
 -1      7074 1.31300E+00
 -1      7075 1.30845E+00
 -1      7076 1.22848E+00
 -1      7077 1.20069E+00
 -1      7078 1.75574E+00
 -1      7079 1.72842E+00
 -1      7080 1.53437E+00
 -1      7081 1.51896E+00
 -1      7082 2.04789E+00
 -1      7083 2.01764E+00
 -1      7084 1.90182E+00
 -1      7085 2.04827E+00
 -1      7086 2.54306E+00
 -1      7087 2.51518E+00
 -1      7088 2.29548E+00
 -1      7089 2.74888E+00
 -1      7090 3.09103E+00
 -1      7091 3.04152E+00
 -1      7092 2.81705E+00
 -1      7093 3.44768E+00
 -1      7094 3.53769E+00
 -1      7095 3.49564E+00
 -1      7096 3.31436E+00
 -1      7097 4.07645E+00
 -1      7098 3.89269E+00
 -1      7099 3.86905E+00
 -1      7100 3.71519E+00
 -1      7101 4.62657E+00
 -1      7102 4.25537E+00
 -1      7103 4.25537E+00
 -1      7104 4.07403E+00
 -1      7105 5.13094E+00
 -1      7106 4.51597E+00
 -1      7107 4.63729E+00
 -1      7108 4.38567E+00
 -1      7109 5.60138E+00
 -1      7110 4.54492E+00
 -1      7111 4.89720E+00
 -1      7112 4.53045E+00
 -1      7113 5.95978E+00
 -1      7114 4.79701E+00
 -1      7115 5.33984E+00
 -1      7116 4.67097E+00
 -1      7117 7.54346E+00
 -1      7118 7.52685E+00
 -1      7119 8.00338E+00
 -1      7120 6.16193E+00
 -1      7121 1.21841E+01
 -1      7122 7.52685E+00
 -1      7123 8.00338E+00
 -1      7124 7.52685E+00
 -1      7125 1.21841E+01
 -1      7126 6.78301E+00
 -1      7127 6.78301E+00
 -1      7128 6.78962E+00
 -1      7129 6.78962E+00
 -1      7130 1.05337E+01
 -1      7131 6.78301E+00
 -1      7132 1.05337E+01
 -1      7133 4.09824E+00
 -1      7134 4.16940E+00
 -1      7135 5.44062E+00
 -1      7136 6.43733E+00
 -1      7137 3.76323E+00
 -1      7138 3.89785E+00
 -1      7139 3.93073E+00
 -1      7140 5.01702E+00
 -1      7141 3.76323E+00
 -1      7142 3.89000E+00
 -1      7143 3.76323E+00
 -1      7144 4.93273E+00
 -1      7145 3.66951E+00
 -1      7146 3.71849E+00
 -1      7147 3.71637E+00
 -1      7148 4.67863E+00
 -1      7149 3.40425E+00
 -1      7150 3.40425E+00
 -1      7151 3.53688E+00
 -1      7152 4.24011E+00
 -1      7153 3.06140E+00
 -1      7154 3.06140E+00
 -1      7155 3.23283E+00
 -1      7156 3.71662E+00
 -1      7157 2.64855E+00
 -1      7158 2.64855E+00
 -1      7159 2.85497E+00
 -1      7160 3.12273E+00
 -1      7161 2.14789E+00
 -1      7162 2.14789E+00
 -1      7163 2.39822E+00
 -1      7164 2.44683E+00
 -1      7165 1.55393E+00
 -1      7166 1.55393E+00
 -1      7167 1.85091E+00
 -1      7168 1.68564E+00
 -1      7169 1.32117E+00
 -1      7170 1.32117E+00
 -1      7171 1.43755E+00
 -1      7172 1.27786E+00
 -1      7173 1.24104E+00
 -1      7174 1.24104E+00
 -1      7175 1.28110E+00
 -1      7176 1.14991E+00
 -1      7177 1.10815E+00
 -1      7178 1.10815E+00
 -1      7179 1.17459E+00
 -1      7180 9.77992E-01
 -1      7181 1.43078E+00
 -1      7182 1.57680E+00
 -1      7183 1.26947E+00
 -1      7184 1.05286E+00
 -1      7185 5.06723E+00
 -1      7186 5.19002E+00
 -1      7187 3.24900E+00
 -1      7188 3.04552E+00
 -1      7189 6.66874E+00
 -1      7190 6.79294E+00
 -1      7191 5.86798E+00
 -1      7192 4.06030E+00
 -1      7193 6.66874E+00
 -1      7194 6.79294E+00
 -1      7195 6.66874E+00
 -1      7196 4.06030E+00
 -1      7197 3.08107E+00
 -1      7198 3.23437E+00
 -1      7199 4.87491E+00
 -1      7200 1.93970E+00
 -1      7201 1.14397E+00
 -1      7202 1.14397E+00
 -1      7203 2.11252E+00
 -1      7204 9.87093E-01
 -1      7205 1.31300E+00
 -1      7206 1.31300E+00
 -1      7207 1.22848E+00
 -1      7208 1.19297E+00
 -1      7209 1.75574E+00
 -1      7210 1.75574E+00
 -1      7211 1.53437E+00
 -1      7212 1.51256E+00
 -1      7213 2.04789E+00
 -1      7214 2.04789E+00
 -1      7215 1.90182E+00
 -1      7216 1.98819E+00
 -1      7217 2.54306E+00
 -1      7218 2.54306E+00
 -1      7219 2.29548E+00
 -1      7220 2.72482E+00
 -1      7221 3.09103E+00
 -1      7222 3.09103E+00
 -1      7223 2.81705E+00
 -1      7224 3.44768E+00
 -1      7225 3.53769E+00
 -1      7226 3.53769E+00
 -1      7227 3.31436E+00
 -1      7228 4.07645E+00
 -1      7229 3.89269E+00
 -1      7230 3.89269E+00
 -1      7231 3.71519E+00
 -1      7232 4.62657E+00
 -1      7233 4.16716E+00
 -1      7234 4.21127E+00
 -1      7235 4.02992E+00
 -1      7236 5.08683E+00
 -1      7237 4.26010E+00
 -1      7238 4.38803E+00
 -1      7239 4.21363E+00
 -1      7240 5.36260E+00
 -1      7241 4.26010E+00
 -1      7242 4.40251E+00
 -1      7243 4.26010E+00
 -1      7244 5.50939E+00
 -1      7245 4.60827E+00
 -1      7246 4.70264E+00
 -1      7247 4.43419E+00
 -1      7248 7.10269E+00
 -1      7249 7.48396E+00
 -1      7250 7.50541E+00
 -1      7251 6.04612E+00
 -1      7252 1.17167E+01
 -1      7253 7.48396E+00
 -1      7254 7.50541E+00
 -1      7255 7.48396E+00
 -1      7256 1.17167E+01
 -1      7257 6.79623E+00
 -1      7258 6.79623E+00
 -1      7259 6.78962E+00
 -1      7260 6.78962E+00
 -1      7261 1.08999E+01
 -1      7262 6.79623E+00
 -1      7263 1.08999E+01
 -1      7264 4.24057E+00
 -1      7265 4.16940E+00
 -1      7266 5.51840E+00
 -1      7267 6.81498E+00
 -1      7268 4.03248E+00
 -1      7269 3.89785E+00
 -1      7270 4.13653E+00
 -1      7271 5.44085E+00
 -1      7272 4.01677E+00
 -1      7273 3.89000E+00
 -1      7274 4.02462E+00
 -1      7275 5.17487E+00
 -1      7276 3.76747E+00
 -1      7277 3.71849E+00
 -1      7278 3.89212E+00
 -1      7279 4.72761E+00
 -1      7280 3.40425E+00
 -1      7281 3.40425E+00
 -1      7282 3.58586E+00
 -1      7283 4.24011E+00
 -1      7284 3.06140E+00
 -1      7285 3.06140E+00
 -1      7286 3.23283E+00
 -1      7287 3.71662E+00
 -1      7288 2.64855E+00
 -1      7289 2.64855E+00
 -1      7290 2.85497E+00
 -1      7291 3.12273E+00
 -1      7292 2.14789E+00
 -1      7293 2.14789E+00
 -1      7294 2.39822E+00
 -1      7295 2.45871E+00
 -1      7296 1.55393E+00
 -1      7297 1.55393E+00
 -1      7298 1.85091E+00
 -1      7299 1.72868E+00
 -1      7300 1.32117E+00
 -1      7301 1.32117E+00
 -1      7302 1.43755E+00
 -1      7303 1.29141E+00
 -1      7304 1.24104E+00
 -1      7305 1.24104E+00
 -1      7306 1.28110E+00
 -1      7307 1.15769E+00
 -1      7308 1.10815E+00
 -1      7309 1.10815E+00
 -1      7310 1.17459E+00
 -1      7311 9.90124E-01
 -1      7312 1.72282E+00
 -1      7313 1.57680E+00
 -1      7314 1.41549E+00
 -1      7315 1.23708E+00
 -1      7316 5.31281E+00
 -1      7317 5.19002E+00
 -1      7318 3.51782E+00
 -1      7319 3.20407E+00
 -1      7320 6.91715E+00
 -1      7321 6.79294E+00
 -1      7322 6.11498E+00
 -1      7323 4.36540E+00
 -1      7324 6.91715E+00
 -1      7325 6.79294E+00
 -1      7326 6.91715E+00
 -1      7327 4.36540E+00
 -1      7328 3.38766E+00
 -1      7329 3.23437E+00
 -1      7330 5.15240E+00
 -1      7331 2.13526E+00
 -1      7332 1.14397E+00
 -1      7333 1.14397E+00
 -1      7334 2.26582E+00
 -1      7335 1.01094E+00
 -1      7336 1.31300E+00
 -1      7337 1.31300E+00
 -1      7338 1.22848E+00
 -1      7339 1.20069E+00
 -1      7340 1.75574E+00
 -1      7341 1.75574E+00
 -1      7342 1.53437E+00
 -1      7343 1.51896E+00
 -1      7344 2.04789E+00
 -1      7345 2.04789E+00
 -1      7346 1.90182E+00
 -1      7347 2.04827E+00
 -1      7348 2.54306E+00
 -1      7349 2.54306E+00
 -1      7350 2.29548E+00
 -1      7351 2.74888E+00
 -1      7352 3.09103E+00
 -1      7353 3.09103E+00
 -1      7354 2.81705E+00
 -1      7355 3.44768E+00
 -1      7356 3.53769E+00
 -1      7357 3.53769E+00
 -1      7358 3.31436E+00
 -1      7359 4.07645E+00
 -1      7360 3.89269E+00
 -1      7361 3.89269E+00
 -1      7362 3.71519E+00
 -1      7363 4.62657E+00
 -1      7364 4.25537E+00
 -1      7365 4.21127E+00
 -1      7366 4.07403E+00
 -1      7367 5.13094E+00
 -1      7368 4.51597E+00
 -1      7369 4.38803E+00
 -1      7370 4.38567E+00
 -1      7371 5.60138E+00
 -1      7372 4.54492E+00
 -1      7373 4.40251E+00
 -1      7374 4.53045E+00
 -1      7375 5.95978E+00
 -1      7376 4.79701E+00
 -1      7377 4.70264E+00
 -1      7378 4.67097E+00
 -1      7379 7.54346E+00
 -1      7380 7.52685E+00
 -1      7381 7.50541E+00
 -1      7382 6.16193E+00
 -1      7383 1.21841E+01
 -1      7384 7.52685E+00
 -1      7385 7.50541E+00
 -1      7386 7.52685E+00
 -1      7387 1.21841E+01
 -1      7388 7.78051E+00
 -1      7389 7.78051E+00
 -1      7390 7.28837E+00
 -1      7391 7.28837E+00
 -1      7392 1.21568E+01
 -1      7393 7.78051E+00
 -1      7394 1.21568E+01
 -1      7395 5.24935E+00
 -1      7396 4.74496E+00
 -1      7397 6.51493E+00
 -1      7398 8.04038E+00
 -1      7399 4.72784E+00
 -1      7400 4.38016E+00
 -1      7401 4.98859E+00
 -1      7402 6.31269E+00
 -1      7403 4.26896E+00
 -1      7404 4.14286E+00
 -1      7405 4.49840E+00
 -1      7406 5.44770E+00
 -1      7407 3.76747E+00
 -1      7408 3.76747E+00
 -1      7409 4.01822E+00
 -1      7410 4.72370E+00
 -1      7411 3.37791E+00
 -1      7412 3.39108E+00
 -1      7413 3.57269E+00
 -1      7414 4.17370E+00
 -1      7415 2.98740E+00
 -1      7416 3.02440E+00
 -1      7417 3.18266E+00
 -1      7418 3.61958E+00
 -1      7419 2.56240E+00
 -1      7420 2.60547E+00
 -1      7421 2.77490E+00
 -1      7422 3.05811E+00
 -1      7423 2.09269E+00
 -1      7424 2.12029E+00
 -1      7425 2.32754E+00
 -1      7426 2.43111E+00
 -1      7427 1.51864E+00
 -1      7428 1.53629E+00
 -1      7429 1.80566E+00
 -1      7430 1.71103E+00
 -1      7431 1.31254E+00
 -1      7432 1.31685E+00
 -1      7433 1.41559E+00
 -1      7434 1.29029E+00
 -1      7435 1.23332E+00
 -1      7436 1.23718E+00
 -1      7437 1.27293E+00
 -1      7438 1.16330E+00
 -1      7439 1.10189E+00
 -1      7440 1.10502E+00
 -1      7441 1.16760E+00
 -1      7442 1.00351E+00
 -1      7443 2.11554E+00
 -1      7444 1.91918E+00
 -1      7445 1.60872E+00
 -1      7446 1.47357E+00
 -1      7447 5.55831E+00
 -1      7448 5.43556E+00
 -1      7449 3.83693E+00
 -1      7450 3.35954E+00
 -1      7451 7.11882E+00
 -1      7452 7.01799E+00
 -1      7453 6.33857E+00
 -1      7454 4.60641E+00
 -1      7455 7.11882E+00
 -1      7456 7.01799E+00
 -1      7457 7.11882E+00
 -1      7458 4.60641E+00
 -1      7459 3.75170E+00
 -1      7460 3.56968E+00
 -1      7461 5.43526E+00
 -1      7462 2.35895E+00
 -1      7463 1.13738E+00
 -1      7464 1.14068E+00
 -1      7465 2.44454E+00
 -1      7466 1.02901E+00
 -1      7467 1.30391E+00
 -1      7468 1.30845E+00
 -1      7469 1.22065E+00
 -1      7470 1.20903E+00
 -1      7471 1.70109E+00
 -1      7472 1.72842E+00
 -1      7473 1.50250E+00
 -1      7474 1.49792E+00
 -1      7475 1.98739E+00
 -1      7476 2.01764E+00
 -1      7477 1.84424E+00
 -1      7478 2.01802E+00
 -1      7479 2.48729E+00
 -1      7480 2.51518E+00
 -1      7481 2.23734E+00
 -1      7482 2.72100E+00
 -1      7483 2.99201E+00
 -1      7484 3.04152E+00
 -1      7485 2.73965E+00
 -1      7486 3.38437E+00
 -1      7487 3.45359E+00
 -1      7488 3.49564E+00
 -1      7489 3.22280E+00
 -1      7490 3.98079E+00
 -1      7491 3.84542E+00
 -1      7492 3.86905E+00
 -1      7493 3.64951E+00
 -1      7494 4.54381E+00
 -1      7495 4.25537E+00
 -1      7496 4.25537E+00
 -1      7497 4.05040E+00
 -1      7498 5.11529E+00
 -1      7499 4.75860E+00
 -1      7500 4.63729E+00
 -1      7501 4.50699E+00
 -1      7502 5.88710E+00
 -1      7503 5.24947E+00
 -1      7504 4.89720E+00
 -1      7505 5.00404E+00
 -1      7506 6.87765E+00
 -1      7507 5.88266E+00
 -1      7508 5.33984E+00
 -1      7509 5.56607E+00
 -1      7510 8.85690E+00
 -1      7511 8.47991E+00
 -1      7512 8.00338E+00
 -1      7513 7.18129E+00
 -1      7514 1.35977E+01
 -1      7515 8.47991E+00
 -1      7516 8.00338E+00
 -1      7517 8.47991E+00
 -1      7518 1.35977E+01
 -1      7519 1.11049E+01
 -1      7520 1.11049E+01
 -1      7521 9.44272E+00
 -1      7522 9.44272E+00
 -1      7523 1.45792E+01
 -1      7524 1.11049E+01
 -1      7525 1.45792E+01
 -1      7526 7.88481E+00
 -1      7527 6.56708E+00
 -1      7528 9.49487E+00
 -1      7529 1.11794E+01
 -1      7530 5.55906E+00
 -1      7531 5.14345E+00
 -1      7532 6.72194E+00
 -1      7533 7.52754E+00
 -1      7534 4.26896E+00
 -1      7535 4.26896E+00
 -1      7536 4.91401E+00
 -1      7537 5.50140E+00
 -1      7538 3.72067E+00
 -1      7539 3.74407E+00
 -1      7540 3.99482E+00
 -1      7541 4.58251E+00
 -1      7542 3.15479E+00
 -1      7543 3.26635E+00
 -1      7544 3.43773E+00
 -1      7545 3.90081E+00
 -1      7546 2.77156E+00
 -1      7547 2.87948E+00
 -1      7548 2.96318E+00
 -1      7549 3.38647E+00
 -1      7550 2.35906E+00
 -1      7551 2.46073E+00
 -1      7552 2.56531E+00
 -1      7553 2.86649E+00
 -1      7554 1.93445E+00
 -1      7555 2.01357E+00
 -1      7556 2.14675E+00
 -1      7557 2.29985E+00
 -1      7558 1.38818E+00
 -1      7559 1.45341E+00
 -1      7560 1.66131E+00
 -1      7561 1.62890E+00
 -1      7562 1.28589E+00
 -1      7563 1.29921E+00
 -1      7564 1.33703E+00
 -1      7565 1.27697E+00
 -1      7566 1.20309E+00
 -1      7567 1.21821E+00
 -1      7568 1.24449E+00
 -1      7569 1.15002E+00
 -1      7570 1.06808E+00
 -1      7571 1.08499E+00
 -1      7572 1.13559E+00
 -1      7573 9.96451E-01
 -1      7574 2.58621E+00
 -1      7575 2.35088E+00
 -1      7576 1.82715E+00
 -1      7577 1.74405E+00
 -1      7578 5.75973E+00
 -1      7579 5.65902E+00
 -1      7580 4.17297E+00
 -1      7581 3.48299E+00
 -1      7582 7.21598E+00
 -1      7583 7.16740E+00
 -1      7584 6.48786E+00
 -1      7585 4.71706E+00
 -1      7586 7.21598E+00
 -1      7587 7.16740E+00
 -1      7588 7.21598E+00
 -1      7589 4.71706E+00
 -1      7590 4.13051E+00
 -1      7591 3.94110E+00
 -1      7592 5.67324E+00
 -1      7593 2.58141E+00
 -1      7594 1.24417E+00
 -1      7595 1.19078E+00
 -1      7596 2.68734E+00
 -1      7597 1.09615E+00
 -1      7598 1.26704E+00
 -1      7599 1.28547E+00
 -1      7600 1.25560E+00
 -1      7601 1.19549E+00
 -1      7602 1.52542E+00
 -1      7603 1.61326E+00
 -1      7604 1.39623E+00
 -1      7605 1.41008E+00
 -1      7606 1.83145E+00
 -1      7607 1.90942E+00
 -1      7608 1.67843E+00
 -1      7609 1.93921E+00
 -1      7610 2.30962E+00
 -1      7611 2.39845E+00
 -1      7612 2.07053E+00
 -1      7613 2.59192E+00
 -1      7614 2.78240E+00
 -1      7615 2.88720E+00
 -1      7616 2.54601E+00
 -1      7617 3.19713E+00
 -1      7618 3.20887E+00
 -1      7619 3.33123E+00
 -1      7620 2.99563E+00
 -1      7621 3.73224E+00
 -1      7622 3.61968E+00
 -1      7623 3.73255E+00
 -1      7624 3.41428E+00
 -1      7625 4.25350E+00
 -1      7626 4.18098E+00
 -1      7627 4.21818E+00
 -1      7628 3.90033E+00
 -1      7629 4.94481E+00
 -1      7630 4.75860E+00
 -1      7631 4.75860E+00
 -1      7632 4.46979E+00
 -1      7633 5.90495E+00
 -1      7634 6.13729E+00
 -1      7635 5.69338E+00
 -1      7636 5.44795E+00
 -1      7637 8.15212E+00
 -1      7638 8.51813E+00
 -1      7639 7.20039E+00
 -1      7640 7.32771E+00
 -1      7641 1.22413E+01
 -1      7642 1.16569E+01
 -1      7643 1.00684E+01
 -1      7644 1.00875E+01
 -1      7645 1.61665E+01
 -1      7646 1.16569E+01
 -1      7647 1.00684E+01
 -1      7648 1.16569E+01
 -1      7649 1.61665E+01
 -1      7650 1.11049E+01
 -1      7651 1.11049E+01
 -1      7652 1.11049E+01
 -1      7653 1.11049E+01
 -1      7654 1.45792E+01
 -1      7655 1.11049E+01
 -1      7656 1.45792E+01
 -1      7657 7.88481E+00
 -1      7658 7.88481E+00
 -1      7659 9.49487E+00
 -1      7660 1.11794E+01
 -1      7661 5.55906E+00
 -1      7662 5.55906E+00
 -1      7663 6.72194E+00
 -1      7664 7.52754E+00
 -1      7665 4.12484E+00
 -1      7666 4.19690E+00
 -1      7667 4.84195E+00
 -1      7668 5.42934E+00
 -1      7669 3.21918E+00
 -1      7670 3.46993E+00
 -1      7671 3.67201E+00
 -1      7672 4.10650E+00
 -1      7673 2.77200E+00
 -1      7674 2.96339E+00
 -1      7675 2.99559E+00
 -1      7676 3.51614E+00
 -1      7677 2.40565E+00
 -1      7678 2.58861E+00
 -1      7679 2.58882E+00
 -1      7680 3.08601E+00
 -1      7681 2.12242E+00
 -1      7682 2.24074E+00
 -1      7683 2.26404E+00
 -1      7684 2.64932E+00
 -1      7685 1.71987E+00
 -1      7686 1.82716E+00
 -1      7687 1.92114E+00
 -1      7688 2.11110E+00
 -1      7689 1.30526E+00
 -1      7690 1.34672E+00
 -1      7691 1.51256E+00
 -1      7692 1.52996E+00
 -1      7693 1.24719E+00
 -1      7694 1.26654E+00
 -1      7695 1.27623E+00
 -1      7696 1.25266E+00
 -1      7697 1.15933E+00
 -1      7698 1.18121E+00
 -1      7699 1.20326E+00
 -1      7700 1.12814E+00
 -1      7701 1.02764E+00
 -1      7702 1.04786E+00
 -1      7703 1.09349E+00
 -1      7704 9.76231E-01
 -1      7705 2.58621E+00
 -1      7706 2.58621E+00
 -1      7707 1.80693E+00
 -1      7708 1.74405E+00
 -1      7709 5.75973E+00
 -1      7710 5.75973E+00
 -1      7711 4.17297E+00
 -1      7712 3.48299E+00
 -1      7713 7.21598E+00
 -1      7714 7.21598E+00
 -1      7715 6.48786E+00
 -1      7716 4.71706E+00
 -1      7717 7.21598E+00
 -1      7718 7.21598E+00
 -1      7719 7.21598E+00
 -1      7720 4.71706E+00
 -1      7721 4.13051E+00
 -1      7722 4.13051E+00
 -1      7723 5.67324E+00
 -1      7724 2.58141E+00
 -1      7725 1.24417E+00
 -1      7726 1.24417E+00
 -1      7727 2.68734E+00
 -1      7728 1.09615E+00
 -1      7729 1.21417E+00
 -1      7730 1.24060E+00
 -1      7731 1.22917E+00
 -1      7732 1.16906E+00
 -1      7733 1.31831E+00
 -1      7734 1.42186E+00
 -1      7735 1.26624E+00
 -1      7736 1.30379E+00
 -1      7737 1.60734E+00
 -1      7738 1.71939E+00
 -1      7739 1.46282E+00
 -1      7740 1.77762E+00
 -1      7741 2.06280E+00
 -1      7742 2.18621E+00
 -1      7743 1.83507E+00
 -1      7744 2.39135E+00
 -1      7745 2.51077E+00
 -1      7746 2.64658E+00
 -1      7747 2.28678E+00
 -1      7748 2.96412E+00
 -1      7749 2.82961E+00
 -1      7750 3.01924E+00
 -1      7751 2.67019E+00
 -1      7752 3.42978E+00
 -1      7753 3.19681E+00
 -1      7754 3.40825E+00
 -1      7755 3.01321E+00
 -1      7756 3.87539E+00
 -1      7757 3.64795E+00
 -1      7758 3.91447E+00
 -1      7759 3.42238E+00
 -1      7760 4.44603E+00
 -1      7761 4.59034E+00
 -1      7762 4.67447E+00
 -1      7763 4.11914E+00
 -1      7764 5.82082E+00
 -1      7765 6.13729E+00
 -1      7766 6.13729E+00
 -1      7767 5.36382E+00
 -1      7768 8.15212E+00
 -1      7769 8.51813E+00
 -1      7770 8.51813E+00
 -1      7771 7.32771E+00
 -1      7772 1.22413E+01
 -1      7773 1.16569E+01
 -1      7774 1.16569E+01
 -1      7775 1.00875E+01
 -1      7776 1.61665E+01
 -1      7777 1.16569E+01
 -1      7778 1.16569E+01
 -1      7779 1.16569E+01
 -1      7780 1.61665E+01
 -1      7781 9.71451E+00
 -1      7782 9.71451E+00
 -1      7783 9.71451E+00
 -1      7784 9.71451E+00
 -1      7785 1.04097E+01
 -1      7786 9.71451E+00
 -1      7787 1.04097E+01
 -1      7788 9.71451E+00
 -1      7789 9.71451E+00
 -1      7790 1.04097E+01
 -1      7791 9.71451E+00
 -1      7792 1.04097E+01
 -1      7793 5.12993E+00
 -1      7794 5.12993E+00
 -1      7795 7.42222E+00
 -1      7796 6.50737E+00
 -1      7797 5.12993E+00
 -1      7798 7.42222E+00
 -1      7799 6.50737E+00
 -1      7800 3.65858E+00
 -1      7801 3.65858E+00
 -1      7802 4.39426E+00
 -1      7803 4.60882E+00
 -1      7804 3.65858E+00
 -1      7805 4.39426E+00
 -1      7806 4.60882E+00
 -1      7807 2.59827E+00
 -1      7808 2.59827E+00
 -1      7809 3.12842E+00
 -1      7810 3.36156E+00
 -1      7811 2.59827E+00
 -1      7812 3.12842E+00
 -1      7813 3.43361E+00
 -1      7814 2.08036E+00
 -1      7815 2.22664E+00
 -1      7816 2.33931E+00
 -1      7817 2.64977E+00
 -1      7818 2.15350E+00
 -1      7819 2.41245E+00
 -1      7820 2.97366E+00
 -1      7821 1.72360E+00
 -1      7822 2.00420E+00
 -1      7823 1.90198E+00
 -1      7824 2.24780E+00
 -1      7825 1.86390E+00
 -1      7826 2.11542E+00
 -1      7827 2.57950E+00
 -1      7828 1.57438E+00
 -1      7829 1.80627E+00
 -1      7830 1.64899E+00
 -1      7831 1.99002E+00
 -1      7832 1.69033E+00
 -1      7833 1.90524E+00
 -1      7834 2.28892E+00
 -1      7835 1.45480E+00
 -1      7836 1.68778E+00
 -1      7837 1.51459E+00
 -1      7838 1.78861E+00
 -1      7839 1.57129E+00
 -1      7840 1.74702E+00
 -1      7841 2.02342E+00
 -1      7842 1.35886E+00
 -1      7843 1.54530E+00
 -1      7844 1.40683E+00
 -1      7845 1.53936E+00
 -1      7846 1.45208E+00
 -1      7847 1.61654E+00
 -1      7848 1.73987E+00
 -1      7849 1.45833E+00
 -1      7850 1.58927E+00
 -1      7851 1.40859E+00
 -1      7852 1.38179E+00
 -1      7853 1.52380E+00
 -1      7854 1.56729E+00
 -1      7855 1.48872E+00
 -1      7856 1.62845E+00
 -1      7857 1.81027E+00
 -1      7858 1.54339E+00
 -1      7859 1.43782E+00
 -1      7860 1.71936E+00
 -1      7861 1.69977E+00
 -1      7862 1.54808E+00
 -1      7863 1.77357E+00
 -1      7864 2.04547E+00
 -1      7865 1.70101E+00
 -1      7866 1.46645E+00
 -1      7867 1.90952E+00
 -1      7868 1.92787E+00
 -1      7869 1.62428E+00
 -1      7870 1.83927E+00
 -1      7871 2.20741E+00
 -1      7872 1.80642E+00
 -1      7873 1.43346E+00
 -1      7874 2.02334E+00
 -1      7875 2.12644E+00
 -1      7876 1.63775E+00
 -1      7877 4.51176E+00
 -1      7878 4.51176E+00
 -1      7879 3.17552E+00
 -1      7880 3.54899E+00
 -1      7881 4.51176E+00
 -1      7882 3.35959E+00
 -1      7883 3.54899E+00
 -1      7884 1.41474E+01
 -1      7885 1.41474E+01
 -1      7886 9.32957E+00
 -1      7887 9.95356E+00
 -1      7888 1.41474E+01
 -1      7889 9.32957E+00
 -1      7890 9.95356E+00
 -1      7891 1.90894E+01
 -1      7892 1.90894E+01
 -1      7893 1.66184E+01
 -1      7894 1.31527E+01
 -1      7895 1.90894E+01
 -1      7896 1.66184E+01
 -1      7897 1.31527E+01
 -1      7898 1.90894E+01
 -1      7899 1.90894E+01
 -1      7900 1.90894E+01
 -1      7901 1.31527E+01
 -1      7902 1.90894E+01
 -1      7903 1.90894E+01
 -1      7904 1.31527E+01
 -1      7905 8.24294E+00
 -1      7906 8.24294E+00
 -1      7907 1.36662E+01
 -1      7908 6.18673E+00
 -1      7909 8.24294E+00
 -1      7910 1.36662E+01
 -1      7911 6.18673E+00
 -1      7912 3.03279E+00
 -1      7913 3.25641E+00
 -1      7914 5.63787E+00
 -1      7915 2.13848E+00
 -1      7916 3.14460E+00
 -1      7917 5.74968E+00
 -1      7918 2.25029E+00
 -1      7919 2.50535E+00
 -1      7920 2.86224E+00
 -1      7921 2.76907E+00
 -1      7922 1.85976E+00
 -1      7923 2.68379E+00
 -1      7924 3.05932E+00
 -1      7925 2.06464E+00
 -1      7926 2.28616E+00
 -1      7927 2.51352E+00
 -1      7928 2.39575E+00
 -1      7929 1.80223E+00
 -1      7930 2.39984E+00
 -1      7931 2.68788E+00
 -1      7932 2.01947E+00
 -1      7933 2.03079E+00
 -1      7934 2.18786E+00
 -1      7935 2.15848E+00
 -1      7936 1.81907E+00
 -1      7937 2.10933E+00
 -1      7938 2.35069E+00
 -1      7939 2.00965E+00
 -1      7940 1.79789E+00
 -1      7941 2.00554E+00
 -1      7942 1.91434E+00
 -1      7943 1.93034E+00
 -1      7944 1.90172E+00
 -1      7945 2.09670E+00
 -1      7946 2.15758E+00
 -1      7947 1.87636E+00
 -1      7948 2.14089E+00
 -1      7949 1.83712E+00
 -1      7950 2.19356E+00
 -1      7951 2.00863E+00
 -1      7952 2.07322E+00
 -1      7953 2.46165E+00
 -1      7954 1.99182E+00
 -1      7955 2.22964E+00
 -1      7956 1.93409E+00
 -1      7957 2.41072E+00
 -1      7958 2.11073E+00
 -1      7959 2.18527E+00
 -1      7960 2.71926E+00
 -1      7961 2.10961E+00
 -1      7962 2.41206E+00
 -1      7963 2.05072E+00
 -1      7964 2.65321E+00
 -1      7965 2.26084E+00
 -1      7966 2.32085E+00
 -1      7967 3.01587E+00
 -1      7968 2.46103E+00
 -1      7969 2.62221E+00
 -1      7970 2.28532E+00
 -1      7971 3.05449E+00
 -1      7972 2.54162E+00
 -1      7973 2.51714E+00
 -1      7974 3.40160E+00
 -1      7975 2.97324E+00
 -1      7976 2.97324E+00
 -1      7977 2.71713E+00
 -1      7978 3.78179E+00
 -1      7979 2.97324E+00
 -1      7980 2.79772E+00
 -1      7981 3.86592E+00
 -1      7982 4.01594E+00
 -1      7983 4.01594E+00
 -1      7984 3.49459E+00
 -1      7985 5.07661E+00
 -1      7986 4.01594E+00
 -1      7987 3.49459E+00
 -1      7988 5.07661E+00
 -1      7989 5.45433E+00
 -1      7990 5.45433E+00
 -1      7991 4.73514E+00
 -1      7992 6.98623E+00
 -1      7993 5.45433E+00
 -1      7994 4.73514E+00
 -1      7995 6.98623E+00
 -1      7996 9.77592E+00
 -1      7997 9.77592E+00
 -1      7998 7.61513E+00
 -1      7999 1.07164E+01
 -1      8000 9.77592E+00
 -1      8001 7.61513E+00
 -1      8002 1.07164E+01
 -1      8003 9.77592E+00
 -1      8004 9.77592E+00
 -1      8005 9.77592E+00
 -1      8006 1.07164E+01
 -1      8007 9.77592E+00
 -1      8008 9.77592E+00
 -1      8009 1.07164E+01
 -1      8010 7.26955E+00
 -1      8011 7.26955E+00
 -1      8012 8.49203E+00
 -1      8013 8.49203E+00
 -1      8014 7.52503E+00
 -1      8015 7.26955E+00
 -1      8016 7.52503E+00
 -1      8017 2.89043E+00
 -1      8018 4.01018E+00
 -1      8019 5.07999E+00
 -1      8020 4.06989E+00
 -1      8021 2.89043E+00
 -1      8022 3.27451E+00
 -1      8023 2.89043E+00
 -1      8024 3.80913E+00
 -1      8025 2.43566E+00
 -1      8026 2.51696E+00
 -1      8027 2.66304E+00
 -1      8028 3.35231E+00
 -1      8029 2.22664E+00
 -1      8030 2.22664E+00
 -1      8031 2.33115E+00
 -1      8032 2.99705E+00
 -1      8033 2.03709E+00
 -1      8034 2.02065E+00
 -1      8035 2.13186E+00
 -1      8036 2.70750E+00
 -1      8037 1.93024E+00
 -1      8038 1.86826E+00
 -1      8039 1.98366E+00
 -1      8040 2.45882E+00
 -1      8041 1.80493E+00
 -1      8042 1.74636E+00
 -1      8043 1.86759E+00
 -1      8044 2.18367E+00
 -1      8045 1.68364E+00
 -1      8046 1.61447E+00
 -1      8047 1.74429E+00
 -1      8048 1.88817E+00
 -1      8049 1.64442E+00
 -1      8050 1.61685E+00
 -1      8051 1.66403E+00
 -1      8052 1.58153E+00
 -1      8053 1.88779E+00
 -1      8054 1.84903E+00
 -1      8055 1.76611E+00
 -1      8056 1.60016E+00
 -1      8057 2.17161E+00
 -1      8058 2.10854E+00
 -1      8059 2.02970E+00
 -1      8060 1.70247E+00
 -1      8061 2.41845E+00
 -1      8062 2.31293E+00
 -1      8063 2.29503E+00
 -1      8064 1.76017E+00
 -1      8065 4.02676E+00
 -1      8066 4.26926E+00
 -1      8067 3.22260E+00
 -1      8068 3.07115E+00
 -1      8069 1.34330E+01
 -1      8070 1.37902E+01
 -1      8071 8.72986E+00
 -1      8072 9.49564E+00
 -1      8073 1.91978E+01
 -1      8074 1.91436E+01
 -1      8075 1.63154E+01
 -1      8076 1.31583E+01
 -1      8077 1.91978E+01
 -1      8078 1.91436E+01
 -1      8079 1.91978E+01
 -1      8080 1.31583E+01
 -1      8081 7.01335E+00
 -1      8082 7.62815E+00
 -1      8083 1.31056E+01
 -1      8084 5.38252E+00
 -1      8085 3.40052E+00
 -1      8086 3.32846E+00
 -1      8087 5.20693E+00
 -1      8088 2.26895E+00
 -1      8089 3.03061E+00
 -1      8090 2.94642E+00
 -1      8091 3.21556E+00
 -1      8092 2.16726E+00
 -1      8093 2.61318E+00
 -1      8094 2.56335E+00
 -1      8095 2.82189E+00
 -1      8096 2.15714E+00
 -1      8097 2.25401E+00
 -1      8098 2.22094E+00
 -1      8099 2.43360E+00
 -1      8100 2.12070E+00
 -1      8101 2.16632E+00
 -1      8102 2.08593E+00
 -1      8103 2.21017E+00
 -1      8104 2.32681E+00
 -1      8105 2.27343E+00
 -1      8106 2.20716E+00
 -1      8107 2.21988E+00
 -1      8108 2.63272E+00
 -1      8109 2.36873E+00
 -1      8110 2.29919E+00
 -1      8111 2.32108E+00
 -1      8112 2.91116E+00
 -1      8113 2.45742E+00
 -1      8114 2.43474E+00
 -1      8115 2.41308E+00
 -1      8116 3.15142E+00
 -1      8117 2.62221E+00
 -1      8118 2.62221E+00
 -1      8119 2.53982E+00
 -1      8120 3.43879E+00
 -1      8121 2.81717E+00
 -1      8122 2.89521E+00
 -1      8123 2.71969E+00
 -1      8124 3.78789E+00
 -1      8125 3.25412E+00
 -1      8126 3.63503E+00
 -1      8127 3.03565E+00
 -1      8128 4.25180E+00
 -1      8129 3.25412E+00
 -1      8130 4.35423E+00
 -1      8131 3.25412E+00
 -1      8132 4.56839E+00
 -1      8133 7.38092E+00
 -1      8134 8.57842E+00
 -1      8135 5.31752E+00
 -1      8136 7.93042E+00
 -1      8137 7.38092E+00
 -1      8138 8.57842E+00
 -1      8139 7.38092E+00
 -1      8140 7.93042E+00
 -1      8141 7.36781E+00
 -1      8142 7.36781E+00
 -1      8143 7.31868E+00
 -1      8144 7.31868E+00
 -1      8145 7.08202E+00
 -1      8146 7.36781E+00
 -1      8147 7.08202E+00
 -1      8148 2.21324E+00
 -1      8149 2.55183E+00
 -1      8150 4.79052E+00
 -1      8151 3.22690E+00
 -1      8152 2.21324E+00
 -1      8153 2.55183E+00
 -1      8154 2.21324E+00
 -1      8155 3.12286E+00
 -1      8156 2.11285E+00
 -1      8157 2.27426E+00
 -1      8158 2.16304E+00
 -1      8159 3.06481E+00
 -1      8160 2.11285E+00
 -1      8161 2.16975E+00
 -1      8162 2.11285E+00
 -1      8163 2.94016E+00
 -1      8164 2.03709E+00
 -1      8165 2.03709E+00
 -1      8166 2.07497E+00
 -1      8167 2.72067E+00
 -1      8168 1.93206E+00
 -1      8169 1.93115E+00
 -1      8170 1.98457E+00
 -1      8171 2.49673E+00
 -1      8172 1.84547E+00
 -1      8173 1.82520E+00
 -1      8174 1.88876E+00
 -1      8175 2.24701E+00
 -1      8176 1.73147E+00
 -1      8177 1.70756E+00
 -1      8178 1.78847E+00
 -1      8179 1.93968E+00
 -1      8180 1.66245E+00
 -1      8181 1.65344E+00
 -1      8182 1.69696E+00
 -1      8183 1.60819E+00
 -1      8184 1.91313E+00
 -1      8185 1.90046E+00
 -1      8186 1.78779E+00
 -1      8187 1.61715E+00
 -1      8188 2.20339E+00
 -1      8189 2.18750E+00
 -1      8190 2.05826E+00
 -1      8191 1.72222E+00
 -1      8192 2.46609E+00
 -1      8193 2.44227E+00
 -1      8194 2.33474E+00
 -1      8195 1.78712E+00
 -1      8196 4.06244E+00
 -1      8197 4.04460E+00
 -1      8198 3.26426E+00
 -1      8199 2.89263E+00
 -1      8200 1.37797E+01
 -1      8201 1.36063E+01
 -1      8202 8.92105E+00
 -1      8203 9.54624E+00
 -1      8204 2.01879E+01
 -1      8205 1.96928E+01
 -1      8206 1.69838E+01
 -1      8207 1.35525E+01
 -1      8208 2.01879E+01
 -1      8209 1.96928E+01
 -1      8210 2.01879E+01
 -1      8211 1.35525E+01
 -1      8212 7.13238E+00
 -1      8213 7.07286E+00
 -1      8214 1.36601E+01
 -1      8215 5.26002E+00
 -1      8216 3.42564E+00
 -1      8217 3.41308E+00
 -1      8218 5.27901E+00
 -1      8219 2.28480E+00
 -1      8220 3.07320E+00
 -1      8221 3.05190E+00
 -1      8222 3.24942E+00
 -1      8223 2.19310E+00
 -1      8224 2.64412E+00
 -1      8225 2.62865E+00
 -1      8226 2.85866E+00
 -1      8227 2.19993E+00
 -1      8228 2.27568E+00
 -1      8229 2.26485E+00
 -1      8230 2.45990E+00
 -1      8231 2.16179E+00
 -1      8232 2.22182E+00
 -1      8233 2.19407E+00
 -1      8234 2.24875E+00
 -1      8235 2.38244E+00
 -1      8236 2.31810E+00
 -1      8237 2.29576E+00
 -1      8238 2.26996E+00
 -1      8239 2.70457E+00
 -1      8240 2.38060E+00
 -1      8241 2.37467E+00
 -1      8242 2.34935E+00
 -1      8243 2.95915E+00
 -1      8244 2.45742E+00
 -1      8245 2.45742E+00
 -1      8246 2.41901E+00
 -1      8247 3.17505E+00
 -1      8248 2.51481E+00
 -1      8249 2.56851E+00
 -1      8250 2.48611E+00
 -1      8251 3.38509E+00
 -1      8252 2.51481E+00
 -1      8253 2.66599E+00
 -1      8254 2.51481E+00
 -1      8255 3.51539E+00
 -1      8256 2.57771E+00
 -1      8257 2.91592E+00
 -1      8258 2.54626E+00
 -1      8259 3.56132E+00
 -1      8260 2.57771E+00
 -1      8261 2.91592E+00
 -1      8262 2.57771E+00
 -1      8263 3.68736E+00
 -1      8264 7.47589E+00
 -1      8265 7.42841E+00
 -1      8266 5.02680E+00
 -1      8267 7.50137E+00
 -1      8268 7.47589E+00
 -1      8269 7.42841E+00
 -1      8270 7.47589E+00
 -1      8271 7.50137E+00
 -1      8272 7.36781E+00
 -1      8273 7.36781E+00
 -1      8274 7.36781E+00
 -1      8275 7.36781E+00
 -1      8276 7.07541E+00
 -1      8277 7.36781E+00
 -1      8278 7.07541E+00
 -1      8279 1.96874E+00
 -1      8280 2.09099E+00
 -1      8281 4.66827E+00
 -1      8282 3.03349E+00
 -1      8283 1.96874E+00
 -1      8284 2.09099E+00
 -1      8285 1.96874E+00
 -1      8286 2.86598E+00
 -1      8287 1.96600E+00
 -1      8288 2.03943E+00
 -1      8289 1.96737E+00
 -1      8290 2.86461E+00
 -1      8291 1.97264E+00
 -1      8292 2.04274E+00
 -1      8293 1.96932E+00
 -1      8294 2.82107E+00
 -1      8295 1.97264E+00
 -1      8296 2.00486E+00
 -1      8297 1.97264E+00
 -1      8298 2.68844E+00
 -1      8299 1.93206E+00
 -1      8300 1.93206E+00
 -1      8301 1.95235E+00
 -1      8302 2.49673E+00
 -1      8303 1.84547E+00
 -1      8304 1.84547E+00
 -1      8305 1.88876E+00
 -1      8306 2.24701E+00
 -1      8307 1.73147E+00
 -1      8308 1.73147E+00
 -1      8309 1.78847E+00
 -1      8310 1.93968E+00
 -1      8311 1.66245E+00
 -1      8312 1.66245E+00
 -1      8313 1.69696E+00
 -1      8314 1.60819E+00
 -1      8315 1.91313E+00
 -1      8316 1.91313E+00
 -1      8317 1.78779E+00
 -1      8318 1.61715E+00
 -1      8319 2.20339E+00
 -1      8320 2.20339E+00
 -1      8321 2.05826E+00
 -1      8322 1.72222E+00
 -1      8323 2.46609E+00
 -1      8324 2.46609E+00
 -1      8325 2.33474E+00
 -1      8326 1.78712E+00
 -1      8327 4.06244E+00
 -1      8328 4.06244E+00
 -1      8329 3.26426E+00
 -1      8330 2.74661E+00
 -1      8331 1.37797E+01
 -1      8332 1.37797E+01
 -1      8333 8.92105E+00
 -1      8334 9.42344E+00
 -1      8335 2.01879E+01
 -1      8336 2.01879E+01
 -1      8337 1.69838E+01
 -1      8338 1.34283E+01
 -1      8339 2.01879E+01
 -1      8340 2.01879E+01
 -1      8341 2.01879E+01
 -1      8342 1.34283E+01
 -1      8343 7.13238E+00
 -1      8344 7.13238E+00
 -1      8345 1.36601E+01
 -1      8346 5.10672E+00
 -1      8347 3.42564E+00
 -1      8348 3.42564E+00
 -1      8349 5.27901E+00
 -1      8350 2.28480E+00
 -1      8351 3.07320E+00
 -1      8352 3.07320E+00
 -1      8353 3.24942E+00
 -1      8354 2.19310E+00
 -1      8355 2.64412E+00
 -1      8356 2.64412E+00
 -1      8357 2.85866E+00
 -1      8358 2.19993E+00
 -1      8359 2.27568E+00
 -1      8360 2.27568E+00
 -1      8361 2.45990E+00
 -1      8362 2.16179E+00
 -1      8363 2.22182E+00
 -1      8364 2.22182E+00
 -1      8365 2.24875E+00
 -1      8366 2.38244E+00
 -1      8367 2.31810E+00
 -1      8368 2.31810E+00
 -1      8369 2.26996E+00
 -1      8370 2.70457E+00
 -1      8371 2.38060E+00
 -1      8372 2.38060E+00
 -1      8373 2.34935E+00
 -1      8374 2.95915E+00
 -1      8375 2.39902E+00
 -1      8376 2.42822E+00
 -1      8377 2.38981E+00
 -1      8378 3.14586E+00
 -1      8379 2.39902E+00
 -1      8380 2.45692E+00
 -1      8381 2.39902E+00
 -1      8382 3.28309E+00
 -1      8383 2.37066E+00
 -1      8384 2.44273E+00
 -1      8385 2.38484E+00
 -1      8386 3.31538E+00
 -1      8387 2.32715E+00
 -1      8388 2.45243E+00
 -1      8389 2.34891E+00
 -1      8390 3.29362E+00
 -1      8391 2.32715E+00
 -1      8392 2.45243E+00
 -1      8393 2.32715E+00
 -1      8394 3.46771E+00
 -1      8395 7.47589E+00
 -1      8396 7.47589E+00
 -1      8397 4.90152E+00
 -1      8398 7.47993E+00
 -1      8399 7.47589E+00
 -1      8400 7.47589E+00
 -1      8401 7.47589E+00
 -1      8402 7.47993E+00
 -1      8403 7.36781E+00
 -1      8404 7.36781E+00
 -1      8405 7.36781E+00
 -1      8406 7.36781E+00
 -1      8407 7.08202E+00
 -1      8408 7.36781E+00
 -1      8409 7.08202E+00
 -1      8410 2.21324E+00
 -1      8411 2.09099E+00
 -1      8412 4.79052E+00
 -1      8413 3.22690E+00
 -1      8414 2.21324E+00
 -1      8415 2.09099E+00
 -1      8416 2.21324E+00
 -1      8417 3.12286E+00
 -1      8418 2.11285E+00
 -1      8419 2.03943E+00
 -1      8420 2.16304E+00
 -1      8421 3.06481E+00
 -1      8422 2.11285E+00
 -1      8423 2.04274E+00
 -1      8424 2.11285E+00
 -1      8425 2.94016E+00
 -1      8426 2.03709E+00
 -1      8427 2.00486E+00
 -1      8428 2.07497E+00
 -1      8429 2.72067E+00
 -1      8430 1.93206E+00
 -1      8431 1.93206E+00
 -1      8432 1.98457E+00
 -1      8433 2.49673E+00
 -1      8434 1.84547E+00
 -1      8435 1.84547E+00
 -1      8436 1.88876E+00
 -1      8437 2.24701E+00
 -1      8438 1.73147E+00
 -1      8439 1.73147E+00
 -1      8440 1.78847E+00
 -1      8441 1.93968E+00
 -1      8442 1.66245E+00
 -1      8443 1.66245E+00
 -1      8444 1.69696E+00
 -1      8445 1.60819E+00
 -1      8446 1.91313E+00
 -1      8447 1.91313E+00
 -1      8448 1.78779E+00
 -1      8449 1.61715E+00
 -1      8450 2.20339E+00
 -1      8451 2.20339E+00
 -1      8452 2.05826E+00
 -1      8453 1.72222E+00
 -1      8454 2.46609E+00
 -1      8455 2.46609E+00
 -1      8456 2.33474E+00
 -1      8457 1.78712E+00
 -1      8458 4.06244E+00
 -1      8459 4.06244E+00
 -1      8460 3.26426E+00
 -1      8461 2.89263E+00
 -1      8462 1.37797E+01
 -1      8463 1.37797E+01
 -1      8464 8.92105E+00
 -1      8465 9.54624E+00
 -1      8466 2.01879E+01
 -1      8467 2.01879E+01
 -1      8468 1.69838E+01
 -1      8469 1.35525E+01
 -1      8470 2.01879E+01
 -1      8471 2.01879E+01
 -1      8472 2.01879E+01
 -1      8473 1.35525E+01
 -1      8474 7.13238E+00
 -1      8475 7.13238E+00
 -1      8476 1.36601E+01
 -1      8477 5.26002E+00
 -1      8478 3.42564E+00
 -1      8479 3.42564E+00
 -1      8480 5.27901E+00
 -1      8481 2.28480E+00
 -1      8482 3.07320E+00
 -1      8483 3.07320E+00
 -1      8484 3.24942E+00
 -1      8485 2.19310E+00
 -1      8486 2.64412E+00
 -1      8487 2.64412E+00
 -1      8488 2.85866E+00
 -1      8489 2.19993E+00
 -1      8490 2.27568E+00
 -1      8491 2.27568E+00
 -1      8492 2.45990E+00
 -1      8493 2.16179E+00
 -1      8494 2.22182E+00
 -1      8495 2.22182E+00
 -1      8496 2.24875E+00
 -1      8497 2.38244E+00
 -1      8498 2.31810E+00
 -1      8499 2.31810E+00
 -1      8500 2.26996E+00
 -1      8501 2.70457E+00
 -1      8502 2.38060E+00
 -1      8503 2.38060E+00
 -1      8504 2.34935E+00
 -1      8505 2.95915E+00
 -1      8506 2.45742E+00
 -1      8507 2.42822E+00
 -1      8508 2.41901E+00
 -1      8509 3.17505E+00
 -1      8510 2.51481E+00
 -1      8511 2.45692E+00
 -1      8512 2.48611E+00
 -1      8513 3.38509E+00
 -1      8514 2.51481E+00
 -1      8515 2.44273E+00
 -1      8516 2.51481E+00
 -1      8517 3.51539E+00
 -1      8518 2.57771E+00
 -1      8519 2.45243E+00
 -1      8520 2.54626E+00
 -1      8521 3.56132E+00
 -1      8522 2.57771E+00
 -1      8523 2.45243E+00
 -1      8524 2.57771E+00
 -1      8525 3.68736E+00
 -1      8526 7.47589E+00
 -1      8527 7.47589E+00
 -1      8528 5.02680E+00
 -1      8529 7.50137E+00
 -1      8530 7.47589E+00
 -1      8531 7.47589E+00
 -1      8532 7.47589E+00
 -1      8533 7.50137E+00
 -1      8534 7.26955E+00
 -1      8535 7.26955E+00
 -1      8536 7.31868E+00
 -1      8537 7.31868E+00
 -1      8538 7.52503E+00
 -1      8539 7.26955E+00
 -1      8540 7.52503E+00
 -1      8541 2.89043E+00
 -1      8542 2.55183E+00
 -1      8543 5.07999E+00
 -1      8544 4.06989E+00
 -1      8545 2.89043E+00
 -1      8546 2.55183E+00
 -1      8547 2.89043E+00
 -1      8548 3.80913E+00
 -1      8549 2.43566E+00
 -1      8550 2.27426E+00
 -1      8551 2.66304E+00
 -1      8552 3.35231E+00
 -1      8553 2.22664E+00
 -1      8554 2.16975E+00
 -1      8555 2.33115E+00
 -1      8556 2.99705E+00
 -1      8557 2.03709E+00
 -1      8558 2.03709E+00
 -1      8559 2.13186E+00
 -1      8560 2.70750E+00
 -1      8561 1.93024E+00
 -1      8562 1.93115E+00
 -1      8563 1.98366E+00
 -1      8564 2.45882E+00
 -1      8565 1.80493E+00
 -1      8566 1.82520E+00
 -1      8567 1.86759E+00
 -1      8568 2.18367E+00
 -1      8569 1.68364E+00
 -1      8570 1.70756E+00
 -1      8571 1.74429E+00
 -1      8572 1.88817E+00
 -1      8573 1.64442E+00
 -1      8574 1.65344E+00
 -1      8575 1.66403E+00
 -1      8576 1.58153E+00
 -1      8577 1.88779E+00
 -1      8578 1.90046E+00
 -1      8579 1.76611E+00
 -1      8580 1.60016E+00
 -1      8581 2.17161E+00
 -1      8582 2.18750E+00
 -1      8583 2.02970E+00
 -1      8584 1.70247E+00
 -1      8585 2.41845E+00
 -1      8586 2.44227E+00
 -1      8587 2.29503E+00
 -1      8588 1.76017E+00
 -1      8589 4.02676E+00
 -1      8590 4.04460E+00
 -1      8591 3.22260E+00
 -1      8592 3.07115E+00
 -1      8593 1.34330E+01
 -1      8594 1.36063E+01
 -1      8595 8.72986E+00
 -1      8596 9.49564E+00
 -1      8597 1.91978E+01
 -1      8598 1.96928E+01
 -1      8599 1.63154E+01
 -1      8600 1.31583E+01
 -1      8601 1.91978E+01
 -1      8602 1.96928E+01
 -1      8603 1.91978E+01
 -1      8604 1.31583E+01
 -1      8605 7.01335E+00
 -1      8606 7.07286E+00
 -1      8607 1.31056E+01
 -1      8608 5.38252E+00
 -1      8609 3.40052E+00
 -1      8610 3.41308E+00
 -1      8611 5.20693E+00
 -1      8612 2.26895E+00
 -1      8613 3.03061E+00
 -1      8614 3.05190E+00
 -1      8615 3.21556E+00
 -1      8616 2.16726E+00
 -1      8617 2.61318E+00
 -1      8618 2.62865E+00
 -1      8619 2.82189E+00
 -1      8620 2.15714E+00
 -1      8621 2.25401E+00
 -1      8622 2.26485E+00
 -1      8623 2.43360E+00
 -1      8624 2.12070E+00
 -1      8625 2.16632E+00
 -1      8626 2.19407E+00
 -1      8627 2.21017E+00
 -1      8628 2.32681E+00
 -1      8629 2.27343E+00
 -1      8630 2.29576E+00
 -1      8631 2.21988E+00
 -1      8632 2.63272E+00
 -1      8633 2.36873E+00
 -1      8634 2.37467E+00
 -1      8635 2.32108E+00
 -1      8636 2.91116E+00
 -1      8637 2.45742E+00
 -1      8638 2.45742E+00
 -1      8639 2.41308E+00
 -1      8640 3.15142E+00
 -1      8641 2.62221E+00
 -1      8642 2.56851E+00
 -1      8643 2.53982E+00
 -1      8644 3.43879E+00
 -1      8645 2.81717E+00
 -1      8646 2.66599E+00
 -1      8647 2.71969E+00
 -1      8648 3.78789E+00
 -1      8649 3.25412E+00
 -1      8650 2.91592E+00
 -1      8651 3.03565E+00
 -1      8652 4.25180E+00
 -1      8653 3.25412E+00
 -1      8654 2.91592E+00
 -1      8655 3.25412E+00
 -1      8656 4.56839E+00
 -1      8657 7.38092E+00
 -1      8658 7.42841E+00
 -1      8659 5.31752E+00
 -1      8660 7.93042E+00
 -1      8661 7.38092E+00
 -1      8662 7.42841E+00
 -1      8663 7.38092E+00
 -1      8664 7.93042E+00
 -1      8665 9.71451E+00
 -1      8666 9.71451E+00
 -1      8667 8.49203E+00
 -1      8668 8.49203E+00
 -1      8669 1.04097E+01
 -1      8670 9.71451E+00
 -1      8671 1.04097E+01
 -1      8672 5.12993E+00
 -1      8673 4.01018E+00
 -1      8674 7.42222E+00
 -1      8675 6.50737E+00
 -1      8676 3.65858E+00
 -1      8677 3.27451E+00
 -1      8678 4.39426E+00
 -1      8679 4.60882E+00
 -1      8680 2.59827E+00
 -1      8681 2.51696E+00
 -1      8682 3.12842E+00
 -1      8683 3.43361E+00
 -1      8684 2.22664E+00
 -1      8685 2.22664E+00
 -1      8686 2.41245E+00
 -1      8687 2.97366E+00
 -1      8688 2.00420E+00
 -1      8689 2.02065E+00
 -1      8690 2.11542E+00
 -1      8691 2.57950E+00
 -1      8692 1.80627E+00
 -1      8693 1.86826E+00
 -1      8694 1.90524E+00
 -1      8695 2.28892E+00
 -1      8696 1.68778E+00
 -1      8697 1.74636E+00
 -1      8698 1.74702E+00
 -1      8699 2.02342E+00
 -1      8700 1.54530E+00
 -1      8701 1.61447E+00
 -1      8702 1.61654E+00
 -1      8703 1.73987E+00
 -1      8704 1.58927E+00
 -1      8705 1.61685E+00
 -1      8706 1.56729E+00
 -1      8707 1.48872E+00
 -1      8708 1.81027E+00
 -1      8709 1.84903E+00
 -1      8710 1.69977E+00
 -1      8711 1.54808E+00
 -1      8712 2.04547E+00
 -1      8713 2.10854E+00
 -1      8714 1.92787E+00
 -1      8715 1.62428E+00
 -1      8716 2.20741E+00
 -1      8717 2.31293E+00
 -1      8718 2.12644E+00
 -1      8719 1.63775E+00
 -1      8720 4.51176E+00
 -1      8721 4.26926E+00
 -1      8722 3.35959E+00
 -1      8723 3.54899E+00
 -1      8724 1.41474E+01
 -1      8725 1.37902E+01
 -1      8726 9.32957E+00
 -1      8727 9.95356E+00
 -1      8728 1.90894E+01
 -1      8729 1.91436E+01
 -1      8730 1.66184E+01
 -1      8731 1.31527E+01
 -1      8732 1.90894E+01
 -1      8733 1.91436E+01
 -1      8734 1.90894E+01
 -1      8735 1.31527E+01
 -1      8736 8.24294E+00
 -1      8737 7.62815E+00
 -1      8738 1.36662E+01
 -1      8739 6.18673E+00
 -1      8740 3.25641E+00
 -1      8741 3.32846E+00
 -1      8742 5.74968E+00
 -1      8743 2.25029E+00
 -1      8744 2.86224E+00
 -1      8745 2.94642E+00
 -1      8746 3.05932E+00
 -1      8747 2.06464E+00
 -1      8748 2.51352E+00
 -1      8749 2.56335E+00
 -1      8750 2.68788E+00
 -1      8751 2.01947E+00
 -1      8752 2.18786E+00
 -1      8753 2.22094E+00
 -1      8754 2.35069E+00
 -1      8755 2.00965E+00
 -1      8756 2.00554E+00
 -1      8757 2.08593E+00
 -1      8758 2.09670E+00
 -1      8759 2.15758E+00
 -1      8760 2.14089E+00
 -1      8761 2.20716E+00
 -1      8762 2.07322E+00
 -1      8763 2.46165E+00
 -1      8764 2.22964E+00
 -1      8765 2.29919E+00
 -1      8766 2.18527E+00
 -1      8767 2.71926E+00
 -1      8768 2.41206E+00
 -1      8769 2.43474E+00
 -1      8770 2.32085E+00
 -1      8771 3.01587E+00
 -1      8772 2.62221E+00
 -1      8773 2.62221E+00
 -1      8774 2.51714E+00
 -1      8775 3.40160E+00
 -1      8776 2.97324E+00
 -1      8777 2.89521E+00
 -1      8778 2.79772E+00
 -1      8779 3.86592E+00
 -1      8780 4.01594E+00
 -1      8781 3.63503E+00
 -1      8782 3.49459E+00
 -1      8783 5.07661E+00
 -1      8784 5.45433E+00
 -1      8785 4.35423E+00
 -1      8786 4.73514E+00
 -1      8787 6.98623E+00
 -1      8788 9.77592E+00
 -1      8789 8.57842E+00
 -1      8790 7.61513E+00
 -1      8791 1.07164E+01
 -1      8792 9.77592E+00
 -1      8793 8.57842E+00
 -1      8794 9.77592E+00
 -1      8795 1.07164E+01
 -1      8796 9.71451E+00
 -1      8797 9.71451E+00
 -1      8798 9.71451E+00
 -1      8799 9.71451E+00
 -1      8800 1.04097E+01
 -1      8801 9.71451E+00
 -1      8802 1.04097E+01
 -1      8803 5.12993E+00
 -1      8804 5.12993E+00
 -1      8805 7.42222E+00
 -1      8806 6.50737E+00
 -1      8807 3.65858E+00
 -1      8808 3.65858E+00
 -1      8809 4.39426E+00
 -1      8810 4.60882E+00
 -1      8811 2.59827E+00
 -1      8812 2.59827E+00
 -1      8813 3.12842E+00
 -1      8814 3.36156E+00
 -1      8815 2.08036E+00
 -1      8816 2.15350E+00
 -1      8817 2.33931E+00
 -1      8818 2.64977E+00
 -1      8819 1.72360E+00
 -1      8820 1.86390E+00
 -1      8821 1.90198E+00
 -1      8822 2.24780E+00
 -1      8823 1.57438E+00
 -1      8824 1.69033E+00
 -1      8825 1.64899E+00
 -1      8826 1.99002E+00
 -1      8827 1.45480E+00
 -1      8828 1.57129E+00
 -1      8829 1.51459E+00
 -1      8830 1.78861E+00
 -1      8831 1.35886E+00
 -1      8832 1.45208E+00
 -1      8833 1.40683E+00
 -1      8834 1.53936E+00
 -1      8835 1.45833E+00
 -1      8836 1.52380E+00
 -1      8837 1.40859E+00
 -1      8838 1.38179E+00
 -1      8839 1.62845E+00
 -1      8840 1.71936E+00
 -1      8841 1.54339E+00
 -1      8842 1.43782E+00
 -1      8843 1.77357E+00
 -1      8844 1.90952E+00
 -1      8845 1.70101E+00
 -1      8846 1.46645E+00
 -1      8847 1.83927E+00
 -1      8848 2.02334E+00
 -1      8849 1.80642E+00
 -1      8850 1.43346E+00
 -1      8851 4.51176E+00
 -1      8852 4.51176E+00
 -1      8853 3.17552E+00
 -1      8854 3.54899E+00
 -1      8855 1.41474E+01
 -1      8856 1.41474E+01
 -1      8857 9.32957E+00
 -1      8858 9.95356E+00
 -1      8859 1.90894E+01
 -1      8860 1.90894E+01
 -1      8861 1.66184E+01
 -1      8862 1.31527E+01
 -1      8863 1.90894E+01
 -1      8864 1.90894E+01
 -1      8865 1.90894E+01
 -1      8866 1.31527E+01
 -1      8867 8.24294E+00
 -1      8868 8.24294E+00
 -1      8869 1.36662E+01
 -1      8870 6.18673E+00
 -1      8871 3.03279E+00
 -1      8872 3.14460E+00
 -1      8873 5.63787E+00
 -1      8874 2.13848E+00
 -1      8875 2.50535E+00
 -1      8876 2.68379E+00
 -1      8877 2.76907E+00
 -1      8878 1.85976E+00
 -1      8879 2.28616E+00
 -1      8880 2.39984E+00
 -1      8881 2.39575E+00
 -1      8882 1.80223E+00
 -1      8883 2.03079E+00
 -1      8884 2.10933E+00
 -1      8885 2.15848E+00
 -1      8886 1.81907E+00
 -1      8887 1.79789E+00
 -1      8888 1.90172E+00
 -1      8889 1.91434E+00
 -1      8890 1.93034E+00
 -1      8891 1.87636E+00
 -1      8892 2.00863E+00
 -1      8893 1.83712E+00
 -1      8894 2.19356E+00
 -1      8895 1.99182E+00
 -1      8896 2.11073E+00
 -1      8897 1.93409E+00
 -1      8898 2.41072E+00
 -1      8899 2.10961E+00
 -1      8900 2.26084E+00
 -1      8901 2.05072E+00
 -1      8902 2.65321E+00
 -1      8903 2.46103E+00
 -1      8904 2.54162E+00
 -1      8905 2.28532E+00
 -1      8906 3.05449E+00
 -1      8907 2.97324E+00
 -1      8908 2.97324E+00
 -1      8909 2.71713E+00
 -1      8910 3.78179E+00
 -1      8911 4.01594E+00
 -1      8912 4.01594E+00
 -1      8913 3.49459E+00
 -1      8914 5.07661E+00
 -1      8915 5.45433E+00
 -1      8916 5.45433E+00
 -1      8917 4.73514E+00
 -1      8918 6.98623E+00
 -1      8919 9.77592E+00
 -1      8920 9.77592E+00
 -1      8921 7.61513E+00
 -1      8922 1.07164E+01
 -1      8923 9.77592E+00
 -1      8924 9.77592E+00
 -1      8925 9.77592E+00
 -1      8926 1.07164E+01
 -1      8927 9.71451E+00
 -1      8928 9.71451E+00
 -1      8929 9.71451E+00
 -1      8930 9.71451E+00
 -1      8931 9.71451E+00
 -1      8932 9.71451E+00
 -1      8933 9.71451E+00
 -1      8934 9.71451E+00
 -1      8935 9.71451E+00
 -1      8936 9.71451E+00
 -1      8937 9.71451E+00
 -1      8938 9.71451E+00
 -1      8939 3.43969E+00
 -1      8940 3.43969E+00
 -1      8941 6.57710E+00
 -1      8942 4.28481E+00
 -1      8943 3.43969E+00
 -1      8944 6.57710E+00
 -1      8945 4.28481E+00
 -1      8946 1.88319E+00
 -1      8947 1.88319E+00
 -1      8948 2.66144E+00
 -1      8949 2.77088E+00
 -1      8950 1.88319E+00
 -1      8951 2.66144E+00
 -1      8952 2.77088E+00
 -1      8953 1.47957E+00
 -1      8954 1.47957E+00
 -1      8955 1.68138E+00
 -1      8956 2.03892E+00
 -1      8957 1.47957E+00
 -1      8958 1.68138E+00
 -1      8959 2.03892E+00
 -1      8960 1.30276E+00
 -1      8961 1.30276E+00
 -1      8962 1.39116E+00
 -1      8963 1.69156E+00
 -1      8964 1.30276E+00
 -1      8965 1.39116E+00
 -1      8966 1.76470E+00
 -1      8967 1.27803E+00
 -1      8968 1.28865E+00
 -1      8969 1.29039E+00
 -1      8970 1.50081E+00
 -1      8971 1.28334E+00
 -1      8972 1.29571E+00
 -1      8973 1.64643E+00
 -1      8974 1.27655E+00
 -1      8975 1.29787E+00
 -1      8976 1.27729E+00
 -1      8977 1.42546E+00
 -1      8978 1.28721E+00
 -1      8979 1.29326E+00
 -1      8980 1.55207E+00
 -1      8981 1.29821E+00
 -1      8982 1.31391E+00
 -1      8983 1.28738E+00
 -1      8984 1.37650E+00
 -1      8985 1.30606E+00
 -1      8986 1.30589E+00
 -1      8987 1.50084E+00
 -1      8988 1.32401E+00
 -1      8989 1.39951E+00
 -1      8990 1.31111E+00
 -1      8991 1.34144E+00
 -1      8992 1.36176E+00
 -1      8993 1.35671E+00
 -1      8994 1.47241E+00
 -1      8995 1.45833E+00
 -1      8996 1.58927E+00
 -1      8997 1.39117E+00
 -1      8998 1.45833E+00
 -1      8999 1.52380E+00
 -1      9000 1.49439E+00
 -1      9001 1.58927E+00
 -1      9002 1.62845E+00
 -1      9003 1.81027E+00
 -1      9004 1.54339E+00
 -1      9005 1.62845E+00
 -1      9006 1.71936E+00
 -1      9007 1.69977E+00
 -1      9008 1.81027E+00
 -1      9009 1.77357E+00
 -1      9010 2.04547E+00
 -1      9011 1.70101E+00
 -1      9012 1.77357E+00
 -1      9013 1.90952E+00
 -1      9014 1.92787E+00
 -1      9015 2.04547E+00
 -1      9016 1.83927E+00
 -1      9017 2.20741E+00
 -1      9018 1.80642E+00
 -1      9019 1.83927E+00
 -1      9020 2.02334E+00
 -1      9021 2.12644E+00
 -1      9022 2.20741E+00
 -1      9023 4.51176E+00
 -1      9024 4.51176E+00
 -1      9025 3.17552E+00
 -1      9026 4.51176E+00
 -1      9027 4.51176E+00
 -1      9028 3.35959E+00
 -1      9029 4.51176E+00
 -1      9030 1.41474E+01
 -1      9031 1.41474E+01
 -1      9032 9.32957E+00
 -1      9033 1.41474E+01
 -1      9034 1.41474E+01
 -1      9035 9.32957E+00
 -1      9036 1.41474E+01
 -1      9037 1.90894E+01
 -1      9038 1.90894E+01
 -1      9039 1.66184E+01
 -1      9040 1.90894E+01
 -1      9041 1.90894E+01
 -1      9042 1.66184E+01
 -1      9043 1.90894E+01
 -1      9044 1.90894E+01
 -1      9045 1.90894E+01
 -1      9046 1.90894E+01
 -1      9047 1.90894E+01
 -1      9048 1.90894E+01
 -1      9049 1.90894E+01
 -1      9050 1.90894E+01
 -1      9051 8.24294E+00
 -1      9052 8.24294E+00
 -1      9053 1.36662E+01
 -1      9054 8.24294E+00
 -1      9055 8.24294E+00
 -1      9056 1.36662E+01
 -1      9057 8.24294E+00
 -1      9058 3.03279E+00
 -1      9059 3.25641E+00
 -1      9060 5.63787E+00
 -1      9061 3.03279E+00
 -1      9062 3.14460E+00
 -1      9063 5.74968E+00
 -1      9064 3.25641E+00
 -1      9065 2.50535E+00
 -1      9066 2.86224E+00
 -1      9067 2.76907E+00
 -1      9068 2.50535E+00
 -1      9069 2.68379E+00
 -1      9070 3.05932E+00
 -1      9071 2.86224E+00
 -1      9072 2.28616E+00
 -1      9073 2.51352E+00
 -1      9074 2.39575E+00
 -1      9075 2.28616E+00
 -1      9076 2.39984E+00
 -1      9077 2.68788E+00
 -1      9078 2.51352E+00
 -1      9079 2.03079E+00
 -1      9080 2.18786E+00
 -1      9081 2.15848E+00
 -1      9082 2.03079E+00
 -1      9083 2.10933E+00
 -1      9084 2.35069E+00
 -1      9085 2.18786E+00
 -1      9086 1.79789E+00
 -1      9087 1.91392E+00
 -1      9088 1.91434E+00
 -1      9089 1.79789E+00
 -1      9090 1.85590E+00
 -1      9091 2.05089E+00
 -1      9092 1.95973E+00
 -1      9093 1.59833E+00
 -1      9094 1.68914E+00
 -1      9095 1.69811E+00
 -1      9096 1.73734E+00
 -1      9097 1.64373E+00
 -1      9098 1.80153E+00
 -1      9099 1.91502E+00
 -1      9100 1.43136E+00
 -1      9101 1.54888E+00
 -1      9102 1.51484E+00
 -1      9103 1.71159E+00
 -1      9104 1.49012E+00
 -1      9105 1.61901E+00
 -1      9106 1.88926E+00
 -1      9107 1.37170E+00
 -1      9108 1.46003E+00
 -1      9109 1.40153E+00
 -1      9110 1.74065E+00
 -1      9111 1.41587E+00
 -1      9112 1.50446E+00
 -1      9113 1.93605E+00
 -1      9114 1.48636E+00
 -1      9115 1.48636E+00
 -1      9116 1.42903E+00
 -1      9117 1.97370E+00
 -1      9118 1.48636E+00
 -1      9119 1.47320E+00
 -1      9120 2.05429E+00
 -1      9121 1.76521E+00
 -1      9122 1.76521E+00
 -1      9123 1.62578E+00
 -1      9124 2.36922E+00
 -1      9125 1.76521E+00
 -1      9126 1.62578E+00
 -1      9127 2.36922E+00
 -1      9128 2.15012E+00
 -1      9129 2.15012E+00
 -1      9130 1.95767E+00
 -1      9131 3.08303E+00
 -1      9132 2.15012E+00
 -1      9133 1.95767E+00
 -1      9134 3.08303E+00
 -1      9135 3.66415E+00
 -1      9136 3.66415E+00
 -1      9137 2.90713E+00
 -1      9138 4.55924E+00
 -1      9139 3.66415E+00
 -1      9140 2.90713E+00
 -1      9141 4.55924E+00
 -1      9142 9.77592E+00
 -1      9143 9.77592E+00
 -1      9144 6.72004E+00
 -1      9145 9.77592E+00
 -1      9146 9.77592E+00
 -1      9147 6.72004E+00
 -1      9148 9.77592E+00
 -1      9149 9.77592E+00
 -1      9150 9.77592E+00
 -1      9151 9.77592E+00
 -1      9152 9.77592E+00
 -1      9153 9.77592E+00
 -1      9154 9.77592E+00
 -1      9155 9.77592E+00
 -1      9156 7.26955E+00
 -1      9157 7.26955E+00
 -1      9158 8.49203E+00
 -1      9159 8.49203E+00
 -1      9160 7.26955E+00
 -1      9161 7.26955E+00
 -1      9162 7.26955E+00
 -1      9163 1.24051E+00
 -1      9164 2.34010E+00
 -1      9165 4.25503E+00
 -1      9166 2.06547E+00
 -1      9167 1.28398E+00
 -1      9168 1.58358E+00
 -1      9169 1.26225E+00
 -1      9170 2.08721E+00
 -1      9171 1.28513E+00
 -1      9172 1.38235E+00
 -1      9173 1.28456E+00
 -1      9174 1.86039E+00
 -1      9175 1.28565E+00
 -1      9176 1.29420E+00
 -1      9177 1.28539E+00
 -1      9178 1.75615E+00
 -1      9179 1.28865E+00
 -1      9180 1.28865E+00
 -1      9181 1.28715E+00
 -1      9182 1.66287E+00
 -1      9183 1.30232E+00
 -1      9184 1.30010E+00
 -1      9185 1.29549E+00
 -1      9186 1.61628E+00
 -1      9187 1.32272E+00
 -1      9188 1.31831E+00
 -1      9189 1.31252E+00
 -1      9190 1.56383E+00
 -1      9191 1.44204E+00
 -1      9192 1.42077E+00
 -1      9193 1.38238E+00
 -1      9194 1.56284E+00
 -1      9195 1.64442E+00
 -1      9196 1.61685E+00
 -1      9197 1.54323E+00
 -1      9198 1.64442E+00
 -1      9199 1.88779E+00
 -1      9200 1.84903E+00
 -1      9201 1.76611E+00
 -1      9202 1.88779E+00
 -1      9203 2.17161E+00
 -1      9204 2.10854E+00
 -1      9205 2.02970E+00
 -1      9206 2.17161E+00
 -1      9207 2.41845E+00
 -1      9208 2.31293E+00
 -1      9209 2.29503E+00
 -1      9210 2.41845E+00
 -1      9211 4.02676E+00
 -1      9212 4.26926E+00
 -1      9213 3.22260E+00
 -1      9214 4.02676E+00
 -1      9215 1.34330E+01
 -1      9216 1.37902E+01
 -1      9217 8.72986E+00
 -1      9218 1.34330E+01
 -1      9219 1.91978E+01
 -1      9220 1.91436E+01
 -1      9221 1.63154E+01
 -1      9222 1.91978E+01
 -1      9223 1.91978E+01
 -1      9224 1.91436E+01
 -1      9225 1.91978E+01
 -1      9226 1.91978E+01
 -1      9227 7.01335E+00
 -1      9228 7.62815E+00
 -1      9229 1.31056E+01
 -1      9230 7.01335E+00
 -1      9231 3.40052E+00
 -1      9232 3.32846E+00
 -1      9233 5.20693E+00
 -1      9234 3.40052E+00
 -1      9235 3.03061E+00
 -1      9236 2.94642E+00
 -1      9237 3.21556E+00
 -1      9238 3.03061E+00
 -1      9239 2.61318E+00
 -1      9240 2.56335E+00
 -1      9241 2.82189E+00
 -1      9242 2.61318E+00
 -1      9243 2.25401E+00
 -1      9244 2.22094E+00
 -1      9245 2.43360E+00
 -1      9246 2.25401E+00
 -1      9247 1.96252E+00
 -1      9248 1.93822E+00
 -1      9249 2.10827E+00
 -1      9250 2.06442E+00
 -1      9251 1.73975E+00
 -1      9252 1.71444E+00
 -1      9253 1.85113E+00
 -1      9254 2.00659E+00
 -1      9255 1.57634E+00
 -1      9256 1.56261E+00
 -1      9257 1.65804E+00
 -1      9258 1.97253E+00
 -1      9259 1.46003E+00
 -1      9260 1.46003E+00
 -1      9261 1.51818E+00
 -1      9262 1.95873E+00
 -1      9263 1.41345E+00
 -1      9264 1.44991E+00
 -1      9265 1.43674E+00
 -1      9266 2.01783E+00
 -1      9267 1.38765E+00
 -1      9268 1.57643E+00
 -1      9269 1.40055E+00
 -1      9270 2.10241E+00
 -1      9271 1.36463E+00
 -1      9272 1.75737E+00
 -1      9273 1.37614E+00
 -1      9274 2.30937E+00
 -1      9275 1.29030E+00
 -1      9276 2.47723E+00
 -1      9277 1.32747E+00
 -1      9278 2.27221E+00
 -1      9279 7.38092E+00
 -1      9280 8.57842E+00
 -1      9281 4.33561E+00
 -1      9282 7.38092E+00
 -1      9283 7.38092E+00
 -1      9284 8.57842E+00
 -1      9285 7.38092E+00
 -1      9286 7.38092E+00
 -1      9287 7.36781E+00
 -1      9288 7.36781E+00
 -1      9289 7.31868E+00
 -1      9290 7.31868E+00
 -1      9291 7.36781E+00
 -1      9292 7.36781E+00
 -1      9293 7.36781E+00
 -1      9294 1.11762E+00
 -1      9295 1.17906E+00
 -1      9296 4.24271E+00
 -1      9297 1.66543E+00
 -1      9298 1.21353E+00
 -1      9299 1.24876E+00
 -1      9300 1.16558E+00
 -1      9301 1.71339E+00
 -1      9302 1.24972E+00
 -1      9303 1.26743E+00
 -1      9304 1.23163E+00
 -1      9305 1.68129E+00
 -1      9306 1.27159E+00
 -1      9307 1.27862E+00
 -1      9308 1.26065E+00
 -1      9309 1.69222E+00
 -1      9310 1.28627E+00
 -1      9311 1.28746E+00
 -1      9312 1.27893E+00
 -1      9313 1.66168E+00
 -1      9314 1.30232E+00
 -1      9315 1.30232E+00
 -1      9316 1.29430E+00
 -1      9317 1.61719E+00
 -1      9318 1.32295E+00
 -1      9319 1.32284E+00
 -1      9320 1.31264E+00
 -1      9321 1.58421E+00
 -1      9322 1.45598E+00
 -1      9323 1.44901E+00
 -1      9324 1.38946E+00
 -1      9325 1.59373E+00
 -1      9326 1.66245E+00
 -1      9327 1.65344E+00
 -1      9328 1.55921E+00
 -1      9329 1.66245E+00
 -1      9330 1.91313E+00
 -1      9331 1.90046E+00
 -1      9332 1.78779E+00
 -1      9333 1.91313E+00
 -1      9334 2.20339E+00
 -1      9335 2.18750E+00
 -1      9336 2.05826E+00
 -1      9337 2.20339E+00
 -1      9338 2.46609E+00
 -1      9339 2.44227E+00
 -1      9340 2.33474E+00
 -1      9341 2.46609E+00
 -1      9342 4.06244E+00
 -1      9343 4.04460E+00
 -1      9344 3.26426E+00
 -1      9345 4.06244E+00
 -1      9346 1.37797E+01
 -1      9347 1.36063E+01
 -1      9348 8.92105E+00
 -1      9349 1.37797E+01
 -1      9350 2.01879E+01
 -1      9351 1.96928E+01
 -1      9352 1.69838E+01
 -1      9353 2.01879E+01
 -1      9354 2.01879E+01
 -1      9355 1.96928E+01
 -1      9356 2.01879E+01
 -1      9357 2.01879E+01
 -1      9358 7.13238E+00
 -1      9359 7.07286E+00
 -1      9360 1.36601E+01
 -1      9361 7.13238E+00
 -1      9362 3.42564E+00
 -1      9363 3.41308E+00
 -1      9364 5.27901E+00
 -1      9365 3.42564E+00
 -1      9366 3.07320E+00
 -1      9367 3.05190E+00
 -1      9368 3.24942E+00
 -1      9369 3.07320E+00
 -1      9370 2.64412E+00
 -1      9371 2.62865E+00
 -1      9372 2.85866E+00
 -1      9373 2.64412E+00
 -1      9374 2.27568E+00
 -1      9375 2.26485E+00
 -1      9376 2.45990E+00
 -1      9377 2.27568E+00
 -1      9378 1.97840E+00
 -1      9379 1.97046E+00
 -1      9380 2.12704E+00
 -1      9381 2.10011E+00
 -1      9382 1.74431E+00
 -1      9383 1.74203E+00
 -1      9384 1.86135E+00
 -1      9385 2.03120E+00
 -1      9386 1.57634E+00
 -1      9387 1.57634E+00
 -1      9388 1.66032E+00
 -1      9389 1.97847E+00
 -1      9390 1.44808E+00
 -1      9391 1.45406E+00
 -1      9392 1.51221E+00
 -1      9393 1.95275E+00
 -1      9394 1.33693E+00
 -1      9395 1.37519E+00
 -1      9396 1.39251E+00
 -1      9397 1.92587E+00
 -1      9398 1.30500E+00
 -1      9399 1.34632E+00
 -1      9400 1.32096E+00
 -1      9401 1.90990E+00
 -1      9402 1.26623E+00
 -1      9403 1.31543E+00
 -1      9404 1.28561E+00
 -1      9405 1.92197E+00
 -1      9406 1.16821E+00
 -1      9407 1.22926E+00
 -1      9408 1.21722E+00
 -1      9409 1.87296E+00
 -1      9410 7.47589E+00
 -1      9411 7.42841E+00
 -1      9412 4.32205E+00
 -1      9413 7.47589E+00
 -1      9414 7.47589E+00
 -1      9415 7.42841E+00
 -1      9416 7.47589E+00
 -1      9417 7.47589E+00
 -1      9418 7.36781E+00
 -1      9419 7.36781E+00
 -1      9420 7.36781E+00
 -1      9421 7.36781E+00
 -1      9422 7.36781E+00
 -1      9423 7.36781E+00
 -1      9424 7.36781E+00
 -1      9425 1.07656E+00
 -1      9426 1.09709E+00
 -1      9427 4.22219E+00
 -1      9428 1.52265E+00
 -1      9429 1.17142E+00
 -1      9430 1.19248E+00
 -1      9431 1.12399E+00
 -1      9432 1.57008E+00
 -1      9433 1.22155E+00
 -1      9434 1.23564E+00
 -1      9435 1.19648E+00
 -1      9436 1.59378E+00
 -1      9437 1.25402E+00
 -1      9438 1.26280E+00
 -1      9439 1.23778E+00
 -1      9440 1.61333E+00
 -1      9441 1.27673E+00
 -1      9442 1.28150E+00
 -1      9443 1.26537E+00
 -1      9444 1.62468E+00
 -1      9445 1.29840E+00
 -1      9446 1.30036E+00
 -1      9447 1.28756E+00
 -1      9448 1.61523E+00
 -1      9449 1.32295E+00
 -1      9450 1.32295E+00
 -1      9451 1.31068E+00
 -1      9452 1.58421E+00
 -1      9453 1.45598E+00
 -1      9454 1.45598E+00
 -1      9455 1.38946E+00
 -1      9456 1.59373E+00
 -1      9457 1.66245E+00
 -1      9458 1.66245E+00
 -1      9459 1.55921E+00
 -1      9460 1.66245E+00
 -1      9461 1.91313E+00
 -1      9462 1.91313E+00
 -1      9463 1.78779E+00
 -1      9464 1.91313E+00
 -1      9465 2.20339E+00
 -1      9466 2.20339E+00
 -1      9467 2.05826E+00
 -1      9468 2.20339E+00
 -1      9469 2.46609E+00
 -1      9470 2.46609E+00
 -1      9471 2.33474E+00
 -1      9472 2.46609E+00
 -1      9473 4.06244E+00
 -1      9474 4.06244E+00
 -1      9475 3.26426E+00
 -1      9476 4.06244E+00
 -1      9477 1.37797E+01
 -1      9478 1.37797E+01
 -1      9479 8.92105E+00
 -1      9480 1.37797E+01
 -1      9481 2.01879E+01
 -1      9482 2.01879E+01
 -1      9483 1.69838E+01
 -1      9484 2.01879E+01
 -1      9485 2.01879E+01
 -1      9486 2.01879E+01
 -1      9487 2.01879E+01
 -1      9488 2.01879E+01
 -1      9489 7.13238E+00
 -1      9490 7.13238E+00
 -1      9491 1.36601E+01
 -1      9492 7.13238E+00
 -1      9493 3.42564E+00
 -1      9494 3.42564E+00
 -1      9495 5.27901E+00
 -1      9496 3.42564E+00
 -1      9497 3.07320E+00
 -1      9498 3.07320E+00
 -1      9499 3.24942E+00
 -1      9500 3.07320E+00
 -1      9501 2.64412E+00
 -1      9502 2.64412E+00
 -1      9503 2.85866E+00
 -1      9504 2.64412E+00
 -1      9505 2.27568E+00
 -1      9506 2.27568E+00
 -1      9507 2.45990E+00
 -1      9508 2.27568E+00
 -1      9509 1.97840E+00
 -1      9510 1.97840E+00
 -1      9511 2.12704E+00
 -1      9512 2.10011E+00
 -1      9513 1.74431E+00
 -1      9514 1.74431E+00
 -1      9515 1.86135E+00
 -1      9516 2.03120E+00
 -1      9517 1.55696E+00
 -1      9518 1.56665E+00
 -1      9519 1.65063E+00
 -1      9520 1.96878E+00
 -1      9521 1.39746E+00
 -1      9522 1.42277E+00
 -1      9523 1.47721E+00
 -1      9524 1.89824E+00
 -1      9525 1.31364E+00
 -1      9526 1.32529E+00
 -1      9527 1.35555E+00
 -1      9528 1.85633E+00
 -1      9529 1.27709E+00
 -1      9530 1.29104E+00
 -1      9531 1.29537E+00
 -1      9532 1.82387E+00
 -1      9533 1.22449E+00
 -1      9534 1.24536E+00
 -1      9535 1.25079E+00
 -1      9536 1.77582E+00
 -1      9537 1.12823E+00
 -1      9538 1.14822E+00
 -1      9539 1.17636E+00
 -1      9540 1.72769E+00
 -1      9541 7.47589E+00
 -1      9542 7.47589E+00
 -1      9543 4.30206E+00
 -1      9544 7.47589E+00
 -1      9545 7.47589E+00
 -1      9546 7.47589E+00
 -1      9547 7.47589E+00
 -1      9548 7.47589E+00
 -1      9549 7.36781E+00
 -1      9550 7.36781E+00
 -1      9551 7.36781E+00
 -1      9552 7.36781E+00
 -1      9553 7.36781E+00
 -1      9554 7.36781E+00
 -1      9555 7.36781E+00
 -1      9556 1.11762E+00
 -1      9557 1.09709E+00
 -1      9558 4.24271E+00
 -1      9559 1.66543E+00
 -1      9560 1.21353E+00
 -1      9561 1.19248E+00
 -1      9562 1.16558E+00
 -1      9563 1.71339E+00
 -1      9564 1.24972E+00
 -1      9565 1.23564E+00
 -1      9566 1.23163E+00
 -1      9567 1.68129E+00
 -1      9568 1.27159E+00
 -1      9569 1.26280E+00
 -1      9570 1.26065E+00
 -1      9571 1.69222E+00
 -1      9572 1.28627E+00
 -1      9573 1.28150E+00
 -1      9574 1.27893E+00
 -1      9575 1.66168E+00
 -1      9576 1.30232E+00
 -1      9577 1.30036E+00
 -1      9578 1.29430E+00
 -1      9579 1.61719E+00
 -1      9580 1.32295E+00
 -1      9581 1.32295E+00
 -1      9582 1.31264E+00
 -1      9583 1.58421E+00
 -1      9584 1.45598E+00
 -1      9585 1.45598E+00
 -1      9586 1.38946E+00
 -1      9587 1.59373E+00
 -1      9588 1.66245E+00
 -1      9589 1.66245E+00
 -1      9590 1.55921E+00
 -1      9591 1.66245E+00
 -1      9592 1.91313E+00
 -1      9593 1.91313E+00
 -1      9594 1.78779E+00
 -1      9595 1.91313E+00
 -1      9596 2.20339E+00
 -1      9597 2.20339E+00
 -1      9598 2.05826E+00
 -1      9599 2.20339E+00
 -1      9600 2.46609E+00
 -1      9601 2.46609E+00
 -1      9602 2.33474E+00
 -1      9603 2.46609E+00
 -1      9604 4.06244E+00
 -1      9605 4.06244E+00
 -1      9606 3.26426E+00
 -1      9607 4.06244E+00
 -1      9608 1.37797E+01
 -1      9609 1.37797E+01
 -1      9610 8.92105E+00
 -1      9611 1.37797E+01
 -1      9612 2.01879E+01
 -1      9613 2.01879E+01
 -1      9614 1.69838E+01
 -1      9615 2.01879E+01
 -1      9616 2.01879E+01
 -1      9617 2.01879E+01
 -1      9618 2.01879E+01
 -1      9619 2.01879E+01
 -1      9620 7.13238E+00
 -1      9621 7.13238E+00
 -1      9622 1.36601E+01
 -1      9623 7.13238E+00
 -1      9624 3.42564E+00
 -1      9625 3.42564E+00
 -1      9626 5.27901E+00
 -1      9627 3.42564E+00
 -1      9628 3.07320E+00
 -1      9629 3.07320E+00
 -1      9630 3.24942E+00
 -1      9631 3.07320E+00
 -1      9632 2.64412E+00
 -1      9633 2.64412E+00
 -1      9634 2.85866E+00
 -1      9635 2.64412E+00
 -1      9636 2.27568E+00
 -1      9637 2.27568E+00
 -1      9638 2.45990E+00
 -1      9639 2.27568E+00
 -1      9640 1.97840E+00
 -1      9641 1.97840E+00
 -1      9642 2.12704E+00
 -1      9643 2.10011E+00
 -1      9644 1.74431E+00
 -1      9645 1.74431E+00
 -1      9646 1.86135E+00
 -1      9647 2.03120E+00
 -1      9648 1.57634E+00
 -1      9649 1.56665E+00
 -1      9650 1.66032E+00
 -1      9651 1.97847E+00
 -1      9652 1.44808E+00
 -1      9653 1.42277E+00
 -1      9654 1.51221E+00
 -1      9655 1.95275E+00
 -1      9656 1.33693E+00
 -1      9657 1.32529E+00
 -1      9658 1.39251E+00
 -1      9659 1.92587E+00
 -1      9660 1.30500E+00
 -1      9661 1.29104E+00
 -1      9662 1.32096E+00
 -1      9663 1.90990E+00
 -1      9664 1.26623E+00
 -1      9665 1.24536E+00
 -1      9666 1.28561E+00
 -1      9667 1.92197E+00
 -1      9668 1.16821E+00
 -1      9669 1.14822E+00
 -1      9670 1.21722E+00
 -1      9671 1.87296E+00
 -1      9672 7.47589E+00
 -1      9673 7.47589E+00
 -1      9674 4.32205E+00
 -1      9675 7.47589E+00
 -1      9676 7.47589E+00
 -1      9677 7.47589E+00
 -1      9678 7.47589E+00
 -1      9679 7.47589E+00
 -1      9680 7.26955E+00
 -1      9681 7.26955E+00
 -1      9682 7.31868E+00
 -1      9683 7.31868E+00
 -1      9684 7.26955E+00
 -1      9685 7.26955E+00
 -1      9686 7.26955E+00
 -1      9687 1.24051E+00
 -1      9688 1.17906E+00
 -1      9689 4.25503E+00
 -1      9690 2.06547E+00
 -1      9691 1.28398E+00
 -1      9692 1.24876E+00
 -1      9693 1.26225E+00
 -1      9694 2.08721E+00
 -1      9695 1.28513E+00
 -1      9696 1.26743E+00
 -1      9697 1.28456E+00
 -1      9698 1.86039E+00
 -1      9699 1.28565E+00
 -1      9700 1.27862E+00
 -1      9701 1.28539E+00
 -1      9702 1.75615E+00
 -1      9703 1.28865E+00
 -1      9704 1.28746E+00
 -1      9705 1.28715E+00
 -1      9706 1.66287E+00
 -1      9707 1.30232E+00
 -1      9708 1.30232E+00
 -1      9709 1.29549E+00
 -1      9710 1.61628E+00
 -1      9711 1.32272E+00
 -1      9712 1.32284E+00
 -1      9713 1.31252E+00
 -1      9714 1.56383E+00
 -1      9715 1.44204E+00
 -1      9716 1.44901E+00
 -1      9717 1.38238E+00
 -1      9718 1.56284E+00
 -1      9719 1.64442E+00
 -1      9720 1.65344E+00
 -1      9721 1.54323E+00
 -1      9722 1.64442E+00
 -1      9723 1.88779E+00
 -1      9724 1.90046E+00
 -1      9725 1.76611E+00
 -1      9726 1.88779E+00
 -1      9727 2.17161E+00
 -1      9728 2.18750E+00
 -1      9729 2.02970E+00
 -1      9730 2.17161E+00
 -1      9731 2.41845E+00
 -1      9732 2.44227E+00
 -1      9733 2.29503E+00
 -1      9734 2.41845E+00
 -1      9735 4.02676E+00
 -1      9736 4.04460E+00
 -1      9737 3.22260E+00
 -1      9738 4.02676E+00
 -1      9739 1.34330E+01
 -1      9740 1.36063E+01
 -1      9741 8.72986E+00
 -1      9742 1.34330E+01
 -1      9743 1.91978E+01
 -1      9744 1.96928E+01
 -1      9745 1.63154E+01
 -1      9746 1.91978E+01
 -1      9747 1.91978E+01
 -1      9748 1.96928E+01
 -1      9749 1.91978E+01
 -1      9750 1.91978E+01
 -1      9751 7.01335E+00
 -1      9752 7.07286E+00
 -1      9753 1.31056E+01
 -1      9754 7.01335E+00
 -1      9755 3.40052E+00
 -1      9756 3.41308E+00
 -1      9757 5.20693E+00
 -1      9758 3.40052E+00
 -1      9759 3.03061E+00
 -1      9760 3.05190E+00
 -1      9761 3.21556E+00
 -1      9762 3.03061E+00
 -1      9763 2.61318E+00
 -1      9764 2.62865E+00
 -1      9765 2.82189E+00
 -1      9766 2.61318E+00
 -1      9767 2.25401E+00
 -1      9768 2.26485E+00
 -1      9769 2.43360E+00
 -1      9770 2.25401E+00
 -1      9771 1.96252E+00
 -1      9772 1.97046E+00
 -1      9773 2.10827E+00
 -1      9774 2.06442E+00
 -1      9775 1.73975E+00
 -1      9776 1.74203E+00
 -1      9777 1.85113E+00
 -1      9778 2.00659E+00
 -1      9779 1.57634E+00
 -1      9780 1.57634E+00
 -1      9781 1.65804E+00
 -1      9782 1.97253E+00
 -1      9783 1.46003E+00
 -1      9784 1.45406E+00
 -1      9785 1.51818E+00
 -1      9786 1.95873E+00
 -1      9787 1.41345E+00
 -1      9788 1.37519E+00
 -1      9789 1.43674E+00
 -1      9790 2.01783E+00
 -1      9791 1.38765E+00
 -1      9792 1.34632E+00
 -1      9793 1.40055E+00
 -1      9794 2.10241E+00
 -1      9795 1.36463E+00
 -1      9796 1.31543E+00
 -1      9797 1.37614E+00
 -1      9798 2.30937E+00
 -1      9799 1.29030E+00
 -1      9800 1.22926E+00
 -1      9801 1.32747E+00
 -1      9802 2.27221E+00
 -1      9803 7.38092E+00
 -1      9804 7.42841E+00
 -1      9805 4.33561E+00
 -1      9806 7.38092E+00
 -1      9807 7.38092E+00
 -1      9808 7.42841E+00
 -1      9809 7.38092E+00
 -1      9810 7.38092E+00
 -1      9811 9.71451E+00
 -1      9812 9.71451E+00
 -1      9813 8.49203E+00
 -1      9814 8.49203E+00
 -1      9815 9.71451E+00
 -1      9816 9.71451E+00
 -1      9817 9.71451E+00
 -1      9818 3.43969E+00
 -1      9819 2.34010E+00
 -1      9820 6.57710E+00
 -1      9821 4.28481E+00
 -1      9822 1.88319E+00
 -1      9823 1.58358E+00
 -1      9824 2.66144E+00
 -1      9825 2.77088E+00
 -1      9826 1.47957E+00
 -1      9827 1.38235E+00
 -1      9828 1.68138E+00
 -1      9829 2.03892E+00
 -1      9830 1.30276E+00
 -1      9831 1.29420E+00
 -1      9832 1.39116E+00
 -1      9833 1.76470E+00
 -1      9834 1.28865E+00
 -1      9835 1.28865E+00
 -1      9836 1.29571E+00
 -1      9837 1.64643E+00
 -1      9838 1.29787E+00
 -1      9839 1.30010E+00
 -1      9840 1.29326E+00
 -1      9841 1.55207E+00
 -1      9842 1.31391E+00
 -1      9843 1.31831E+00
 -1      9844 1.30589E+00
 -1      9845 1.50084E+00
 -1      9846 1.39951E+00
 -1      9847 1.42077E+00
 -1      9848 1.35671E+00
 -1      9849 1.47241E+00
 -1      9850 1.58927E+00
 -1      9851 1.61685E+00
 -1      9852 1.49439E+00
 -1      9853 1.58927E+00
 -1      9854 1.81027E+00
 -1      9855 1.84903E+00
 -1      9856 1.69977E+00
 -1      9857 1.81027E+00
 -1      9858 2.04547E+00
 -1      9859 2.10854E+00
 -1      9860 1.92787E+00
 -1      9861 2.04547E+00
 -1      9862 2.20741E+00
 -1      9863 2.31293E+00
 -1      9864 2.12644E+00
 -1      9865 2.20741E+00
 -1      9866 4.51176E+00
 -1      9867 4.26926E+00
 -1      9868 3.35959E+00
 -1      9869 4.51176E+00
 -1      9870 1.41474E+01
 -1      9871 1.37902E+01
 -1      9872 9.32957E+00
 -1      9873 1.41474E+01
 -1      9874 1.90894E+01
 -1      9875 1.91436E+01
 -1      9876 1.66184E+01
 -1      9877 1.90894E+01
 -1      9878 1.90894E+01
 -1      9879 1.91436E+01
 -1      9880 1.90894E+01
 -1      9881 1.90894E+01
 -1      9882 8.24294E+00
 -1      9883 7.62815E+00
 -1      9884 1.36662E+01
 -1      9885 8.24294E+00
 -1      9886 3.25641E+00
 -1      9887 3.32846E+00
 -1      9888 5.74968E+00
 -1      9889 3.25641E+00
 -1      9890 2.86224E+00
 -1      9891 2.94642E+00
 -1      9892 3.05932E+00
 -1      9893 2.86224E+00
 -1      9894 2.51352E+00
 -1      9895 2.56335E+00
 -1      9896 2.68788E+00
 -1      9897 2.51352E+00
 -1      9898 2.18786E+00
 -1      9899 2.22094E+00
 -1      9900 2.35069E+00
 -1      9901 2.18786E+00
 -1      9902 1.91392E+00
 -1      9903 1.93822E+00
 -1      9904 2.05089E+00
 -1      9905 1.95973E+00
 -1      9906 1.68914E+00
 -1      9907 1.71444E+00
 -1      9908 1.80153E+00
 -1      9909 1.91502E+00
 -1      9910 1.54888E+00
 -1      9911 1.56261E+00
 -1      9912 1.61901E+00
 -1      9913 1.88926E+00
 -1      9914 1.46003E+00
 -1      9915 1.46003E+00
 -1      9916 1.50446E+00
 -1      9917 1.93605E+00
 -1      9918 1.48636E+00
 -1      9919 1.44991E+00
 -1      9920 1.47320E+00
 -1      9921 2.05429E+00
 -1      9922 1.76521E+00
 -1      9923 1.57643E+00
 -1      9924 1.62578E+00
 -1      9925 2.36922E+00
 -1      9926 2.15012E+00
 -1      9927 1.75737E+00
 -1      9928 1.95767E+00
 -1      9929 3.08303E+00
 -1      9930 3.66415E+00
 -1      9931 2.47723E+00
 -1      9932 2.90713E+00
 -1      9933 4.55924E+00
 -1      9934 9.77592E+00
 -1      9935 8.57842E+00
 -1      9936 6.72004E+00
 -1      9937 9.77592E+00
 -1      9938 9.77592E+00
 -1      9939 8.57842E+00
 -1      9940 9.77592E+00
 -1      9941 9.77592E+00
 -1      9942 9.71451E+00
 -1      9943 9.71451E+00
 -1      9944 9.71451E+00
 -1      9945 9.71451E+00
 -1      9946 9.71451E+00
 -1      9947 9.71451E+00
 -1      9948 9.71451E+00
 -1      9949 3.43969E+00
 -1      9950 3.43969E+00
 -1      9951 6.57710E+00
 -1      9952 4.28481E+00
 -1      9953 1.88319E+00
 -1      9954 1.88319E+00
 -1      9955 2.66144E+00
 -1      9956 2.77088E+00
 -1      9957 1.47957E+00
 -1      9958 1.47957E+00
 -1      9959 1.68138E+00
 -1      9960 2.03892E+00
 -1      9961 1.30276E+00
 -1      9962 1.30276E+00
 -1      9963 1.39116E+00
 -1      9964 1.69156E+00
 -1      9965 1.27803E+00
 -1      9966 1.28334E+00
 -1      9967 1.29039E+00
 -1      9968 1.50081E+00
 -1      9969 1.27655E+00
 -1      9970 1.28721E+00
 -1      9971 1.27729E+00
 -1      9972 1.42546E+00
 -1      9973 1.29821E+00
 -1      9974 1.30606E+00
 -1      9975 1.28738E+00
 -1      9976 1.37650E+00
 -1      9977 1.32401E+00
 -1      9978 1.36176E+00
 -1      9979 1.31111E+00
 -1      9980 1.34144E+00
 -1      9981 1.45833E+00
 -1      9982 1.52380E+00
 -1      9983 1.39117E+00
 -1      9984 1.45833E+00
 -1      9985 1.62845E+00
 -1      9986 1.71936E+00
 -1      9987 1.54339E+00
 -1      9988 1.62845E+00
 -1      9989 1.77357E+00
 -1      9990 1.90952E+00
 -1      9991 1.70101E+00
 -1      9992 1.77357E+00
 -1      9993 1.83927E+00
 -1      9994 2.02334E+00
 -1      9995 1.80642E+00
 -1      9996 1.83927E+00
 -1      9997 4.51176E+00
 -1      9998 4.51176E+00
 -1      9999 3.17552E+00
 -1     10000 4.51176E+00
 -1     10001 1.41474E+01
 -1     10002 1.41474E+01
 -1     10003 9.32957E+00
 -1     10004 1.41474E+01
 -1     10005 1.90894E+01
 -1     10006 1.90894E+01
 -1     10007 1.66184E+01
 -1     10008 1.90894E+01
 -1     10009 1.90894E+01
 -1     10010 1.90894E+01
 -1     10011 1.90894E+01
 -1     10012 1.90894E+01
 -1     10013 8.24294E+00
 -1     10014 8.24294E+00
 -1     10015 1.36662E+01
 -1     10016 8.24294E+00
 -1     10017 3.03279E+00
 -1     10018 3.14460E+00
 -1     10019 5.63787E+00
 -1     10020 3.03279E+00
 -1     10021 2.50535E+00
 -1     10022 2.68379E+00
 -1     10023 2.76907E+00
 -1     10024 2.50535E+00
 -1     10025 2.28616E+00
 -1     10026 2.39984E+00
 -1     10027 2.39575E+00
 -1     10028 2.28616E+00
 -1     10029 2.03079E+00
 -1     10030 2.10933E+00
 -1     10031 2.15848E+00
 -1     10032 2.03079E+00
 -1     10033 1.79789E+00
 -1     10034 1.85590E+00
 -1     10035 1.91434E+00
 -1     10036 1.79789E+00
 -1     10037 1.59833E+00
 -1     10038 1.64373E+00
 -1     10039 1.69811E+00
 -1     10040 1.73734E+00
 -1     10041 1.43136E+00
 -1     10042 1.49012E+00
 -1     10043 1.51484E+00
 -1     10044 1.71159E+00
 -1     10045 1.37170E+00
 -1     10046 1.41587E+00
 -1     10047 1.40153E+00
 -1     10048 1.74065E+00
 -1     10049 1.48636E+00
 -1     10050 1.48636E+00
 -1     10051 1.42903E+00
 -1     10052 1.97370E+00
 -1     10053 1.76521E+00
 -1     10054 1.76521E+00
 -1     10055 1.62578E+00
 -1     10056 2.36922E+00
 -1     10057 2.15012E+00
 -1     10058 2.15012E+00
 -1     10059 1.95767E+00
 -1     10060 3.08303E+00
 -1     10061 3.66415E+00
 -1     10062 3.66415E+00
 -1     10063 2.90713E+00
 -1     10064 4.55924E+00
 -1     10065 9.77592E+00
 -1     10066 9.77592E+00
 -1     10067 6.72004E+00
 -1     10068 9.77592E+00
 -1     10069 9.77592E+00
 -1     10070 9.77592E+00
 -1     10071 9.77592E+00
 -1     10072 9.77592E+00
 -3
 9999
