
                        S T E P       1


                                INCREMENT     1


 stresses (elem, integ.pnt.,sxx,syy,szz,sxy,sxz,syz) for set E1 and time  0.1000000E+01

        29   1  4.350424E+00  4.350424E+00  2.186649E+00  3.056971E+00  4.494639E+00  4.494639E+00
        29   2  1.571951E+00 -1.473887E-01 -1.028253E+00 -2.123040E-01  7.969503E-01 -6.516102E-01
        29   3 -1.473887E-01  1.571951E+00 -1.028253E+00 -2.123040E-01 -6.516102E-01  7.969503E-01
        29   4  2.335964E+00  2.335964E+00 -1.302581E-01 -5.855801E-01  9.078156E-02  9.078156E-02
        29   5 -8.424285E-01 -8.424285E-01 -4.656499E+00 -6.886187E-01 -1.430065E+00 -1.430065E+00
        29   6  3.065079E-01  1.258418E-01  2.659010E+00  2.936660E-01 -4.395679E-01  2.471050E-01
        29   7  1.258418E-01  3.065079E-01  2.659010E+00  2.936660E-01  2.471050E-01 -4.395679E-01
        29   8 -3.664656E-01 -3.664656E-01 -6.615586E-01 -3.572523E-03  4.812778E-02  4.812778E-02

                        S T E P       2


                                INCREMENT     1


 stresses (elem, integ.pnt.,sxx,syy,szz,sxy,sxz,syz) for set E1 and time  0.2000000E+01


                        S T E P       3


                                INCREMENT     1


 stresses (elem, integ.pnt.,sxx,syy,szz,sxy,sxz,syz) for set E1 and time  0.3000000E+01

        29   1  1.772869E-11  1.773525E-11  4.188147E-11 -5.924663E-12  1.886972E-11  1.886534E-11
        29   2  1.328668E-11  3.375238E-12 -1.297429E-11  9.988091E-12  2.260954E-12  3.042910E-12
        29   3  3.378111E-12  1.329995E-11 -1.297087E-11  9.988092E-12  3.044278E-12  2.258218E-12
        29   4  2.858643E-12  2.853717E-12 -1.037221E-11  7.273866E-12  8.959195E-13  8.949618E-13
        29   5  5.461688E-13  5.486323E-13 -3.586492E-12  4.446402E-12 -3.283538E-12 -3.286822E-12
        29   6  9.768429E-13  4.333264E-13  4.215154E-12 -2.234100E-12  2.207835E-12 -3.147744E-14
        29   7  4.261942E-13  9.728578E-13  4.211374E-12 -2.232731E-12 -3.038273E-14  2.208383E-12
        29   8  1.533689E-12  1.534305E-12 -4.647004E-13 -1.951457E-12  8.200763E-13  8.179554E-13
