
                        S T E P       1


                                INCREMENT     1


 stresses (elem, integ.pnt.,sxx,syy,szz,sxy,sxz,syz) for set E1 and time  0.1000000E+01

        29   1  0.000000E+00  0.000000E+00  0.000000E+00  0.000000E+00  0.000000E+00  0.000000E+00
        29   2  0.000000E+00  0.000000E+00  0.000000E+00  0.000000E+00  0.000000E+00  0.000000E+00
        29   3  0.000000E+00  0.000000E+00  0.000000E+00  0.000000E+00  0.000000E+00  0.000000E+00
        29   4  0.000000E+00  0.000000E+00  0.000000E+00  0.000000E+00  0.000000E+00  0.000000E+00
        29   5  0.000000E+00  0.000000E+00  0.000000E+00  0.000000E+00  0.000000E+00  0.000000E+00
        29   6  0.000000E+00  0.000000E+00  0.000000E+00  0.000000E+00  0.000000E+00  0.000000E+00
        29   7  0.000000E+00  0.000000E+00  0.000000E+00  0.000000E+00  0.000000E+00  0.000000E+00
        29   8  0.000000E+00  0.000000E+00  0.000000E+00  0.000000E+00  0.000000E+00  0.000000E+00

                        S T E P       2


                                INCREMENT     1


 stresses (elem, integ.pnt.,sxx,syy,szz,sxy,sxz,syz) for set E1 and time  0.2000000E+01


                        S T E P       3


                                INCREMENT     1


 stresses (elem, integ.pnt.,sxx,syy,szz,sxy,sxz,syz) for set E1 and time  0.3000000E+01

        29   1 -8.247605E+01 -1.172931E+02  1.227207E+03 -2.330188E+01 -1.634044E+02  9.604155E+01
        29   2 -7.387778E+01 -7.148347E+01  2.964725E+02 -2.666899E+01 -4.490817E+02  2.372287E+01
        29   3 -5.460506E+01 -7.270799E+01  1.325649E+03  6.243985E+00 -1.344672E+02  3.717080E+01
        29   4 -6.989642E+01 -5.919308E+01  3.269735E+02  2.521013E+00 -4.036056E+02  7.072478E+00
        29   5  4.332202E+02  4.034768E+02  2.066100E+03 -4.830331E+01 -2.815182E+02 -1.836829E+02
        29   6 -9.059079E+01  1.063339E+01  4.524374E+02 -5.248795E+01 -2.214041E+02 -5.205601E+01
        29   7  4.166173E+02  3.908668E+02  2.037334E+03  1.661876E+01 -3.598094E+02 -3.623171E+01
        29   8 -9.829376E+01  5.554862E+00  4.431954E+02  1.385718E+01 -2.911032E+02 -1.060114E+01

                        S T E P       4


                                INCREMENT     1


 stresses (elem, integ.pnt.,sxx,syy,szz,sxy,sxz,syz) for set E1 and time  0.4000000E+01

        29   1  0.000000E+00  0.000000E+00  0.000000E+00  0.000000E+00  0.000000E+00  0.000000E+00
        29   2  0.000000E+00  0.000000E+00  0.000000E+00  0.000000E+00  0.000000E+00  0.000000E+00
        29   3  0.000000E+00  0.000000E+00  0.000000E+00  0.000000E+00  0.000000E+00  0.000000E+00
        29   4  0.000000E+00  0.000000E+00  0.000000E+00  0.000000E+00  0.000000E+00  0.000000E+00
        29   5  0.000000E+00  0.000000E+00  0.000000E+00  0.000000E+00  0.000000E+00  0.000000E+00
        29   6  0.000000E+00  0.000000E+00  0.000000E+00  0.000000E+00  0.000000E+00  0.000000E+00
        29   7  0.000000E+00  0.000000E+00  0.000000E+00  0.000000E+00  0.000000E+00  0.000000E+00
        29   8  0.000000E+00  0.000000E+00  0.000000E+00  0.000000E+00  0.000000E+00  0.000000E+00

                        S T E P       5


                                INCREMENT     1


 stresses (elem, integ.pnt.,sxx,syy,szz,sxy,sxz,syz) for set E1 and time  0.5000000E+01

        29   1 -1.718540E-05 -1.522027E-06 -3.532015E-06  7.138739E-07 -2.164591E-05  1.698052E-06
        29   2 -7.031917E-08  7.285043E-06  1.158772E-06  6.046853E-06  2.512373E-05  4.744135E-06
        29   3 -1.837148E-05 -1.095575E-05 -5.875834E-06 -5.555171E-06 -1.613131E-05 -1.121152E-05
        29   4 -2.974526E-06 -4.318235E-06 -7.581494E-07  4.426680E-07  1.719767E-05 -6.391015E-06
        29   5  1.785160E-06  1.237962E-06  1.333807E-06 -3.504793E-07  4.406741E-06  8.539901E-07
        29   6 -3.270899E-06 -2.188536E-06  5.120957E-06 -1.451031E-06 -1.007695E-05  7.558296E-08
        29   7  2.541565E-06  2.807646E-06 -8.679880E-06  1.334838E-06  3.127756E-06  4.301219E-06
        29   8 -1.903889E-06  1.800171E-06  8.153836E-07  3.834643E-08 -5.866852E-06  3.090208E-06
