
                        S T E P       1


                                INCREMENT     1


 displacements (vx,vy,vz) for set NALL and time  0.1000000E+01

         1  0.000000E+00  7.142857E-05 -6.617445E-23
         2  2.380952E-04  7.142857E-05 -9.264423E-23
         3  2.380952E-04 -2.829816E-16 -3.970467E-23
         4  0.000000E+00  0.000000E+00 -3.970467E-23
         5  1.190476E-04  7.142857E-05  7.588886E-19
         6  2.380952E-04  3.571429E-05 -7.654001E-19
         7  1.190476E-04 -8.768821E-17  8.676794E-20
         8  0.000000E+00  3.571429E-05  8.195044E-20
         9  2.380952E-04 -7.142857E-05 -3.970467E-23
        10  0.000000E+00 -7.142857E-05  3.970467E-23
        11  2.380952E-04 -3.571429E-05  3.235666E-19
        12  1.190476E-04 -7.142857E-05 -3.522598E-19
        13  0.000000E+00 -3.571429E-05 -2.818502E-19
        14  4.761905E-04  7.142857E-05  2.646978E-23
        15  4.761905E-04 -8.305262E-16  1.323489E-23
        16  3.571429E-04  7.142857E-05 -4.346338E-20
        17  4.761905E-04  3.571429E-05  2.541099E-20
        18  3.571429E-04 -5.613214E-16  2.626332E-19
        19  4.761905E-04 -7.142857E-05  1.588187E-22
        20  4.761905E-04 -3.571429E-05  2.865089E-19
        21  3.571429E-04 -7.142857E-05  7.378716E-19

 stresses (elem, integ.pnt.,sxx,syy,szz,sxy,sxz,syz) for set EALL and time  0.1000000E+01

         1   1  1.000000E+02 -5.215384E-12  7.815970E-14  1.238697E-12  7.067529E-13  1.568288E-13
         1   2  1.000000E+02 -1.378453E-11 -2.629008E-13  5.226424E-12 -5.025023E-14 -6.166972E-13
         1   3  1.000000E+02 -1.013234E-11 -1.847411E-13 -6.619583E-12  2.067370E-12 -1.771488E-13
         1   4  1.000000E+02 -1.271871E-11  1.115552E-12 -4.440181E-12 -2.536985E-12  7.491959E-13
         1   5  1.000000E+02 -5.208278E-12  7.105427E-14  1.243075E-12 -5.690180E-13 -3.738643E-13
         1   6  1.000000E+02 -1.379874E-11 -2.913225E-13  5.232991E-12 -5.926808E-13  3.460784E-14
         1   7  1.000000E+02 -1.016076E-11 -2.273737E-13 -6.619310E-12 -1.798883E-12  1.047067E-13
         1   8  1.000000E+02 -1.273293E-11  1.087130E-12 -4.438539E-12  2.183610E-12 -3.866156E-13
         2   1  1.000000E+02 -1.933387E-11  2.629008E-13 -9.213751E-12  1.819119E-12  1.207938E-13
         2   2  1.000000E+02 -7.126744E-12 -9.592327E-13 -1.328440E-11 -1.270172E-12 -4.249356E-13
         2   3  1.000000E+02 -5.655920E-12 -3.552714E-14 -2.890910E-12  7.132116E-13  2.717241E-13
         2   4  1.000000E+02  2.181366E-12  3.055334E-13 -7.448938E-12 -1.669884E-13  5.695781E-13
         2   5  1.000000E+02 -1.934097E-11  2.415845E-13 -9.219771E-12 -1.833227E-12 -3.302011E-13
         2   6  1.000000E+02 -7.119638E-12 -9.734435E-13 -1.328166E-11  1.965514E-12  4.413571E-13
         2   7  1.000000E+02 -5.648815E-12 -2.842171E-14 -2.892005E-12 -1.056529E-12 -1.113099E-13
         2   8  1.000000E+02  2.174261E-12  2.984279E-13 -7.452222E-12  4.909232E-13 -6.700572E-13
         3   1  1.000000E+02 -1.149658E-11  4.902745E-13  4.065026E-11 -6.328933E-13 -5.961594E-13
         3   2  1.000000E+02  3.525713E-11 -1.705303E-13  3.116312E-11 -4.011020E-12  7.346569E-13
         3   3  1.000000E+02 -2.304290E-11 -1.058709E-12 -1.609490E-11  3.231923E-12  5.344349E-13
         3   4  1.000000E+02  4.124701E-11  3.339551E-13 -4.198010E-11 -2.815685E-12 -5.523729E-13
         3   5  1.000000E+02 -1.151790E-11  4.618528E-13  4.067106E-11 -3.017836E-13 -2.045347E-13
         3   6  1.000000E+02  3.531397E-11 -1.207923E-13  3.116422E-11  1.923670E-12 -9.145178E-13
         3   7  1.000000E+02 -2.305001E-11 -1.072920E-12 -1.607793E-11 -1.792965E-12 -5.721161E-14
         3   8  1.000000E+02  4.122569E-11  3.268497E-13 -4.197900E-11  5.965120E-13  7.240626E-13
         4   1  1.000000E+02 -5.137224E-12  9.237056E-13 -1.145035E-11  3.038424E-12 -1.665715E-13
         4   2  1.000000E+02  1.871570E-11 -1.350031E-13  2.774962E-11 -6.432474E-13  7.119310E-13
         4   3  1.000000E+02 -1.168132E-11 -4.263256E-13 -2.570623E-11 -1.506288E-13  1.712236E-13
         4   4  1.000000E+02  1.332978E-11  1.563194E-13 -2.498268E-11 -5.032933E-13 -3.850030E-13
         4   5  1.000000E+02 -5.186962E-12  8.739676E-13 -1.142435E-11 -1.654726E-12  4.694924E-13
         4   6  1.000000E+02  1.872991E-11 -1.136868E-13  2.774962E-11  3.643313E-13 -3.901063E-13
         4   7  1.000000E+02 -1.163158E-11 -3.765876E-13 -2.572264E-11  6.181052E-13 -4.446239E-13
         4   8  1.000000E+02  1.333689E-11  1.847411E-13 -2.492904E-11  1.983157E-14  4.080308E-13
