
                        S T E P       1


                                INCREMENT     1


 stresses (elem, integ.pnt.,sxx,syy,szz,sxy,sxz,syz) for set EALL and time  0.1000000E+01

         1   1  2.953219E+02 -5.061032E+00 -2.871711E-04  3.106010E+00  3.765450E-02 -2.329595E-02
         1   2  3.013875E+02  2.151404E+01  1.732326E-03 -6.801405E+00  3.765450E-02 -4.896178E-02
         1   3  2.688535E+02  1.216160E+00 -7.056922E-04 -1.474699E-01  1.198866E-02 -2.329595E-02
         1   4  2.642945E+02  1.616522E+01 -7.394624E-04 -9.391131E+00  1.198866E-02 -4.896178E-02
         1   5  2.953219E+02 -5.061032E+00 -2.871711E-04  3.106010E+00 -3.765450E-02  2.329595E-02
         1   6  3.013875E+02  2.151404E+01  1.732326E-03 -6.801405E+00 -3.765450E-02  4.896178E-02
         1   7  2.688535E+02  1.216160E+00 -7.056922E-04 -1.474699E-01 -1.198866E-02  2.329595E-02
         1   8  2.642945E+02  1.616522E+01 -7.394624E-04 -9.391131E+00 -1.198866E-02  4.896178E-02
         2   1  2.333640E+02  7.367017E-01  3.770662E-03 -5.645957E-01  2.101182E-02 -1.152784E-01
         2   2  2.290265E+02  1.418357E+01  5.044012E-03  5.162848E-01  2.101182E-02 -1.050885E-01
         2   3  1.845483E+02 -4.336818E-01 -5.859202E-03 -9.146742E-01  3.120169E-02 -1.152784E-01
         2   4  1.881325E+02  9.512510E+00 -2.955472E-03  7.579983E+00  3.120169E-02 -1.050885E-01
         2   5  2.333640E+02  7.367017E-01  3.770662E-03 -5.645957E-01 -2.101182E-02  1.152784E-01
         2   6  2.290265E+02  1.418357E+01  5.044012E-03  5.162848E-01 -2.101182E-02  1.050885E-01
         2   7  1.845483E+02 -4.336818E-01 -5.859202E-03 -9.146742E-01 -3.120169E-02  1.152784E-01
         2   8  1.881325E+02  9.512510E+00 -2.955472E-03  7.579983E+00 -3.120169E-02  1.050885E-01
         3   1  1.022527E+02 -8.672381E+00 -1.197307E-03 -4.792688E-02  4.363298E-02 -2.367787E-02
         3   2  1.030166E+02  3.188044E+00  4.560618E-03  2.204791E+00  4.363298E-02 -3.237733E-02
         3   3  9.506460E+01 -8.332238E+00 -3.516684E-03 -5.340777E+00  3.493352E-02 -2.367787E-02
         3   4  9.429805E+01  2.538445E+00  1.533719E-04  1.658178E+00  3.493352E-02 -3.237733E-02
         3   5  1.022527E+02 -8.672381E+00 -1.197307E-03 -4.792688E-02 -4.363298E-02  2.367787E-02
         3   6  1.030166E+02  3.188044E+00  4.560618E-03  2.204791E+00 -4.363298E-02  3.237733E-02
         3   7  9.506460E+01 -8.332238E+00 -3.516684E-03 -5.340777E+00 -3.493352E-02  2.367787E-02
         3   8  9.429805E+01  2.538445E+00  1.533719E-04  1.658178E+00 -3.493352E-02  3.237733E-02
         4   1  1.017953E+02 -8.830759E+00 -4.222532E-03  1.447045E+00  4.433053E-02  8.451122E-03
         4   2  1.012259E+02  1.370625E+00  3.889481E-03 -2.031696E+00  4.433053E-02 -4.287978E-03
         4   3  1.002167E+02 -5.413132E+00 -1.851225E-03  2.594483E+00  3.159143E-02  8.451122E-03
         4   4  1.007881E+02  8.737179E-01  2.184276E-03 -8.655302E-01  3.159143E-02 -4.287978E-03
         4   5  1.017953E+02 -8.830759E+00 -4.222532E-03  1.447045E+00 -4.433053E-02 -8.451122E-03
         4   6  1.012259E+02  1.370625E+00  3.889481E-03 -2.031696E+00 -4.433053E-02  4.287978E-03
         4   7  1.002167E+02 -5.413132E+00 -1.851225E-03  2.594483E+00 -3.159143E-02 -8.451122E-03
         4   8  1.007881E+02  8.737179E-01  2.184276E-03 -8.655302E-01 -3.159143E-02  4.287978E-03
