
                        S T E P       1


                                INCREMENT     1


 displacements (vx,vy,vz) for set NALL and time  0.1000000E+01

         1  0.000000E+00  0.000000E+00  0.000000E+00
         2  1.857143E-04  0.000000E+00  0.000000E+00
         3  1.857143E-04  4.333333E-04  0.000000E+00
         4  1.257266E-16  4.333333E-04  0.000000E+00

 strains (elem, integ.pnt.,exx,eyy,ezz,exy,exz,eyz) for set EALL and time  0.1000000E+01

         1   1 -1.857143E-04  4.333333E-04  0.000000E+00  3.205511E-17 -4.336809E-19 -3.252607E-19
         1   2 -1.857143E-04  4.333333E-04  0.000000E+00 -8.278900E-18  0.000000E+00  1.301043E-18
         1   3 -1.857143E-04  4.333333E-04  0.000000E+00 -1.175512E-17  0.000000E+00  0.000000E+00
         1   4 -1.857143E-04  4.333333E-04  0.000000E+00 -5.208236E-17 -2.168404E-19  1.734723E-18
         1   5 -1.857143E-04  4.333333E-04  0.000000E+00  3.205173E-17 -2.168404E-19 -3.252607E-19
         1   6 -1.857143E-04  4.333333E-04  0.000000E+00 -8.280594E-18 -1.084202E-19  1.301043E-18
         1   7 -1.857143E-04  4.333333E-04  0.000000E+00 -1.175682E-17  0.000000E+00  0.000000E+00
         1   8 -1.857143E-04  4.333333E-04  0.000000E+00 -5.208914E-17 -2.168404E-19  1.734723E-18

 stresses (elem, integ.pnt.,sxx,syy,szz,sxy,sxz,syz) for set EALL and time  0.1000000E+01

         1   1 -1.858780E-11  1.000000E+02  3.000000E+01  5.178134E-12 -7.005614E-14 -5.254211E-14
         1   2  6.174616E-12  1.000000E+02  3.000000E+01 -1.337361E-12  0.000000E+00  2.101684E-13
         1   3 -8.817835E-12  1.000000E+02  3.000000E+01 -1.898905E-12  0.000000E+00  0.000000E+00
         1   4  1.594458E-11  1.000000E+02  3.000000E+01 -8.413305E-12 -3.502807E-14  2.802246E-13
         1   5 -1.858780E-11  1.000000E+02  3.000000E+01  5.177587E-12 -3.502807E-14 -5.254211E-14
         1   6  6.181722E-12  1.000000E+02  3.000000E+01 -1.337634E-12 -1.751404E-14  2.101684E-13
         1   7 -8.817835E-12  1.000000E+02  3.000000E+01 -1.899178E-12  0.000000E+00  0.000000E+00
         1   8  1.594458E-11  1.000000E+02  3.000000E+01 -8.414399E-12 -3.502807E-14  2.802246E-13
