
                        S T E P       1


                                INCREMENT     1


 displacements (vx,vy,vz) for set NALL and time  0.1000000E+01

         1  0.000000E+00  0.000000E+00  0.000000E+00
         2  1.857143E-04  0.000000E+00  0.000000E+00
         3  1.857143E-04  4.333333E-04  0.000000E+00
         4  2.890024E-12  4.333333E-04  0.000000E+00
         5 -1.930189E-13  2.166667E-04  0.000000E+00
         6  9.285714E-05  4.333333E-04  0.000000E+00
         7  1.857143E-04  2.166667E-04  0.000000E+00
         8  9.285714E-05  0.000000E+00  0.000000E+00

 strains (elem, integ.pnt.,exx,eyy,ezz,exy,exz,eyz) for set EALL and time  0.1000000E+01

         1   1 -1.857143E-04  4.333333E-04  0.000000E+00 -1.818830E-12  3.903128E-18  2.276825E-18
         1   2 -1.857143E-04  4.333333E-04  0.000000E+00 -3.195355E-12  2.818926E-18 -9.540979E-18
         1   3 -1.857143E-04  4.333333E-04  0.000000E+00 -4.571756E-12  4.065758E-18  0.000000E+00
         1   4 -1.857143E-04  4.333333E-04  0.000000E+00  3.181828E-16  5.204170E-18  4.336809E-19
         1   5 -1.857143E-04  4.333333E-04  0.000000E+00  1.893322E-16 -1.734723E-18  3.469447E-18
         1   6 -1.857143E-04  4.333333E-04  0.000000E+00  1.851207E-16  4.770490E-18 -3.469447E-18
         1   7 -1.857143E-04  4.333333E-04  0.000000E+00  1.819505E-12  3.469447E-18 -8.673617E-19
         1   8 -1.857143E-04  4.333333E-04  0.000000E+00  3.195773E-12  6.938894E-18 -6.938894E-18
         1   9 -1.857143E-04  4.333333E-04  0.000000E+00  4.572165E-12  8.673617E-19 -1.387779E-17
         1  10 -1.857143E-04  4.333333E-04  0.000000E+00 -1.818830E-12  4.336809E-19 -1.084202E-19
         1  11 -1.857143E-04  4.333333E-04  0.000000E+00 -3.195355E-12  1.084202E-19  4.336809E-19
         1  12 -1.857143E-04  4.333333E-04  0.000000E+00 -4.571756E-12 -1.897354E-19  5.421011E-19
         1  13 -1.857143E-04  4.333333E-04  0.000000E+00  3.181456E-16  8.673617E-19  4.336809E-19
         1  14 -1.857143E-04  4.333333E-04  0.000000E+00  1.893356E-16  1.301043E-18  0.000000E+00
         1  15 -1.857143E-04  4.333333E-04  0.000000E+00  1.851817E-16 -7.589415E-19 -4.336809E-19
         1  16 -1.857143E-04  4.333333E-04  0.000000E+00  1.819505E-12  2.168404E-19 -4.336809E-19
         1  17 -1.857143E-04  4.333333E-04  0.000000E+00  3.195773E-12 -7.589415E-19  0.000000E+00
         1  18 -1.857143E-04  4.333333E-04  0.000000E+00  4.572165E-12 -1.897354E-19 -4.336809E-19
         1  19 -1.857143E-04  4.333333E-04  0.000000E+00 -1.818830E-12 -3.903128E-18 -5.421011E-19
         1  20 -1.857143E-04  4.333333E-04  0.000000E+00 -3.195355E-12 -2.818926E-18  9.540979E-18
         1  21 -1.857143E-04  4.333333E-04  0.000000E+00 -4.571756E-12 -4.499439E-18 -1.387779E-17
         1  22 -1.857143E-04  4.333333E-04  0.000000E+00  3.182218E-16 -5.204170E-18 -4.336809E-19
         1  23 -1.857143E-04  4.333333E-04  0.000000E+00  1.893288E-16  1.734723E-18  1.040834E-17
         1  24 -1.857143E-04  4.333333E-04  0.000000E+00  1.851174E-16 -6.505213E-18  1.040834E-17
         1  25 -1.857143E-04  4.333333E-04  0.000000E+00  1.819505E-12 -3.469447E-18  8.673617E-19
         1  26 -1.857143E-04  4.333333E-04  0.000000E+00  3.195773E-12  0.000000E+00  0.000000E+00
         1  27 -1.857143E-04  4.333333E-04  0.000000E+00  4.572165E-12 -8.673617E-19  1.387779E-17

 stresses (elem, integ.pnt.,sxx,syy,szz,sxy,sxz,syz) for set EALL and time  0.1000000E+01

         1   1 -4.494501E-07  1.000000E+02  3.000000E+01 -2.938110E-07  6.305053E-13  3.677947E-13
         1   2 -4.886840E-07  1.000000E+02  3.000000E+01 -5.161727E-07  4.553649E-13 -1.541235E-12
         1   3  5.833287E-07  1.000000E+02  3.000000E+01 -7.385144E-07  6.567763E-13  0.000000E+00
         1   4 -4.451551E-08  1.000000E+02  3.000000E+01  5.139877E-11  8.406737E-13  7.005614E-14
         1   5 -8.380162E-08  1.000000E+02  3.000000E+01  3.058443E-11 -2.802246E-13  5.604491E-13
         1   6  9.881588E-07  1.000000E+02  3.000000E+01  2.990412E-11  7.706175E-13 -5.604491E-13
         1   7 -4.493408E-07  1.000000E+02  3.000000E+01  2.939201E-07  5.604491E-13 -1.401123E-13
         1   8 -4.886792E-07  1.000000E+02  3.000000E+01  5.162402E-07  1.120898E-12 -1.120898E-12
         1   9  5.832289E-07  1.000000E+02  3.000000E+01  7.385805E-07  1.401123E-13 -2.241796E-12
         1  10 -4.494501E-07  1.000000E+02  3.000000E+01 -2.938110E-07  7.005614E-14 -1.751404E-14
         1  11 -4.886839E-07  1.000000E+02  3.000000E+01 -5.161727E-07  1.751404E-14  7.005614E-14
         1  12  5.833287E-07  1.000000E+02  3.000000E+01 -7.385144E-07 -3.064956E-14  8.757018E-14
         1  13 -4.451551E-08  1.000000E+02  3.000000E+01  5.139275E-11  1.401123E-13  7.005614E-14
         1  14 -8.380162E-08  1.000000E+02  3.000000E+01  3.058498E-11  2.101684E-13  0.000000E+00
         1  15  9.881588E-07  1.000000E+02  3.000000E+01  2.991397E-11 -1.225982E-13 -7.005614E-14
         1  16 -4.493408E-07  1.000000E+02  3.000000E+01  2.939201E-07  3.502807E-14 -7.005614E-14
         1  17 -4.886792E-07  1.000000E+02  3.000000E+01  5.162402E-07 -1.225982E-13  0.000000E+00
         1  18  5.832289E-07  1.000000E+02  3.000000E+01  7.385805E-07 -3.064956E-14 -7.005614E-14
         1  19 -4.494501E-07  1.000000E+02  3.000000E+01 -2.938110E-07 -6.305053E-13 -8.757018E-14
         1  20 -4.886840E-07  1.000000E+02  3.000000E+01 -5.161727E-07 -4.553649E-13  1.541235E-12
         1  21  5.833287E-07  1.000000E+02  3.000000E+01 -7.385144E-07 -7.268325E-13 -2.241796E-12
         1  22 -4.451550E-08  1.000000E+02  3.000000E+01  5.140506E-11 -8.406737E-13 -7.005614E-14
         1  23 -8.380163E-08  1.000000E+02  3.000000E+01  3.058388E-11  2.802246E-13  1.681347E-12
         1  24  9.881588E-07  1.000000E+02  3.000000E+01  2.990357E-11 -1.050842E-12  1.681347E-12
         1  25 -4.493408E-07  1.000000E+02  3.000000E+01  2.939201E-07 -5.604491E-13  1.401123E-13
         1  26 -4.886792E-07  1.000000E+02  3.000000E+01  5.162402E-07  0.000000E+00  0.000000E+00
         1  27  5.832289E-07  1.000000E+02  3.000000E+01  7.385805E-07 -1.401123E-13  2.241796E-12
