
                        S T E P       1


                                INCREMENT    23


 displacements (vx,vy,vz) for set NALL and time  0.1000000E+01

         1  0.000000E+00 -9.445312E-04 -3.811648E-21
         2 -4.099948E-05 -5.093564E-04  2.541099E-21
         3  4.099948E-05 -5.093564E-04  8.470329E-22
         4  0.000000E+00 -9.445312E-04  0.000000E+00
         5 -8.920580E-05 -7.301895E-04 -1.694066E-21
         6  2.829580E-17 -4.813881E-04  1.541600E-19
         7  8.920580E-05 -7.301895E-04 -1.694066E-21
         8  0.000000E+00 -1.006076E-03 -1.643244E-19
         9 -6.895352E-05 -5.090341E-04  1.694066E-21
        10  0.000000E+00  0.000000E+00 -1.694066E-21
        11  0.000000E+00  0.000000E+00  1.694066E-21
        12  6.895352E-05 -5.090341E-04 -1.694066E-21
        13 -7.170174E-05 -2.490580E-04 -1.524659E-20
        14  0.000000E+00  0.000000E+00  7.453890E-20
        15  7.170174E-05 -2.490580E-04  1.101143E-19
        16 -4.155388E-18 -4.811575E-04 -7.284483E-20

 stresses (elem, integ.pnt.,sxx,syy,szz,sxy,sxz,syz) for set EALL and time  0.1000000E+01

         1   1 -1.866051E+00 -2.614201E+01 -9.169315E-03  2.485588E-01 -1.056990E-06 -3.667139E-02
         1   2  7.389388E-01 -2.614178E+01  9.169269E-03 -9.300088E-01  6.229091E-07 -3.667107E-02
         1   3 -1.866051E+00 -2.614201E+01 -9.169315E-03 -2.485588E-01  1.056990E-06 -3.667139E-02
         1   4  7.389388E-01 -2.614178E+01  9.169269E-03  9.300088E-01 -6.229090E-07 -3.667107E-02
         1   5 -1.866051E+00 -2.614201E+01 -9.169315E-03  2.485588E-01  1.056990E-06  3.667139E-02
         1   6  7.389388E-01 -2.614178E+01  9.169269E-03 -9.300088E-01 -6.229091E-07  3.667107E-02
         1   7 -1.866051E+00 -2.614201E+01 -9.169315E-03 -2.485588E-01 -1.056990E-06  3.667139E-02
         1   8  7.389388E-01 -2.614178E+01  9.169269E-03  9.300088E-01  6.229090E-07  3.667107E-02
         2   1  8.571286E-01 -2.614175E+01  1.542135E-02  1.270263E+00  1.514774E-07  6.167520E-02
         2   2 -3.523946E+00 -2.614215E+01 -1.542147E-02 -1.518229E+00 -1.379299E-06  6.167611E-02
         2   3  8.571286E-01 -2.614175E+01  1.542135E-02 -1.270263E+00 -1.514773E-07  6.167520E-02
         2   4 -3.523946E+00 -2.614215E+01 -1.542147E-02  1.518229E+00  1.379299E-06  6.167611E-02
         2   5  8.571286E-01 -2.614175E+01  1.542135E-02  1.270263E+00 -1.514774E-07 -6.167520E-02
         2   6 -3.523946E+00 -2.614215E+01 -1.542147E-02 -1.518229E+00  1.379299E-06 -6.167611E-02
         2   7  8.571286E-01 -2.614175E+01  1.542135E-02 -1.270263E+00  1.514773E-07 -6.167520E-02
         2   8 -3.523946E+00 -2.614215E+01 -1.542147E-02  1.518229E+00 -1.379299E-06 -6.167611E-02
