
                        S T E P       1


                                INCREMENT     1


 stresses (elem, integ.pnt.,sxx,syy,szz,sxy,sxz,syz) for set EALL and time  0.1000000E+01

         1   1 -6.675988E+01  2.720207E+01  1.367613E+00  1.779303E+01 -7.084069E-01  1.380015E+00
         1   2  9.048355E-01  1.749514E+01 -1.413924E+00 -6.892601E+00  1.898170E-01  1.481734E+00
         1   3 -6.675988E+01  2.720207E+01  1.367613E+00  1.779303E+01  7.084069E-01 -1.380015E+00
         1   4  9.048355E-01  1.749514E+01 -1.413924E+00 -6.892601E+00 -1.898170E-01 -1.481734E+00
         1   5 -2.060466E+00 -1.764169E+01  1.858441E-01  2.521631E+01 -6.318218E-01 -3.431461E-01
         1   6 -5.548146E+00  6.310507E-01  2.237378E-01 -4.366722E-01  1.692961E-01 -4.041644E-01
         1   7 -2.060466E+00 -1.764169E+01  1.858441E-01  2.521631E+01  6.318218E-01  3.431461E-01
         1   8 -5.548146E+00  6.310507E-01  2.237378E-01 -4.366722E-01 -1.692961E-01  4.041644E-01
         2   1 -1.260307E+02 -4.780193E+00 -5.810434E-01 -1.153607E+01 -3.831195E-13 -6.616860E-01
         2   2  1.491962E+01 -9.063096E+00  5.810434E-01  1.153607E+01 -4.258100E-13 -5.004008E-01
         2   3 -1.260307E+02 -4.780193E+00 -5.810434E-01 -1.153607E+01 -1.444908E-13  6.616860E-01
         2   4  1.491962E+01 -9.063096E+00  5.810434E-01  1.153607E+01 -1.617312E-13  5.004008E-01
         2   5 -1.260307E+02 -4.780193E+00 -5.810434E-01  1.153607E+01  2.211147E-13 -6.616860E-01
         2   6  1.491962E+01 -9.063096E+00  5.810434E-01 -1.153607E+01  3.398817E-13 -5.004008E-01
         2   7 -1.260307E+02 -4.780193E+00 -5.810434E-01  1.153607E+01 -1.204090E-14  6.616860E-01
         2   8  1.491962E+01 -9.063096E+00  5.810434E-01 -1.153607E+01  3.623216E-13  5.004008E-01
         3   1 -2.060466E+00 -1.764169E+01  1.858441E-01 -2.521631E+01  6.318218E-01 -3.431461E-01
         3   2 -5.548146E+00  6.310507E-01  2.237378E-01  4.366722E-01 -1.692961E-01 -4.041644E-01
         3   3 -2.060466E+00 -1.764169E+01  1.858441E-01 -2.521631E+01 -6.318218E-01  3.431461E-01
         3   4 -5.548146E+00  6.310507E-01  2.237378E-01  4.366722E-01  1.692961E-01  4.041644E-01
         3   5 -6.675988E+01  2.720207E+01  1.367613E+00 -1.779303E+01  7.084069E-01  1.380015E+00
         3   6  9.048355E-01  1.749514E+01 -1.413924E+00  6.892601E+00 -1.898170E-01  1.481734E+00
         3   7 -6.675988E+01  2.720207E+01  1.367613E+00 -1.779303E+01 -7.084069E-01 -1.380015E+00
         3   8  9.048355E-01  1.749514E+01 -1.413924E+00  6.892601E+00  1.898170E-01 -1.481734E+00
         4   1  7.584650E+01  7.350716E+01  1.504068E+01  1.180959E+02 -1.082454E+00  1.878784E+00
         4   2 -2.046188E+01  4.684049E+01 -1.193001E+01  1.056806E+02  4.235316E+00  1.878784E+00
         4   3  7.584650E+01  7.350716E+01  1.504068E+01  1.180959E+02  1.082454E+00 -1.878784E+00
         4   4 -2.046188E+01  4.684049E+01 -1.193001E+01  1.056806E+02 -4.235316E+00 -1.878784E+00
         4   5  3.277707E+01 -7.350716E+01 -3.715006E+00  1.523739E+01 -2.031519E+00 -6.203766E-01
         4   6  3.599127E+01 -4.684049E+01  6.043412E-01  2.765268E+01  4.063098E+00 -6.203766E-01
         4   7  3.277707E+01 -7.350716E+01 -3.715006E+00  1.523739E+01  2.031519E+00  6.203766E-01
         4   8  3.599127E+01 -4.684049E+01  6.043412E-01  2.765268E+01 -4.063098E+00  6.203766E-01
         5   1  3.277707E+01 -7.350716E+01 -3.715006E+00 -1.523739E+01  2.031519E+00 -6.203766E-01
         5   2  3.599127E+01 -4.684049E+01  6.043412E-01 -2.765268E+01 -4.063098E+00 -6.203766E-01
         5   3  3.277707E+01 -7.350716E+01 -3.715006E+00 -1.523739E+01 -2.031519E+00  6.203766E-01
         5   4  3.599127E+01 -4.684049E+01  6.043412E-01 -2.765268E+01  4.063098E+00  6.203766E-01
         5   5  7.584650E+01  7.350716E+01  1.504068E+01 -1.180959E+02  1.082454E+00  1.878784E+00
         5   6 -2.046188E+01  4.684049E+01 -1.193001E+01 -1.056806E+02 -4.235316E+00  1.878784E+00
         5   7  7.584650E+01  7.350716E+01  1.504068E+01 -1.180959E+02 -1.082454E+00 -1.878784E+00
         5   8 -2.046188E+01  4.684049E+01 -1.193001E+01 -1.056806E+02  4.235316E+00 -1.878784E+00
         6   1  5.662428E+01  4.406079E+01 -2.235834E+00 -2.740292E+01  1.069045E+00  2.669588E-01
         6   2  5.662428E+01  4.406079E+01 -2.235834E+00  2.740292E+01  1.069045E+00 -2.669588E-01
         6   3  5.662428E+01  4.406079E+01 -2.235834E+00 -2.740292E+01 -1.069045E+00 -2.669588E-01
         6   4  5.662428E+01  4.406079E+01 -2.235834E+00  2.740292E+01 -1.069045E+00  2.669588E-01
         6   5 -3.852778E+00 -9.175431E+01  2.354901E-01 -1.583626E+01 -1.643660E-01 -1.052942E-01
         6   6 -3.852778E+00 -9.175431E+01  2.354901E-01  1.583626E+01 -1.643660E-01  1.052942E-01
         6   7 -3.852778E+00 -9.175431E+01  2.354901E-01 -1.583626E+01  1.643660E-01  1.052942E-01
         6   8 -3.852778E+00 -9.175431E+01  2.354901E-01  1.583626E+01  1.643660E-01 -1.052942E-01
         7   1  1.111111E+02  3.842946E+01  3.654030E+00  4.213987E+01  4.993419E-01  2.753995E-01
         7   2  1.111111E+02  3.842946E+01  3.654030E+00 -4.213987E+01  4.993419E-01 -2.753995E-01
         7   3  1.111111E+02  3.842946E+01  3.654030E+00  4.213987E+01 -4.993419E-01 -2.753995E-01
         7   4  1.111111E+02  3.842946E+01  3.654030E+00 -4.213987E+01 -4.993419E-01  2.753995E-01
         7   5  1.111111E+02  9.264052E+00 -2.016957E+00  2.395277E+00  1.863569E+00 -7.379308E-02
         7   6  1.111111E+02  9.264052E+00 -2.016957E+00 -2.395277E+00  1.863569E+00  7.379308E-02
         7   7  1.111111E+02  9.264052E+00 -2.016957E+00  2.395277E+00 -1.863569E+00  7.379308E-02
         7   8  1.111111E+02  9.264052E+00 -2.016957E+00 -2.395277E+00 -1.863569E+00 -7.379308E-02
         8   1  1.111111E+02  9.264052E+00 -2.016957E+00 -2.395277E+00 -1.863569E+00 -7.379308E-02
         8   2  1.111111E+02  9.264052E+00 -2.016957E+00  2.395277E+00 -1.863569E+00  7.379308E-02
         8   3  1.111111E+02  9.264052E+00 -2.016957E+00 -2.395277E+00  1.863569E+00  7.379308E-02
         8   4  1.111111E+02  9.264052E+00 -2.016957E+00  2.395277E+00  1.863569E+00 -7.379308E-02
         8   5  1.111111E+02  3.842946E+01  3.654030E+00 -4.213987E+01 -4.993419E-01  2.753995E-01
         8   6  1.111111E+02  3.842946E+01  3.654030E+00  4.213987E+01 -4.993419E-01 -2.753995E-01
         8   7  1.111111E+02  3.842946E+01  3.654030E+00 -4.213987E+01  4.993419E-01 -2.753995E-01
         8   8  1.111111E+02  3.842946E+01  3.654030E+00  4.213987E+01  4.993419E-01  2.753995E-01
         9   1 -3.852778E+00 -9.175431E+01  2.354901E-01  1.583626E+01  1.643660E-01 -1.052942E-01
         9   2 -3.852778E+00 -9.175431E+01  2.354901E-01 -1.583626E+01  1.643660E-01  1.052942E-01
         9   3 -3.852778E+00 -9.175431E+01  2.354901E-01  1.583626E+01 -1.643660E-01  1.052942E-01
         9   4 -3.852778E+00 -9.175431E+01  2.354901E-01 -1.583626E+01 -1.643660E-01 -1.052942E-01
         9   5  5.662428E+01  4.406079E+01 -2.235834E+00  2.740292E+01 -1.069045E+00  2.669588E-01
         9   6  5.662428E+01  4.406079E+01 -2.235834E+00 -2.740292E+01 -1.069045E+00 -2.669588E-01
         9   7  5.662428E+01  4.406079E+01 -2.235834E+00  2.740292E+01  1.069045E+00 -2.669588E-01
         9   8  5.662428E+01  4.406079E+01 -2.235834E+00 -2.740292E+01  1.069045E+00  2.669588E-01
        10   1 -2.046188E+01  4.684049E+01 -1.193001E+01 -1.056806E+02  4.235316E+00 -1.878784E+00
        10   2  7.584650E+01  7.350716E+01  1.504068E+01 -1.180959E+02 -1.082454E+00 -1.878784E+00
        10   3 -2.046188E+01  4.684049E+01 -1.193001E+01 -1.056806E+02 -4.235316E+00  1.878784E+00
        10   4  7.584650E+01  7.350716E+01  1.504068E+01 -1.180959E+02  1.082454E+00  1.878784E+00
        10   5  3.599127E+01 -4.684049E+01  6.043412E-01 -2.765268E+01  4.063098E+00  6.203766E-01
        10   6  3.277707E+01 -7.350716E+01 -3.715006E+00 -1.523739E+01 -2.031519E+00  6.203766E-01
        10   7  3.599127E+01 -4.684049E+01  6.043412E-01 -2.765268E+01 -4.063098E+00 -6.203766E-01
        10   8  3.277707E+01 -7.350716E+01 -3.715006E+00 -1.523739E+01  2.031519E+00 -6.203766E-01
        11   1  3.599127E+01 -4.684049E+01  6.043412E-01  2.765268E+01 -4.063098E+00  6.203766E-01
        11   2  3.277707E+01 -7.350716E+01 -3.715006E+00  1.523739E+01  2.031519E+00  6.203766E-01
        11   3  3.599127E+01 -4.684049E+01  6.043412E-01  2.765268E+01  4.063098E+00 -6.203766E-01
        11   4  3.277707E+01 -7.350716E+01 -3.715006E+00  1.523739E+01 -2.031519E+00 -6.203766E-01
        11   5 -2.046188E+01  4.684049E+01 -1.193001E+01  1.056806E+02 -4.235316E+00 -1.878784E+00
        11   6  7.584650E+01  7.350716E+01  1.504068E+01  1.180959E+02  1.082454E+00 -1.878784E+00
        11   7 -2.046188E+01  4.684049E+01 -1.193001E+01  1.056806E+02  4.235316E+00  1.878784E+00
        11   8  7.584650E+01  7.350716E+01  1.504068E+01  1.180959E+02 -1.082454E+00  1.878784E+00
        12   1  9.048355E-01  1.749514E+01 -1.413924E+00  6.892601E+00  1.898170E-01 -1.481734E+00
        12   2 -6.675988E+01  2.720207E+01  1.367613E+00 -1.779303E+01 -7.084069E-01 -1.380015E+00
        12   3  9.048355E-01  1.749514E+01 -1.413924E+00  6.892601E+00 -1.898170E-01  1.481734E+00
        12   4 -6.675988E+01  2.720207E+01  1.367613E+00 -1.779303E+01  7.084069E-01  1.380015E+00
        12   5 -5.548146E+00  6.310507E-01  2.237378E-01  4.366722E-01  1.692961E-01  4.041644E-01
        12   6 -2.060466E+00 -1.764169E+01  1.858441E-01 -2.521631E+01 -6.318218E-01  3.431461E-01
        12   7 -5.548146E+00  6.310507E-01  2.237378E-01  4.366722E-01 -1.692961E-01 -4.041644E-01
        12   8 -2.060466E+00 -1.764169E+01  1.858441E-01 -2.521631E+01  6.318218E-01 -3.431461E-01
        13   1  1.491962E+01 -9.063096E+00  5.810434E-01 -1.153607E+01  2.736568E-14  5.004008E-01
        13   2 -1.260307E+02 -4.780193E+00 -5.810434E-01  1.153607E+01 -3.677947E-13  6.616860E-01
        13   3  1.491962E+01 -9.063096E+00  5.810434E-01 -1.153607E+01 -3.174419E-14 -5.004008E-01
        13   4 -1.260307E+02 -4.780193E+00 -5.810434E-01  1.153607E+01  2.846031E-13 -6.616860E-01
        13   5  1.491962E+01 -9.063096E+00  5.810434E-01  1.153607E+01  9.304331E-14  5.004008E-01
        13   6 -1.260307E+02 -4.780193E+00 -5.810434E-01 -1.153607E+01 -1.423015E-13  6.616860E-01
        13   7  1.491962E+01 -9.063096E+00  5.810434E-01  1.153607E+01  1.269768E-13 -5.004008E-01
        13   8 -1.260307E+02 -4.780193E+00 -5.810434E-01 -1.153607E+01 -1.412069E-13 -6.616860E-01
        14   1 -5.548146E+00  6.310507E-01  2.237378E-01 -4.366722E-01 -1.692961E-01  4.041644E-01
        14   2 -2.060466E+00 -1.764169E+01  1.858441E-01  2.521631E+01  6.318218E-01  3.431461E-01
        14   3 -5.548146E+00  6.310507E-01  2.237378E-01 -4.366722E-01  1.692961E-01 -4.041644E-01
        14   4 -2.060466E+00 -1.764169E+01  1.858441E-01  2.521631E+01 -6.318218E-01 -3.431461E-01
        14   5  9.048355E-01  1.749514E+01 -1.413924E+00 -6.892601E+00 -1.898170E-01 -1.481734E+00
        14   6 -6.675988E+01  2.720207E+01  1.367613E+00  1.779303E+01  7.084069E-01 -1.380015E+00
        14   7  9.048355E-01  1.749514E+01 -1.413924E+00 -6.892601E+00  1.898170E-01  1.481734E+00
        14   8 -6.675988E+01  2.720207E+01  1.367613E+00  1.779303E+01 -7.084069E-01  1.380015E+00
