
                        S T E P       1


                                INCREMENT     1


 displacements (vx,vy,vz) for set N1 and time  0.1000000E+01

        14  1.000000E-02  0.000000E+00  0.000000E+00

 stresses (elem, integ.pnt.,sxx,syy,szz,sxy,sxz,syz) for set EALL and time  0.1000000E+01

         1   1  6.686006E-01  1.044885E+03  2.478308E+00 -7.634464E-01 -1.487083E-02  1.421765E+01 _shell_0000000001   
         1   2  3.328492E+00  1.049320E+03  8.032121E+00  5.036424E-01 -1.026641E-01  6.067225E+01 _shell_0000000001   
         1   3 -3.463302E-01  1.044886E+03 -9.641364E+00  1.770441E+00 -1.904567E-01  1.071268E+02 _shell_0000000001   
         1   4  6.629757E-01  1.044879E+03  2.468840E+00 -5.762674E-04  3.799037E-02  1.421713E+01 _shell_0000000001   
         1   5  3.316270E+00  1.049308E+03  8.004746E+00 -4.321482E-04  1.144570E-02  6.067177E+01 _shell_0000000001   
         1   6 -3.651585E-01  1.044868E+03 -9.686668E+00 -5.781624E-04 -1.509838E-02  1.071264E+02 _shell_0000000001   
         1   7  6.687155E-01  1.044885E+03  2.485891E+00  7.620037E-01  9.085157E-02  1.421748E+01 _shell_0000000001   
         1   8  3.328500E+00  1.049321E+03  8.034425E+00 -5.047968E-01  1.255555E-01  6.067216E+01 _shell_0000000001   
         1   9 -3.464474E-01  1.044887E+03 -9.644381E+00 -1.771888E+00  1.602599E-01  1.071268E+02 _shell_0000000001   
         1  10 -2.859956E+00  1.036634E+03 -1.055610E+00 -7.590075E-01  2.524542E-12  1.211807E-11 _shell_0000000001   
         1  11 -1.891929E-01  1.041073E+03  4.502862E+00  5.080835E-01  4.447473E-13 -9.352249E-13 _shell_0000000001   
         1  12 -3.853144E+00  1.036645E+03 -1.316596E+01  1.774884E+00 -2.670786E-12  2.666190E-11 _shell_0000000001   
         1  13 -2.865584E+00  1.036628E+03 -1.065081E+00  7.566009E-04  5.206617E-13  1.159313E-11 _shell_0000000001   
         1  14 -2.014183E-01  1.041061E+03  4.475483E+00  9.028519E-04  1.308504E-12 -6.681428E-12 _shell_0000000001   
         1  15 -3.871976E+00  1.036626E+03 -1.321127E+01  7.589696E-04 -1.302476E-13 -5.806821E-12 _shell_0000000001   
         1  16 -2.859847E+00  1.036634E+03 -1.048034E+00  7.602305E-01 -2.941510E-12 -2.235699E-12 _shell_0000000001   
         1  17 -1.891915E-01  1.041074E+03  4.505159E+00 -5.065679E-01 -9.221696E-14  3.015740E-12 _shell_0000000001   
         1  18 -3.853268E+00  1.036645E+03 -1.316899E+01 -1.773656E+00 -8.123376E-13  8.866623E-12 _shell_0000000001   
         1  19  6.686006E-01  1.044885E+03  2.478308E+00 -7.634464E-01  1.487083E-02 -1.421765E+01 _shell_0000000001   
         1  20  3.328492E+00  1.049320E+03  8.032121E+00  5.036424E-01  1.026641E-01 -6.067225E+01 _shell_0000000001   
         1  21 -3.463302E-01  1.044886E+03 -9.641364E+00  1.770441E+00  1.904567E-01 -1.071268E+02 _shell_0000000001   
         1  22  6.629757E-01  1.044879E+03  2.468840E+00 -5.762674E-04 -3.799037E-02 -1.421713E+01 _shell_0000000001   
         1  23  3.316270E+00  1.049308E+03  8.004746E+00 -4.321482E-04 -1.144570E-02 -6.067177E+01 _shell_0000000001   
         1  24 -3.651585E-01  1.044868E+03 -9.686668E+00 -5.781624E-04  1.509838E-02 -1.071264E+02 _shell_0000000001   
         1  25  6.687155E-01  1.044885E+03  2.485891E+00  7.620037E-01 -9.085157E-02 -1.421748E+01 _shell_0000000001   
         1  26  3.328500E+00  1.049321E+03  8.034425E+00 -5.047968E-01 -1.255555E-01 -6.067216E+01 _shell_0000000001   
         1  27 -3.464474E-01  1.044887E+03 -9.644381E+00 -1.771888E+00 -1.602599E-01 -1.071268E+02 _shell_0000000001   
         2   1 -3.463302E-01  1.044886E+03 -9.641364E+00 -1.770441E+00 -1.904567E-01 -1.071268E+02 _shell_0000000002   
         2   2  3.328492E+00  1.049320E+03  8.032121E+00 -5.036424E-01 -1.026641E-01 -6.067225E+01 _shell_0000000002   
         2   3  6.686006E-01  1.044885E+03  2.478308E+00  7.634464E-01 -1.487083E-02 -1.421765E+01 _shell_0000000002   
         2   4 -3.651585E-01  1.044868E+03 -9.686668E+00  5.781624E-04 -1.509838E-02 -1.071264E+02 _shell_0000000002   
         2   5  3.316270E+00  1.049308E+03  8.004746E+00  4.321482E-04  1.144570E-02 -6.067177E+01 _shell_0000000002   
         2   6  6.629757E-01  1.044879E+03  2.468840E+00  5.762674E-04  3.799037E-02 -1.421713E+01 _shell_0000000002   
         2   7 -3.464474E-01  1.044887E+03 -9.644381E+00  1.771888E+00  1.602599E-01 -1.071268E+02 _shell_0000000002   
         2   8  3.328500E+00  1.049321E+03  8.034425E+00  5.047968E-01  1.255555E-01 -6.067216E+01 _shell_0000000002   
         2   9  6.687155E-01  1.044885E+03  2.485891E+00 -7.620037E-01  9.085157E-02 -1.421748E+01 _shell_0000000002   
         2  10 -3.853144E+00  1.036645E+03 -1.316596E+01 -1.774884E+00 -5.655178E-13 -4.177147E-12 _shell_0000000002   
         2  11 -1.891929E-01  1.041073E+03  4.502862E+00 -5.080835E-01  8.505455E-13 -8.384277E-13 _shell_0000000002   
         2  12 -2.859956E+00  1.036634E+03 -1.055610E+00  7.590075E-01  1.191575E-12  3.885493E-12 _shell_0000000002   
         2  13 -3.871976E+00  1.036626E+03 -1.321127E+01 -7.589697E-04 -5.660362E-13 -2.893079E-12 _shell_0000000002   
         2  14 -2.014183E-01  1.041061E+03  4.475483E+00 -9.028519E-04 -4.189366E-13 -1.434488E-12 _shell_0000000002   
         2  15 -2.865584E+00  1.036628E+03 -1.065081E+00 -7.566009E-04  1.193310E-12 -1.053599E-11 _shell_0000000002   
         2  16 -3.853268E+00  1.036645E+03 -1.316899E+01  1.773656E+00  3.514109E-12 -9.996380E-12 _shell_0000000002   
         2  17 -1.891915E-01  1.041074E+03  4.505159E+00  5.065679E-01 -1.419993E-12  2.759752E-12 _shell_0000000002   
         2  18 -2.859847E+00  1.036634E+03 -1.048034E+00 -7.602305E-01 -2.314662E-12 -5.909744E-12 _shell_0000000002   
         2  19 -3.463302E-01  1.044886E+03 -9.641364E+00 -1.770441E+00  1.904567E-01  1.071268E+02 _shell_0000000002   
         2  20  3.328492E+00  1.049320E+03  8.032121E+00 -5.036424E-01  1.026641E-01  6.067225E+01 _shell_0000000002   
         2  21  6.686006E-01  1.044885E+03  2.478308E+00  7.634464E-01  1.487083E-02  1.421765E+01 _shell_0000000002   
         2  22 -3.651585E-01  1.044868E+03 -9.686668E+00  5.781624E-04  1.509838E-02  1.071264E+02 _shell_0000000002   
         2  23  3.316270E+00  1.049308E+03  8.004746E+00  4.321482E-04 -1.144570E-02  6.067177E+01 _shell_0000000002   
         2  24  6.629757E-01  1.044879E+03  2.468840E+00  5.762674E-04 -3.799037E-02  1.421713E+01 _shell_0000000002   
         2  25 -3.464474E-01  1.044887E+03 -9.644381E+00  1.771888E+00 -1.602599E-01  1.071268E+02 _shell_0000000002   
         2  26  3.328500E+00  1.049321E+03  8.034425E+00  5.047968E-01 -1.255555E-01  6.067216E+01 _shell_0000000002   
         2  27  6.687155E-01  1.044885E+03  2.485891E+00 -7.620037E-01 -9.085157E-02  1.421748E+01 _shell_0000000002   
