
                        S T E P       1


                                INCREMENT     1


 displacements (vx,vy,vz) for set N1 and time  0.1000000E+01

        14  1.000000E-02  0.000000E+00  0.000000E+00

 stresses (elem, integ.pnt.,sxx,syy,szz,sxy,sxz,syz) for set EALL and time  0.1000000E+01

         1   1 -1.328319E+01  1.067414E+03  8.297385E+01  2.231584E+01  1.479078E+00 -3.017152E-01
         1   2 -6.569354E+00  1.049042E+03  3.375273E+00  8.679527E+00  4.264239E-01 -1.173442E-01
         1   3  1.057060E+01  1.055643E+03 -3.403281E+00 -3.963224E+00 -1.060898E-01  5.359438E-02
         1   4 -2.463982E+01  1.041098E+03 -2.000815E+00  7.667964E+00  3.848882E-01 -1.036704E-01
         1   5 -5.700682E-01  1.049612E+03 -7.243589E-01  1.306179E+00  6.035197E-02 -1.765551E-02
         1   6  3.717770E+00  1.052891E+03  2.886704E+00 -4.062046E+00 -1.631494E-02  5.492682E-02
         1   7  2.359961E+00  1.053129E+03  2.488752E+00 -1.217809E+00  1.423714E-02  1.646722E-02
         1   8  9.786700E+00  1.054534E+03  5.325013E+00 -3.050685E-01 -6.176313E-02  4.125880E-03
         1   9 -9.076436E+00  1.044196E+03 -4.689361E+00  1.601232E+00  5.144829E-02 -2.164801E-02
         1  10 -1.330725E+01  1.067411E+03  8.298868E+01  2.231685E+01  5.601755E-13  5.605175E-13
         1  11 -6.586053E+00  1.049035E+03  3.370716E+00  8.680495E+00  2.798141E-13  0.000000E+00
         1  12  1.056749E+01  1.055641E+03 -3.408265E+00 -3.962210E+00  4.204053E-13  3.222651E-12
         1  13 -2.464846E+01  1.041096E+03 -1.998605E+00  7.668568E+00  6.841420E-17 -5.602439E-13
         1  14 -5.749332E-01  1.049610E+03 -7.264839E-01  1.306737E+00 -2.802246E-13  1.120898E-12
         1  15  3.717387E+00  1.052891E+03  2.886322E+00 -4.061442E+00  1.401807E-13 -1.681279E-12
         1  16  2.355858E+00  1.053127E+03  2.487027E+00 -1.217616E+00  1.403859E-13 -5.131065E-16
         1  17  9.784775E+00  1.054532E+03  5.323022E+00 -3.049208E-01 -2.101684E-13  0.000000E+00
         1  18 -9.076668E+00  1.044197E+03 -4.688314E+00  1.601425E+00 -1.400781E-13  2.801219E-13
         1  19 -1.328319E+01  1.067414E+03  8.297385E+01  2.231584E+01 -1.479078E+00  3.017152E-01
         1  20 -6.569354E+00  1.049042E+03  3.375273E+00  8.679527E+00 -4.264239E-01  1.173442E-01
         1  21  1.057060E+01  1.055643E+03 -3.403281E+00 -3.963224E+00  1.060898E-01 -5.359438E-02
         1  22 -2.463982E+01  1.041098E+03 -2.000815E+00  7.667964E+00 -3.848882E-01  1.036704E-01
         1  23 -5.700682E-01  1.049612E+03 -7.243589E-01  1.306179E+00 -6.035197E-02  1.765551E-02
         1  24  3.717770E+00  1.052891E+03  2.886704E+00 -4.062046E+00  1.631494E-02 -5.492682E-02
         1  25  2.359961E+00  1.053129E+03  2.488752E+00 -1.217809E+00 -1.423714E-02 -1.646722E-02
         1  26  9.786700E+00  1.054534E+03  5.325013E+00 -3.050685E-01  6.176313E-02 -4.125880E-03
         1  27 -9.076436E+00  1.044196E+03 -4.689361E+00  1.601232E+00 -5.144829E-02  2.164801E-02
         2   1  1.057060E+01  1.055643E+03 -3.403281E+00  3.963224E+00 -1.060898E-01 -5.359438E-02
         2   2 -6.569354E+00  1.049042E+03  3.375273E+00 -8.679527E+00  4.264239E-01  1.173442E-01
         2   3 -1.328319E+01  1.067414E+03  8.297385E+01 -2.231584E+01  1.479078E+00  3.017152E-01
         2   4  3.717770E+00  1.052891E+03  2.886704E+00  4.062046E+00 -1.631494E-02 -5.492682E-02
         2   5 -5.700682E-01  1.049612E+03 -7.243589E-01 -1.306179E+00  6.035197E-02  1.765551E-02
         2   6 -2.463982E+01  1.041098E+03 -2.000815E+00 -7.667964E+00  3.848882E-01  1.036704E-01
         2   7 -9.076436E+00  1.044196E+03 -4.689361E+00 -1.601232E+00  5.144829E-02  2.164801E-02
         2   8  9.786700E+00  1.054534E+03  5.325013E+00  3.050685E-01 -6.176313E-02 -4.125880E-03
         2   9  2.359961E+00  1.053129E+03  2.488752E+00  1.217809E+00  1.423714E-02 -1.646722E-02
         2  10  1.056749E+01  1.055641E+03 -3.408265E+00  3.962210E+00  5.607228E-13 -2.241796E-12
         2  11 -6.586053E+00  1.049035E+03  3.370716E+00 -8.680495E+00  8.402632E-13 -2.241796E-12
         2  12 -1.330725E+01  1.067411E+03  8.298868E+01 -2.231685E+01 -4.903588E-13  5.605175E-13
         2  13  3.717387E+00  1.052891E+03  2.886322E+00  4.061442E+00  0.000000E+00 -4.104852E-16
         2  14 -5.749332E-01  1.049610E+03 -7.264839E-01 -1.306737E+00  0.000000E+00  1.120898E-12
         2  15 -2.464846E+01  1.041096E+03 -1.998605E+00 -7.668568E+00 -2.101684E-13  1.368284E-16
         2  16 -9.076668E+00  1.044197E+03 -4.688314E+00 -1.601425E+00  0.000000E+00  2.052426E-16
         2  17  9.784775E+00  1.054532E+03  5.323022E+00  3.049208E-01 -6.305053E-13  0.000000E+00
         2  18  2.355858E+00  1.053127E+03  2.487027E+00  1.217616E+00 -1.750719E-13  1.400097E-13
         2  19  1.057060E+01  1.055643E+03 -3.403281E+00  3.963224E+00  1.060898E-01  5.359438E-02
         2  20 -6.569354E+00  1.049042E+03  3.375273E+00 -8.679527E+00 -4.264239E-01 -1.173442E-01
         2  21 -1.328319E+01  1.067414E+03  8.297385E+01 -2.231584E+01 -1.479078E+00 -3.017152E-01
         2  22  3.717770E+00  1.052891E+03  2.886704E+00  4.062046E+00  1.631494E-02  5.492682E-02
         2  23 -5.700682E-01  1.049612E+03 -7.243589E-01 -1.306179E+00 -6.035197E-02 -1.765551E-02
         2  24 -2.463982E+01  1.041098E+03 -2.000815E+00 -7.667964E+00 -3.848882E-01 -1.036704E-01
         2  25 -9.076436E+00  1.044196E+03 -4.689361E+00 -1.601232E+00 -5.144829E-02 -2.164801E-02
         2  26  9.786700E+00  1.054534E+03  5.325013E+00  3.050685E-01  6.176313E-02  4.125880E-03
         2  27  2.359961E+00  1.053129E+03  2.488752E+00  1.217809E+00 -1.423714E-02  1.646722E-02
