
                        S T E P       1


                                INCREMENT     1


 stresses (elem, integ.pnt.,sxx,syy,szz,sxy,sxz,syz) for set EALL and time  0.1000000E+01

         1   1 -1.056624E+01 -1.056624E+01 -1.056624E+01  0.000000E+00  0.000000E+00  0.000000E+00
         1   2 -1.056624E+01 -1.056624E+01 -1.056624E+01  0.000000E+00  0.000000E+00  0.000000E+00
         1   3 -3.943376E+01 -3.943376E+01 -3.943376E+01  0.000000E+00  0.000000E+00  0.000000E+00
         1   4 -3.943376E+01 -3.943376E+01 -3.943376E+01  0.000000E+00  0.000000E+00  0.000000E+00
         1   5 -1.056624E+01 -1.056624E+01 -1.056624E+01  0.000000E+00  0.000000E+00  0.000000E+00
         1   6 -1.056624E+01 -1.056624E+01 -1.056624E+01  0.000000E+00  0.000000E+00  0.000000E+00
         1   7 -3.943376E+01 -3.943376E+01 -3.943376E+01  0.000000E+00  0.000000E+00  0.000000E+00
         1   8 -3.943376E+01 -3.943376E+01 -3.943376E+01  0.000000E+00  0.000000E+00  0.000000E+00
         2   1 -1.056624E+01 -1.056624E+01 -1.056624E+01  0.000000E+00  0.000000E+00  0.000000E+00
         2   2 -1.056624E+01 -1.056624E+01 -1.056624E+01  0.000000E+00  0.000000E+00  0.000000E+00
         2   3 -3.943376E+01 -3.943376E+01 -3.943376E+01  0.000000E+00  0.000000E+00  0.000000E+00
         2   4 -3.943376E+01 -3.943376E+01 -3.943376E+01  0.000000E+00  0.000000E+00  0.000000E+00
         2   5 -1.056624E+01 -1.056624E+01 -1.056624E+01  0.000000E+00  0.000000E+00  0.000000E+00
         2   6 -1.056624E+01 -1.056624E+01 -1.056624E+01  0.000000E+00  0.000000E+00  0.000000E+00
         2   7 -3.943376E+01 -3.943376E+01 -3.943376E+01  0.000000E+00  0.000000E+00  0.000000E+00
         2   8 -3.943376E+01 -3.943376E+01 -3.943376E+01  0.000000E+00  0.000000E+00  0.000000E+00
         3   1 -6.056624E+01 -6.056624E+01 -6.056624E+01  0.000000E+00  0.000000E+00  0.000000E+00
         3   2 -6.056624E+01 -6.056624E+01 -6.056624E+01  0.000000E+00  0.000000E+00  0.000000E+00
         3   3 -8.943376E+01 -8.943376E+01 -8.943376E+01  0.000000E+00  0.000000E+00  0.000000E+00
         3   4 -8.943376E+01 -8.943376E+01 -8.943376E+01  0.000000E+00  0.000000E+00  0.000000E+00
         3   5 -6.056624E+01 -6.056624E+01 -6.056624E+01  0.000000E+00  0.000000E+00  0.000000E+00
         3   6 -6.056624E+01 -6.056624E+01 -6.056624E+01  0.000000E+00  0.000000E+00  0.000000E+00
         3   7 -8.943376E+01 -8.943376E+01 -8.943376E+01  0.000000E+00  0.000000E+00  0.000000E+00
         3   8 -8.943376E+01 -8.943376E+01 -8.943376E+01  0.000000E+00  0.000000E+00  0.000000E+00
         4   1 -6.056624E+01 -6.056624E+01 -6.056624E+01  0.000000E+00  0.000000E+00  0.000000E+00
         4   2 -6.056624E+01 -6.056624E+01 -6.056624E+01  0.000000E+00  0.000000E+00  0.000000E+00
         4   3 -8.943376E+01 -8.943376E+01 -8.943376E+01  0.000000E+00  0.000000E+00  0.000000E+00
         4   4 -8.943376E+01 -8.943376E+01 -8.943376E+01  0.000000E+00  0.000000E+00  0.000000E+00
         4   5 -6.056624E+01 -6.056624E+01 -6.056624E+01  0.000000E+00  0.000000E+00  0.000000E+00
         4   6 -6.056624E+01 -6.056624E+01 -6.056624E+01  0.000000E+00  0.000000E+00  0.000000E+00
         4   7 -8.943376E+01 -8.943376E+01 -8.943376E+01  0.000000E+00  0.000000E+00  0.000000E+00
         4   8 -8.943376E+01 -8.943376E+01 -8.943376E+01  0.000000E+00  0.000000E+00  0.000000E+00
         5   1 -1.056624E+01 -1.056624E+01 -1.056624E+01  0.000000E+00  0.000000E+00  0.000000E+00
         5   2 -1.056624E+01 -1.056624E+01 -1.056624E+01  0.000000E+00  0.000000E+00  0.000000E+00
         5   3 -3.943376E+01 -3.943376E+01 -3.943376E+01  0.000000E+00  0.000000E+00  0.000000E+00
         5   4 -3.943376E+01 -3.943376E+01 -3.943376E+01  0.000000E+00  0.000000E+00  0.000000E+00
         5   5 -1.056624E+01 -1.056624E+01 -1.056624E+01  0.000000E+00  0.000000E+00  0.000000E+00
         5   6 -1.056624E+01 -1.056624E+01 -1.056624E+01  0.000000E+00  0.000000E+00  0.000000E+00
         5   7 -3.943376E+01 -3.943376E+01 -3.943376E+01  0.000000E+00  0.000000E+00  0.000000E+00
         5   8 -3.943376E+01 -3.943376E+01 -3.943376E+01  0.000000E+00  0.000000E+00  0.000000E+00
         6   1 -1.056624E+01 -1.056624E+01 -1.056624E+01  0.000000E+00  0.000000E+00  0.000000E+00
         6   2 -1.056624E+01 -1.056624E+01 -1.056624E+01  0.000000E+00  0.000000E+00  0.000000E+00
         6   3 -3.943376E+01 -3.943376E+01 -3.943376E+01  0.000000E+00  0.000000E+00  0.000000E+00
         6   4 -3.943376E+01 -3.943376E+01 -3.943376E+01  0.000000E+00  0.000000E+00  0.000000E+00
         6   5 -1.056624E+01 -1.056624E+01 -1.056624E+01  0.000000E+00  0.000000E+00  0.000000E+00
         6   6 -1.056624E+01 -1.056624E+01 -1.056624E+01  0.000000E+00  0.000000E+00  0.000000E+00
         6   7 -3.943376E+01 -3.943376E+01 -3.943376E+01  0.000000E+00  0.000000E+00  0.000000E+00
         6   8 -3.943376E+01 -3.943376E+01 -3.943376E+01  0.000000E+00  0.000000E+00  0.000000E+00
         7   1 -6.056624E+01 -6.056624E+01 -6.056624E+01  0.000000E+00  0.000000E+00  0.000000E+00
         7   2 -6.056624E+01 -6.056624E+01 -6.056624E+01  0.000000E+00  0.000000E+00  0.000000E+00
         7   3 -8.943376E+01 -8.943376E+01 -8.943376E+01  0.000000E+00  0.000000E+00  0.000000E+00
         7   4 -8.943376E+01 -8.943376E+01 -8.943376E+01  0.000000E+00  0.000000E+00  0.000000E+00
         7   5 -6.056624E+01 -6.056624E+01 -6.056624E+01  0.000000E+00  0.000000E+00  0.000000E+00
         7   6 -6.056624E+01 -6.056624E+01 -6.056624E+01  0.000000E+00  0.000000E+00  0.000000E+00
         7   7 -8.943376E+01 -8.943376E+01 -8.943376E+01  0.000000E+00  0.000000E+00  0.000000E+00
         7   8 -8.943376E+01 -8.943376E+01 -8.943376E+01  0.000000E+00  0.000000E+00  0.000000E+00
         8   1 -6.056624E+01 -6.056624E+01 -6.056624E+01  0.000000E+00  0.000000E+00  0.000000E+00
         8   2 -6.056624E+01 -6.056624E+01 -6.056624E+01  0.000000E+00  0.000000E+00  0.000000E+00
         8   3 -8.943376E+01 -8.943376E+01 -8.943376E+01  0.000000E+00  0.000000E+00  0.000000E+00
         8   4 -8.943376E+01 -8.943376E+01 -8.943376E+01  0.000000E+00  0.000000E+00  0.000000E+00
         8   5 -6.056624E+01 -6.056624E+01 -6.056624E+01  0.000000E+00  0.000000E+00  0.000000E+00
         8   6 -6.056624E+01 -6.056624E+01 -6.056624E+01  0.000000E+00  0.000000E+00  0.000000E+00
         8   7 -8.943376E+01 -8.943376E+01 -8.943376E+01  0.000000E+00  0.000000E+00  0.000000E+00
         8   8 -8.943376E+01 -8.943376E+01 -8.943376E+01  0.000000E+00  0.000000E+00  0.000000E+00
         9   1 -1.056624E+01 -1.056624E+01 -1.056624E+01  0.000000E+00  0.000000E+00  0.000000E+00
         9   2 -1.056624E+01 -1.056624E+01 -1.056624E+01  0.000000E+00  0.000000E+00  0.000000E+00
         9   3 -3.943376E+01 -3.943376E+01 -3.943376E+01  0.000000E+00  0.000000E+00  0.000000E+00
         9   4 -3.943376E+01 -3.943376E+01 -3.943376E+01  0.000000E+00  0.000000E+00  0.000000E+00
         9   5 -1.056624E+01 -1.056624E+01 -1.056624E+01  0.000000E+00  0.000000E+00  0.000000E+00
         9   6 -1.056624E+01 -1.056624E+01 -1.056624E+01  0.000000E+00  0.000000E+00  0.000000E+00
         9   7 -3.943376E+01 -3.943376E+01 -3.943376E+01  0.000000E+00  0.000000E+00  0.000000E+00
         9   8 -3.943376E+01 -3.943376E+01 -3.943376E+01  0.000000E+00  0.000000E+00  0.000000E+00
        10   1 -1.056624E+01 -1.056624E+01 -1.056624E+01  0.000000E+00  0.000000E+00  0.000000E+00
        10   2 -1.056624E+01 -1.056624E+01 -1.056624E+01  0.000000E+00  0.000000E+00  0.000000E+00
        10   3 -3.943376E+01 -3.943376E+01 -3.943376E+01  0.000000E+00  0.000000E+00  0.000000E+00
        10   4 -3.943376E+01 -3.943376E+01 -3.943376E+01  0.000000E+00  0.000000E+00  0.000000E+00
        10   5 -1.056624E+01 -1.056624E+01 -1.056624E+01  0.000000E+00  0.000000E+00  0.000000E+00
        10   6 -1.056624E+01 -1.056624E+01 -1.056624E+01  0.000000E+00  0.000000E+00  0.000000E+00
        10   7 -3.943376E+01 -3.943376E+01 -3.943376E+01  0.000000E+00  0.000000E+00  0.000000E+00
        10   8 -3.943376E+01 -3.943376E+01 -3.943376E+01  0.000000E+00  0.000000E+00  0.000000E+00
        11   1 -6.056624E+01 -6.056624E+01 -6.056624E+01  0.000000E+00  0.000000E+00  0.000000E+00
        11   2 -6.056624E+01 -6.056624E+01 -6.056624E+01  0.000000E+00  0.000000E+00  0.000000E+00
        11   3 -8.943376E+01 -8.943376E+01 -8.943376E+01  0.000000E+00  0.000000E+00  0.000000E+00
        11   4 -8.943376E+01 -8.943376E+01 -8.943376E+01  0.000000E+00  0.000000E+00  0.000000E+00
        11   5 -6.056624E+01 -6.056624E+01 -6.056624E+01  0.000000E+00  0.000000E+00  0.000000E+00
        11   6 -6.056624E+01 -6.056624E+01 -6.056624E+01  0.000000E+00  0.000000E+00  0.000000E+00
        11   7 -8.943376E+01 -8.943376E+01 -8.943376E+01  0.000000E+00  0.000000E+00  0.000000E+00
        11   8 -8.943376E+01 -8.943376E+01 -8.943376E+01  0.000000E+00  0.000000E+00  0.000000E+00
        12   1 -6.056624E+01 -6.056624E+01 -6.056624E+01  0.000000E+00  0.000000E+00  0.000000E+00
        12   2 -6.056624E+01 -6.056624E+01 -6.056624E+01  0.000000E+00  0.000000E+00  0.000000E+00
        12   3 -8.943376E+01 -8.943376E+01 -8.943376E+01  0.000000E+00  0.000000E+00  0.000000E+00
        12   4 -8.943376E+01 -8.943376E+01 -8.943376E+01  0.000000E+00  0.000000E+00  0.000000E+00
        12   5 -6.056624E+01 -6.056624E+01 -6.056624E+01  0.000000E+00  0.000000E+00  0.000000E+00
        12   6 -6.056624E+01 -6.056624E+01 -6.056624E+01  0.000000E+00  0.000000E+00  0.000000E+00
        12   7 -8.943376E+01 -8.943376E+01 -8.943376E+01  0.000000E+00  0.000000E+00  0.000000E+00
        12   8 -8.943376E+01 -8.943376E+01 -8.943376E+01  0.000000E+00  0.000000E+00  0.000000E+00
        13   1 -1.056624E+01 -1.056624E+01 -1.056624E+01  0.000000E+00  0.000000E+00  0.000000E+00
        13   2 -1.056624E+01 -1.056624E+01 -1.056624E+01  0.000000E+00  0.000000E+00  0.000000E+00
        13   3 -3.943376E+01 -3.943376E+01 -3.943376E+01  0.000000E+00  0.000000E+00  0.000000E+00
        13   4 -3.943376E+01 -3.943376E+01 -3.943376E+01  0.000000E+00  0.000000E+00  0.000000E+00
        13   5 -1.056624E+01 -1.056624E+01 -1.056624E+01  0.000000E+00  0.000000E+00  0.000000E+00
        13   6 -1.056624E+01 -1.056624E+01 -1.056624E+01  0.000000E+00  0.000000E+00  0.000000E+00
        13   7 -3.943376E+01 -3.943376E+01 -3.943376E+01  0.000000E+00  0.000000E+00  0.000000E+00
        13   8 -3.943376E+01 -3.943376E+01 -3.943376E+01  0.000000E+00  0.000000E+00  0.000000E+00
        14   1 -1.056624E+01 -1.056624E+01 -1.056624E+01  0.000000E+00  0.000000E+00  0.000000E+00
        14   2 -1.056624E+01 -1.056624E+01 -1.056624E+01  0.000000E+00  0.000000E+00  0.000000E+00
        14   3 -3.943376E+01 -3.943376E+01 -3.943376E+01  0.000000E+00  0.000000E+00  0.000000E+00
        14   4 -3.943376E+01 -3.943376E+01 -3.943376E+01  0.000000E+00  0.000000E+00  0.000000E+00
        14   5 -1.056624E+01 -1.056624E+01 -1.056624E+01  0.000000E+00  0.000000E+00  0.000000E+00
        14   6 -1.056624E+01 -1.056624E+01 -1.056624E+01  0.000000E+00  0.000000E+00  0.000000E+00
        14   7 -3.943376E+01 -3.943376E+01 -3.943376E+01  0.000000E+00  0.000000E+00  0.000000E+00
        14   8 -3.943376E+01 -3.943376E+01 -3.943376E+01  0.000000E+00  0.000000E+00  0.000000E+00
        15   1 -6.056624E+01 -6.056624E+01 -6.056624E+01  0.000000E+00  0.000000E+00  0.000000E+00
        15   2 -6.056624E+01 -6.056624E+01 -6.056624E+01  0.000000E+00  0.000000E+00  0.000000E+00
        15   3 -8.943376E+01 -8.943376E+01 -8.943376E+01  0.000000E+00  0.000000E+00  0.000000E+00
        15   4 -8.943376E+01 -8.943376E+01 -8.943376E+01  0.000000E+00  0.000000E+00  0.000000E+00
        15   5 -6.056624E+01 -6.056624E+01 -6.056624E+01  0.000000E+00  0.000000E+00  0.000000E+00
        15   6 -6.056624E+01 -6.056624E+01 -6.056624E+01  0.000000E+00  0.000000E+00  0.000000E+00
        15   7 -8.943376E+01 -8.943376E+01 -8.943376E+01  0.000000E+00  0.000000E+00  0.000000E+00
        15   8 -8.943376E+01 -8.943376E+01 -8.943376E+01  0.000000E+00  0.000000E+00  0.000000E+00
        16   1 -6.056624E+01 -6.056624E+01 -6.056624E+01  0.000000E+00  0.000000E+00  0.000000E+00
        16   2 -6.056624E+01 -6.056624E+01 -6.056624E+01  0.000000E+00  0.000000E+00  0.000000E+00
        16   3 -8.943376E+01 -8.943376E+01 -8.943376E+01  0.000000E+00  0.000000E+00  0.000000E+00
        16   4 -8.943376E+01 -8.943376E+01 -8.943376E+01  0.000000E+00  0.000000E+00  0.000000E+00
        16   5 -6.056624E+01 -6.056624E+01 -6.056624E+01  0.000000E+00  0.000000E+00  0.000000E+00
        16   6 -6.056624E+01 -6.056624E+01 -6.056624E+01  0.000000E+00  0.000000E+00  0.000000E+00
        16   7 -8.943376E+01 -8.943376E+01 -8.943376E+01  0.000000E+00  0.000000E+00  0.000000E+00
        16   8 -8.943376E+01 -8.943376E+01 -8.943376E+01  0.000000E+00  0.000000E+00  0.000000E+00
        17   1 -1.056624E+01 -1.056624E+01 -1.056624E+01  0.000000E+00  0.000000E+00  0.000000E+00
        17   2 -1.056624E+01 -1.056624E+01 -1.056624E+01  0.000000E+00  0.000000E+00  0.000000E+00
        17   3 -3.943376E+01 -3.943376E+01 -3.943376E+01  0.000000E+00  0.000000E+00  0.000000E+00
        17   4 -3.943376E+01 -3.943376E+01 -3.943376E+01  0.000000E+00  0.000000E+00  0.000000E+00
        17   5 -1.056624E+01 -1.056624E+01 -1.056624E+01  0.000000E+00  0.000000E+00  0.000000E+00
        17   6 -1.056624E+01 -1.056624E+01 -1.056624E+01  0.000000E+00  0.000000E+00  0.000000E+00
        17   7 -3.943376E+01 -3.943376E+01 -3.943376E+01  0.000000E+00  0.000000E+00  0.000000E+00
        17   8 -3.943376E+01 -3.943376E+01 -3.943376E+01  0.000000E+00  0.000000E+00  0.000000E+00
        18   1 -1.056624E+01 -1.056624E+01 -1.056624E+01  0.000000E+00  0.000000E+00  0.000000E+00
        18   2 -1.056624E+01 -1.056624E+01 -1.056624E+01  0.000000E+00  0.000000E+00  0.000000E+00
        18   3 -3.943376E+01 -3.943376E+01 -3.943376E+01  0.000000E+00  0.000000E+00  0.000000E+00
        18   4 -3.943376E+01 -3.943376E+01 -3.943376E+01  0.000000E+00  0.000000E+00  0.000000E+00
        18   5 -1.056624E+01 -1.056624E+01 -1.056624E+01  0.000000E+00  0.000000E+00  0.000000E+00
        18   6 -1.056624E+01 -1.056624E+01 -1.056624E+01  0.000000E+00  0.000000E+00  0.000000E+00
        18   7 -3.943376E+01 -3.943376E+01 -3.943376E+01  0.000000E+00  0.000000E+00  0.000000E+00
        18   8 -3.943376E+01 -3.943376E+01 -3.943376E+01  0.000000E+00  0.000000E+00  0.000000E+00
        19   1 -6.056624E+01 -6.056624E+01 -6.056624E+01  0.000000E+00  0.000000E+00  0.000000E+00
        19   2 -6.056624E+01 -6.056624E+01 -6.056624E+01  0.000000E+00  0.000000E+00  0.000000E+00
        19   3 -8.943376E+01 -8.943376E+01 -8.943376E+01  0.000000E+00  0.000000E+00  0.000000E+00
        19   4 -8.943376E+01 -8.943376E+01 -8.943376E+01  0.000000E+00  0.000000E+00  0.000000E+00
        19   5 -6.056624E+01 -6.056624E+01 -6.056624E+01  0.000000E+00  0.000000E+00  0.000000E+00
        19   6 -6.056624E+01 -6.056624E+01 -6.056624E+01  0.000000E+00  0.000000E+00  0.000000E+00
        19   7 -8.943376E+01 -8.943376E+01 -8.943376E+01  0.000000E+00  0.000000E+00  0.000000E+00
        19   8 -8.943376E+01 -8.943376E+01 -8.943376E+01  0.000000E+00  0.000000E+00  0.000000E+00
        20   1 -6.056624E+01 -6.056624E+01 -6.056624E+01  0.000000E+00  0.000000E+00  0.000000E+00
        20   2 -6.056624E+01 -6.056624E+01 -6.056624E+01  0.000000E+00  0.000000E+00  0.000000E+00
        20   3 -8.943376E+01 -8.943376E+01 -8.943376E+01  0.000000E+00  0.000000E+00  0.000000E+00
        20   4 -8.943376E+01 -8.943376E+01 -8.943376E+01  0.000000E+00  0.000000E+00  0.000000E+00
        20   5 -6.056624E+01 -6.056624E+01 -6.056624E+01  0.000000E+00  0.000000E+00  0.000000E+00
        20   6 -6.056624E+01 -6.056624E+01 -6.056624E+01  0.000000E+00  0.000000E+00  0.000000E+00
        20   7 -8.943376E+01 -8.943376E+01 -8.943376E+01  0.000000E+00  0.000000E+00  0.000000E+00
        20   8 -8.943376E+01 -8.943376E+01 -8.943376E+01  0.000000E+00  0.000000E+00  0.000000E+00
        21   1 -1.056624E+01 -1.056624E+01 -1.056624E+01  0.000000E+00  0.000000E+00  0.000000E+00
        21   2 -1.056624E+01 -1.056624E+01 -1.056624E+01  0.000000E+00  0.000000E+00  0.000000E+00
        21   3 -3.943376E+01 -3.943376E+01 -3.943376E+01  0.000000E+00  0.000000E+00  0.000000E+00
        21   4 -3.943376E+01 -3.943376E+01 -3.943376E+01  0.000000E+00  0.000000E+00  0.000000E+00
        21   5 -1.056624E+01 -1.056624E+01 -1.056624E+01  0.000000E+00  0.000000E+00  0.000000E+00
        21   6 -1.056624E+01 -1.056624E+01 -1.056624E+01  0.000000E+00  0.000000E+00  0.000000E+00
        21   7 -3.943376E+01 -3.943376E+01 -3.943376E+01  0.000000E+00  0.000000E+00  0.000000E+00
        21   8 -3.943376E+01 -3.943376E+01 -3.943376E+01  0.000000E+00  0.000000E+00  0.000000E+00
        22   1 -1.056624E+01 -1.056624E+01 -1.056624E+01  0.000000E+00  0.000000E+00  0.000000E+00
        22   2 -1.056624E+01 -1.056624E+01 -1.056624E+01  0.000000E+00  0.000000E+00  0.000000E+00
        22   3 -3.943376E+01 -3.943376E+01 -3.943376E+01  0.000000E+00  0.000000E+00  0.000000E+00
        22   4 -3.943376E+01 -3.943376E+01 -3.943376E+01  0.000000E+00  0.000000E+00  0.000000E+00
        22   5 -1.056624E+01 -1.056624E+01 -1.056624E+01  0.000000E+00  0.000000E+00  0.000000E+00
        22   6 -1.056624E+01 -1.056624E+01 -1.056624E+01  0.000000E+00  0.000000E+00  0.000000E+00
        22   7 -3.943376E+01 -3.943376E+01 -3.943376E+01  0.000000E+00  0.000000E+00  0.000000E+00
        22   8 -3.943376E+01 -3.943376E+01 -3.943376E+01  0.000000E+00  0.000000E+00  0.000000E+00
        23   1 -6.056624E+01 -6.056624E+01 -6.056624E+01  0.000000E+00  0.000000E+00  0.000000E+00
        23   2 -6.056624E+01 -6.056624E+01 -6.056624E+01  0.000000E+00  0.000000E+00  0.000000E+00
        23   3 -8.943376E+01 -8.943376E+01 -8.943376E+01  0.000000E+00  0.000000E+00  0.000000E+00
        23   4 -8.943376E+01 -8.943376E+01 -8.943376E+01  0.000000E+00  0.000000E+00  0.000000E+00
        23   5 -6.056624E+01 -6.056624E+01 -6.056624E+01  0.000000E+00  0.000000E+00  0.000000E+00
        23   6 -6.056624E+01 -6.056624E+01 -6.056624E+01  0.000000E+00  0.000000E+00  0.000000E+00
        23   7 -8.943376E+01 -8.943376E+01 -8.943376E+01  0.000000E+00  0.000000E+00  0.000000E+00
        23   8 -8.943376E+01 -8.943376E+01 -8.943376E+01  0.000000E+00  0.000000E+00  0.000000E+00
        24   1 -6.056624E+01 -6.056624E+01 -6.056624E+01  0.000000E+00  0.000000E+00  0.000000E+00
        24   2 -6.056624E+01 -6.056624E+01 -6.056624E+01  0.000000E+00  0.000000E+00  0.000000E+00
        24   3 -8.943376E+01 -8.943376E+01 -8.943376E+01  0.000000E+00  0.000000E+00  0.000000E+00
        24   4 -8.943376E+01 -8.943376E+01 -8.943376E+01  0.000000E+00  0.000000E+00  0.000000E+00
        24   5 -6.056624E+01 -6.056624E+01 -6.056624E+01  0.000000E+00  0.000000E+00  0.000000E+00
        24   6 -6.056624E+01 -6.056624E+01 -6.056624E+01  0.000000E+00  0.000000E+00  0.000000E+00
        24   7 -8.943376E+01 -8.943376E+01 -8.943376E+01  0.000000E+00  0.000000E+00  0.000000E+00
        24   8 -8.943376E+01 -8.943376E+01 -8.943376E+01  0.000000E+00  0.000000E+00  0.000000E+00
        25   1 -1.056624E+01 -1.056624E+01 -1.056624E+01  0.000000E+00  0.000000E+00  0.000000E+00
        25   2 -1.056624E+01 -1.056624E+01 -1.056624E+01  0.000000E+00  0.000000E+00  0.000000E+00
        25   3 -3.943376E+01 -3.943376E+01 -3.943376E+01  0.000000E+00  0.000000E+00  0.000000E+00
        25   4 -3.943376E+01 -3.943376E+01 -3.943376E+01  0.000000E+00  0.000000E+00  0.000000E+00
        25   5 -1.056624E+01 -1.056624E+01 -1.056624E+01  0.000000E+00  0.000000E+00  0.000000E+00
        25   6 -1.056624E+01 -1.056624E+01 -1.056624E+01  0.000000E+00  0.000000E+00  0.000000E+00
        25   7 -3.943376E+01 -3.943376E+01 -3.943376E+01  0.000000E+00  0.000000E+00  0.000000E+00
        25   8 -3.943376E+01 -3.943376E+01 -3.943376E+01  0.000000E+00  0.000000E+00  0.000000E+00
        26   1 -1.056624E+01 -1.056624E+01 -1.056624E+01  0.000000E+00  0.000000E+00  0.000000E+00
        26   2 -1.056624E+01 -1.056624E+01 -1.056624E+01  0.000000E+00  0.000000E+00  0.000000E+00
        26   3 -3.943376E+01 -3.943376E+01 -3.943376E+01  0.000000E+00  0.000000E+00  0.000000E+00
        26   4 -3.943376E+01 -3.943376E+01 -3.943376E+01  0.000000E+00  0.000000E+00  0.000000E+00
        26   5 -1.056624E+01 -1.056624E+01 -1.056624E+01  0.000000E+00  0.000000E+00  0.000000E+00
        26   6 -1.056624E+01 -1.056624E+01 -1.056624E+01  0.000000E+00  0.000000E+00  0.000000E+00
        26   7 -3.943376E+01 -3.943376E+01 -3.943376E+01  0.000000E+00  0.000000E+00  0.000000E+00
        26   8 -3.943376E+01 -3.943376E+01 -3.943376E+01  0.000000E+00  0.000000E+00  0.000000E+00
        27   1 -6.056624E+01 -6.056624E+01 -6.056624E+01  0.000000E+00  0.000000E+00  0.000000E+00
        27   2 -6.056624E+01 -6.056624E+01 -6.056624E+01  0.000000E+00  0.000000E+00  0.000000E+00
        27   3 -8.943376E+01 -8.943376E+01 -8.943376E+01  0.000000E+00  0.000000E+00  0.000000E+00
        27   4 -8.943376E+01 -8.943376E+01 -8.943376E+01  0.000000E+00  0.000000E+00  0.000000E+00
        27   5 -6.056624E+01 -6.056624E+01 -6.056624E+01  0.000000E+00  0.000000E+00  0.000000E+00
        27   6 -6.056624E+01 -6.056624E+01 -6.056624E+01  0.000000E+00  0.000000E+00  0.000000E+00
        27   7 -8.943376E+01 -8.943376E+01 -8.943376E+01  0.000000E+00  0.000000E+00  0.000000E+00
        27   8 -8.943376E+01 -8.943376E+01 -8.943376E+01  0.000000E+00  0.000000E+00  0.000000E+00
        28   1 -6.056624E+01 -6.056624E+01 -6.056624E+01  0.000000E+00  0.000000E+00  0.000000E+00
        28   2 -6.056624E+01 -6.056624E+01 -6.056624E+01  0.000000E+00  0.000000E+00  0.000000E+00
        28   3 -8.943376E+01 -8.943376E+01 -8.943376E+01  0.000000E+00  0.000000E+00  0.000000E+00
        28   4 -8.943376E+01 -8.943376E+01 -8.943376E+01  0.000000E+00  0.000000E+00  0.000000E+00
        28   5 -6.056624E+01 -6.056624E+01 -6.056624E+01  0.000000E+00  0.000000E+00  0.000000E+00
        28   6 -6.056624E+01 -6.056624E+01 -6.056624E+01  0.000000E+00  0.000000E+00  0.000000E+00
        28   7 -8.943376E+01 -8.943376E+01 -8.943376E+01  0.000000E+00  0.000000E+00  0.000000E+00
        28   8 -8.943376E+01 -8.943376E+01 -8.943376E+01  0.000000E+00  0.000000E+00  0.000000E+00
        29   1 -1.056624E+01 -1.056624E+01 -1.056624E+01  0.000000E+00  0.000000E+00  0.000000E+00
        29   2 -1.056624E+01 -1.056624E+01 -1.056624E+01  0.000000E+00  0.000000E+00  0.000000E+00
        29   3 -3.943376E+01 -3.943376E+01 -3.943376E+01  0.000000E+00  0.000000E+00  0.000000E+00
        29   4 -3.943376E+01 -3.943376E+01 -3.943376E+01  0.000000E+00  0.000000E+00  0.000000E+00
        29   5 -1.056624E+01 -1.056624E+01 -1.056624E+01  0.000000E+00  0.000000E+00  0.000000E+00
        29   6 -1.056624E+01 -1.056624E+01 -1.056624E+01  0.000000E+00  0.000000E+00  0.000000E+00
        29   7 -3.943376E+01 -3.943376E+01 -3.943376E+01  0.000000E+00  0.000000E+00  0.000000E+00
        29   8 -3.943376E+01 -3.943376E+01 -3.943376E+01  0.000000E+00  0.000000E+00  0.000000E+00
        30   1 -1.056624E+01 -1.056624E+01 -1.056624E+01  0.000000E+00  0.000000E+00  0.000000E+00
        30   2 -1.056624E+01 -1.056624E+01 -1.056624E+01  0.000000E+00  0.000000E+00  0.000000E+00
        30   3 -3.943376E+01 -3.943376E+01 -3.943376E+01  0.000000E+00  0.000000E+00  0.000000E+00
        30   4 -3.943376E+01 -3.943376E+01 -3.943376E+01  0.000000E+00  0.000000E+00  0.000000E+00
        30   5 -1.056624E+01 -1.056624E+01 -1.056624E+01  0.000000E+00  0.000000E+00  0.000000E+00
        30   6 -1.056624E+01 -1.056624E+01 -1.056624E+01  0.000000E+00  0.000000E+00  0.000000E+00
        30   7 -3.943376E+01 -3.943376E+01 -3.943376E+01  0.000000E+00  0.000000E+00  0.000000E+00
        30   8 -3.943376E+01 -3.943376E+01 -3.943376E+01  0.000000E+00  0.000000E+00  0.000000E+00
        31   1 -6.056624E+01 -6.056624E+01 -6.056624E+01  0.000000E+00  0.000000E+00  0.000000E+00
        31   2 -6.056624E+01 -6.056624E+01 -6.056624E+01  0.000000E+00  0.000000E+00  0.000000E+00
        31   3 -8.943376E+01 -8.943376E+01 -8.943376E+01  0.000000E+00  0.000000E+00  0.000000E+00
        31   4 -8.943376E+01 -8.943376E+01 -8.943376E+01  0.000000E+00  0.000000E+00  0.000000E+00
        31   5 -6.056624E+01 -6.056624E+01 -6.056624E+01  0.000000E+00  0.000000E+00  0.000000E+00
        31   6 -6.056624E+01 -6.056624E+01 -6.056624E+01  0.000000E+00  0.000000E+00  0.000000E+00
        31   7 -8.943376E+01 -8.943376E+01 -8.943376E+01  0.000000E+00  0.000000E+00  0.000000E+00
        31   8 -8.943376E+01 -8.943376E+01 -8.943376E+01  0.000000E+00  0.000000E+00  0.000000E+00
        32   1 -6.056624E+01 -6.056624E+01 -6.056624E+01  0.000000E+00  0.000000E+00  0.000000E+00
        32   2 -6.056624E+01 -6.056624E+01 -6.056624E+01  0.000000E+00  0.000000E+00  0.000000E+00
        32   3 -8.943376E+01 -8.943376E+01 -8.943376E+01  0.000000E+00  0.000000E+00  0.000000E+00
        32   4 -8.943376E+01 -8.943376E+01 -8.943376E+01  0.000000E+00  0.000000E+00  0.000000E+00
        32   5 -6.056624E+01 -6.056624E+01 -6.056624E+01  0.000000E+00  0.000000E+00  0.000000E+00
        32   6 -6.056624E+01 -6.056624E+01 -6.056624E+01  0.000000E+00  0.000000E+00  0.000000E+00
        32   7 -8.943376E+01 -8.943376E+01 -8.943376E+01  0.000000E+00  0.000000E+00  0.000000E+00
        32   8 -8.943376E+01 -8.943376E+01 -8.943376E+01  0.000000E+00  0.000000E+00  0.000000E+00
