
                        S T E P       1


                                INCREMENT     1


 displacements (vx,vy,vz) for set NALL and time  0.1000000E+01

         1  3.940849E-03  5.048185E-04  0.000000E+00
         2  3.940849E-03 -5.048185E-04  0.000000E+00
         3  4.921752E-03 -5.047821E-04  0.000000E+00
         4  4.921752E-03  5.047821E-04  0.000000E+00
         5  3.940283E-03  0.000000E+00  0.000000E+00
         6  4.437523E-03 -5.045318E-04  0.000000E+00
         7  4.921400E-03 -2.341394E-16  0.000000E+00
         8  4.437523E-03  5.045318E-04  0.000000E+00
         9  4.913019E-03 -6.244349E-05  0.000000E+00
        10  4.913019E-03  6.244349E-05  0.000000E+00
        11  4.762780E-03  6.245425E-05  0.000000E+00
        12  4.762780E-03 -6.245425E-05  0.000000E+00
        13  4.912666E-03 -6.691308E-17  0.000000E+00
        14  4.830651E-03  6.219801E-05  0.000000E+00
        15  4.762145E-03  0.000000E+00  0.000000E+00
        16  4.830651E-03 -6.219801E-05  0.000000E+00

 stresses (elem, integ.pnt.,sxx,syy,szz,sxy,sxz,syz) for set EALL and time  0.1000000E+01

         1   1 -1.284411E+01 -3.406228E-01 -9.331250E+02 -2.167233E-01 -1.244713E+01  2.929691E-03
         1   2 -1.232359E+01 -1.232463E-01 -9.329211E+02 -1.854296E-12 -1.245133E+01 -1.644645E-13
         1   3 -1.284411E+01 -3.406228E-01 -9.331250E+02  2.167233E-01 -1.244713E+01 -2.929691E-03
         1   4 -4.500783E+01  1.980054E-01 -8.975028E+02 -1.211474E-03 -1.153473E+01  1.635690E-05
         1   5 -4.447782E+01  4.252135E-01 -8.972772E+02  1.535584E-12 -1.153884E+01 -4.606055E-14
         1   6 -4.500783E+01  1.980054E-01 -8.975028E+02  1.211474E-03 -1.153473E+01 -1.635690E-05
         1   7 -7.925076E+01 -3.388392E-01 -8.677356E+02  2.139108E-01 -1.066482E+01 -2.891711E-03
         1   8 -7.871342E+01 -1.039611E-01 -8.674913E+02 -3.466630E-13 -1.066885E+01 -5.294772E-13
         1   9 -7.925076E+01 -3.388392E-01 -8.677356E+02 -2.139108E-01 -1.066482E+01  2.891711E-03
         1  10 -1.268143E+01 -3.431998E-01 -9.332958E+02 -2.167727E-01 -5.491111E-13 -2.156368E-15
         1  11 -1.216016E+01 -1.251067E-01 -9.330913E+02 -1.452690E-12 -5.577430E-13  3.043130E-29
         1  12 -1.268143E+01 -3.431998E-01 -9.332958E+02  2.167727E-01 -7.463982E-13  6.438198E-14
         1  13 -4.485128E+01  1.985373E-01 -8.976582E+02 -1.213547E-03 -2.196988E-12  1.158009E-13
         1  14 -4.432131E+01  4.256650E-01 -8.974327E+02  2.041804E-12  1.094185E-12  3.780960E-29
         1  15 -4.485128E+01  1.985373E-01 -8.976582E+02  1.213547E-03  1.787209E-12 -3.866470E-14
         1  16 -7.910153E+01 -3.368534E-01 -8.678778E+02  2.139561E-01  5.665902E-13  2.375753E-14
         1  17 -7.856344E+01 -1.012555E-01 -8.676328E+02 -9.574454E-13  1.107308E-12 -3.289324E-29
         1  18 -7.910153E+01 -3.368534E-01 -8.678778E+02 -2.139561E-01  9.462470E-13 -2.162057E-15
         1  19 -1.284411E+01 -3.406228E-01 -9.331250E+02 -2.167233E-01  1.244713E+01 -2.929691E-03
         1  20 -1.232359E+01 -1.232463E-01 -9.329211E+02 -2.133702E-12  1.245133E+01  1.628028E-13
         1  21 -1.284411E+01 -3.406228E-01 -9.331250E+02  2.167233E-01  1.244713E+01  2.929691E-03
         1  22 -4.500783E+01  1.980054E-01 -8.975028E+02 -1.211474E-03  1.153473E+01 -1.635690E-05
         1  23 -4.447782E+01  4.252135E-01 -8.972772E+02  1.937066E-12  1.153884E+01  4.395817E-14
         1  24 -4.500783E+01  1.980054E-01 -8.975028E+02  1.211474E-03  1.153473E+01  1.635690E-05
         1  25 -7.925076E+01 -3.388392E-01 -8.677356E+02  2.139108E-01  1.066482E+01  2.891711E-03
         1  26 -7.871342E+01 -1.039611E-01 -8.674913E+02 -3.815424E-13  1.066885E+01  5.337895E-13
         1  27 -7.925076E+01 -3.388392E-01 -8.677356E+02 -2.139108E-01  1.066482E+01 -2.891711E-03
         2   1 -7.431017E+01  3.143495E-01  9.552159E+02  1.976944E-01  1.392422E+01 -2.672452E-03
         2   2 -7.480271E+01  1.073608E-01  9.550186E+02  1.965116E-13  1.392814E+01  4.308739E-14
         2   3 -7.431017E+01  3.143495E-01  9.552159E+02 -1.976944E-01  1.392422E+01  2.672452E-03
         2   4 -4.170237E+01 -1.786366E-01  9.180554E+02  7.894341E-04  1.298480E+01 -1.068057E-05
         2   5 -4.220316E+01 -3.935426E-01  9.178394E+02  7.781365E-13  1.298866E+01 -2.623664E-14
         2   6 -4.170237E+01 -1.786366E-01  9.180554E+02 -7.894341E-04  1.298480E+01  1.068057E-05
         2   7 -7.106291E+00  3.141282E-01  8.865288E+02 -1.964826E-01  1.208655E+01  2.656054E-03
         2   8 -7.614796E+00  9.183882E-02  8.862954E+02 -2.638661E-13  1.209034E+01  9.241157E-14
         2   9 -7.106291E+00  3.141282E-01  8.865288E+02  1.964826E-01  1.208655E+01 -2.656054E-03
         2  10 -7.449311E+01  3.166121E-01  9.554064E+02  1.977379E-01 -5.667865E-13 -6.559091E-15
         2  11 -7.498566E+01  1.096445E-01  9.552091E+02  2.226104E-13  8.853773E-13  2.626633E-29
         2  12 -7.449311E+01  3.166121E-01  9.554064E+02 -1.977379E-01  7.304838E-14 -1.100293E-14
         2  13 -4.187812E+01 -1.787597E-01  9.182308E+02  7.888230E-04 -2.266588E-12  1.331245E-14
         2  14 -4.237892E+01 -3.936460E-01  9.180148E+02  2.253369E-13  1.133289E-12  3.150407E-30
         2  15 -4.187812E+01 -1.787597E-01  9.182308E+02 -7.888230E-04 -2.833235E-13  6.569250E-15
         2  16 -7.275136E+00  3.117818E-01  8.866898E+02 -1.965274E-01 -8.177236E-21 -6.603889E-15
         2  17 -7.783649E+00  8.951064E-02  8.864564E+02  2.891436E-13  8.762321E-13  2.065493E-29
         2  18 -7.275136E+00  3.117818E-01  8.866898E+02  1.965274E-01  4.293141E-13  1.059733E-15
         2  19 -7.431017E+01  3.143495E-01  9.552159E+02  1.976944E-01 -1.392422E+01  2.672452E-03
         2  20 -7.480271E+01  1.073608E-01  9.550186E+02  1.965112E-13 -1.392814E+01 -4.033348E-14
         2  21 -7.431017E+01  3.143495E-01  9.552159E+02 -1.976944E-01 -1.392422E+01 -2.672452E-03
         2  22 -4.170237E+01 -1.786366E-01  9.180554E+02  7.894341E-04 -1.298480E+01  1.068057E-05
         2  23 -4.220316E+01 -3.935426E-01  9.178394E+02  1.056715E-12 -1.298866E+01  2.619200E-14
         2  24 -4.170237E+01 -1.786366E-01  9.180554E+02 -7.894341E-04 -1.298480E+01 -1.068057E-05
         2  25 -7.106291E+00  3.141282E-01  8.865288E+02 -1.964826E-01 -1.208655E+01 -2.656054E-03
         2  26 -7.614796E+00  9.183882E-02  8.862954E+02 -5.469128E-13 -1.209034E+01 -9.732194E-14
         2  27 -7.106291E+00  3.141282E-01  8.865288E+02  1.964826E-01 -1.208655E+01  2.656054E-03
