
                        S T E P       1


                                INCREMENT     1


 displacements (vx,vy,vz) for set NALL and time  0.1000000E+01

         1 -4.734981E-05  7.496394E-07  0.000000E+00
         2 -4.734981E-05 -7.496394E-07  0.000000E+00
         3 -4.616549E-05 -7.494678E-07  0.000000E+00
         4 -4.616549E-05  7.494678E-07  0.000000E+00
         5 -4.734676E-05  0.000000E+00  0.000000E+00
         6 -4.667968E-05 -7.465992E-07  0.000000E+00
         7 -4.615912E-05 -1.856255E-17  0.000000E+00
         8 -4.667968E-05  7.465992E-07  0.000000E+00
         9  5.373454E-05 -6.814448E-07  0.000000E+00
        10  5.373454E-05  6.814448E-07  0.000000E+00
        11  5.209715E-05  6.813063E-07  0.000000E+00
        12  5.209715E-05 -6.813063E-07  0.000000E+00
        13  5.373072E-05  5.716696E-18  0.000000E+00
        14  5.283721E-05  6.786670E-07  0.000000E+00
        15  5.209029E-05  0.000000E+00  0.000000E+00
        16  5.283721E-05 -6.786670E-07  0.000000E+00

 stresses (elem, integ.pnt.,sxx,syy,szz,sxy,sxz,syz) for set EALL and time  0.1000000E+01

         1   1 -1.417252E-01 -3.771054E-03 -1.034826E+01 -2.395133E-03 -1.380474E-01  3.237771E-05
         1   2 -1.359782E-01 -1.367160E-03 -1.034599E+01  3.027057E-14 -1.380935E-01 -1.107557E-15
         1   3 -1.417252E-01 -3.771054E-03 -1.034826E+01  2.395133E-03 -1.380474E-01 -3.237771E-05
         1   4 -4.961995E-01  2.196194E-03 -9.948238E+00 -1.171502E-05 -1.278921E-01  1.582840E-07
         1   5 -4.903515E-01  4.701205E-03 -9.945736E+00 -1.909421E-14 -1.279373E-01  3.072512E-16
         1   6 -4.961995E-01  2.196194E-03 -9.948238E+00  1.171502E-05 -1.278921E-01 -1.582840E-07
         1   7 -8.740468E-01 -3.753730E-03 -9.614189E+00  2.371655E-03 -1.182170E-01 -3.206050E-05
         1   8 -8.681052E-01 -1.155142E-03 -9.611469E+00  1.949287E-14 -1.182613E-01 -8.989512E-16
         1   9 -8.740468E-01 -3.753730E-03 -9.614189E+00 -2.371655E-03 -1.182170E-01  3.206050E-05
         1  10 -1.399167E-01 -3.795669E-03 -1.035015E+01 -2.395666E-03 -1.368194E-16  5.130742E-17
         1  11 -1.341696E-01 -1.392023E-03 -1.034788E+01  1.916967E-14 -4.309534E-15 -1.388193E-32
         1  12 -1.399167E-01 -3.795669E-03 -1.035015E+01  2.395666E-03 -1.060281E-15 -1.197107E-16
         1  13 -4.944681E-01  2.197662E-03 -9.949964E+00 -1.172483E-05  2.130789E-25  2.052306E-16
         1  14 -4.886200E-01  4.702443E-03 -9.947463E+00 -2.266906E-14  0.000000E+00  0.000000E+00
         1  15 -4.944681E-01  2.197662E-03 -9.949964E+00  1.172483E-05 -1.710239E-17 -6.840177E-17
         1  16 -8.723893E-01 -3.728124E-03 -9.615761E+00  2.372169E-03 -4.377964E-15 -5.130800E-17
         1  17 -8.664476E-01 -1.129749E-03 -9.613042E+00  2.252037E-14 -1.758027E-14  7.635833E-33
         1  18 -8.723893E-01 -3.728124E-03 -9.615761E+00 -2.372169E-03 -6.584048E-15  7.696047E-17
         1  19 -1.417252E-01 -3.771054E-03 -1.034826E+01 -2.395133E-03  1.380474E-01 -3.237771E-05
         1  20 -1.359782E-01 -1.367160E-03 -1.034599E+01  3.025346E-14  1.380935E-01  1.094730E-15
         1  21 -1.417252E-01 -3.771054E-03 -1.034826E+01  2.395133E-03  1.380474E-01  3.237771E-05
         1  22 -4.961995E-01  2.196194E-03 -9.948238E+00 -1.171502E-05  1.278921E-01 -1.582840E-07
         1  23 -4.903515E-01  4.701205E-03 -9.945736E+00 -2.018890E-14  1.279373E-01 -6.150820E-16
         1  24 -4.961995E-01  2.196194E-03 -9.948238E+00  1.171502E-05  1.278921E-01  1.582840E-07
         1  25 -8.740468E-01 -3.753730E-03 -9.614189E+00  2.371655E-03  1.182170E-01  3.206050E-05
         1  26 -8.681052E-01 -1.155142E-03 -9.611469E+00  1.949287E-14  1.182613E-01  8.903999E-16
         1  27 -8.740468E-01 -3.753730E-03 -9.614189E+00 -2.371655E-03  1.182170E-01 -3.206050E-05
         2   1 -8.104041E-01  3.415212E-03  1.034747E+01  2.146769E-03  1.509085E-01 -2.902018E-05
         2   2 -8.157593E-01  1.169734E-03  1.034534E+01  2.047631E-14  1.509513E-01  1.537127E-16
         2   3 -8.104041E-01  3.415212E-03  1.034747E+01 -2.146769E-03  1.509085E-01  2.902018E-05
         2   4 -4.545989E-01 -1.935306E-03  9.950220E+00  7.227942E-06  1.407686E-01 -9.763717E-08
         2   5 -4.600393E-01 -4.265994E-03  9.947892E+00  3.953532E-13  1.408107E-01 -5.336140E-15
         2   6 -4.545989E-01 -1.935306E-03  9.950220E+00 -7.227942E-06  1.407686E-01  9.763717E-08
         2   7 -7.758617E-02  3.412456E-03  9.612947E+00 -2.132356E-03  1.310656E-01  2.882549E-05
         2   8 -8.310608E-02  1.002354E-03  9.610433E+00  4.821463E-14  1.311069E-01  1.454802E-16
         2   9 -7.758617E-02  3.412456E-03  9.612947E+00  2.132356E-03  1.310656E-01 -2.882549E-05
         2  10 -8.123864E-01  3.439891E-03  1.034953E+01  2.147257E-03  1.713502E-24 -3.420990E-16
         2  11 -8.177416E-01  1.194641E-03  1.034740E+01  2.899329E-14  2.210049E-14 -3.032875E-33
         2  12 -8.123864E-01  3.439891E-03  1.034953E+01 -2.147257E-03  1.657537E-14  2.223720E-16
         2  13 -4.565041E-01 -1.936639E-03  9.952121E+00  7.235857E-06 -1.222382E-25  1.368372E-16
         2  14 -4.619447E-01 -4.267113E-03  9.949793E+00  3.916591E-13  8.758071E-15  4.246720E-32
         2  15 -4.565041E-01 -1.936639E-03  9.952121E+00 -7.235857E-06  2.189518E-15 -1.026300E-16
         2  16 -7.941742E-02  3.386881E-03  9.614693E+00 -2.132828E-03 -4.105355E-15  1.710459E-16
         2  17 -8.493742E-02  9.769788E-04  9.612180E+00  5.001040E-14 -1.368364E-16  8.250013E-33
         2  18 -7.941742E-02  3.386881E-03  9.614693E+00  2.132828E-03  6.397496E-15  1.282830E-16
         2  19 -8.104041E-01  3.415212E-03  1.034747E+01  2.146769E-03 -1.509085E-01  2.902018E-05
         2  20 -8.157593E-01  1.169734E-03  1.034534E+01  2.042500E-14 -1.509513E-01 -1.366079E-16
         2  21 -8.104041E-01  3.415212E-03  1.034747E+01 -2.146769E-03 -1.509085E-01 -2.902018E-05
         2  22 -4.545989E-01 -1.935306E-03  9.950220E+00  7.227942E-06 -1.407686E-01  9.763717E-08
         2  23 -4.600393E-01 -4.265994E-03  9.947892E+00  3.953532E-13 -1.408107E-01  5.336140E-15
         2  24 -4.545989E-01 -1.935306E-03  9.950220E+00 -7.227942E-06 -1.407686E-01 -9.763717E-08
         2  25 -7.758617E-02  3.412456E-03  9.612947E+00 -2.132356E-03 -1.310656E-01 -2.882549E-05
         2  26 -8.310608E-02  1.002354E-03  9.610433E+00  4.824884E-14 -1.311069E-01 -1.027188E-16
         2  27 -7.758617E-02  3.412456E-03  9.612947E+00  2.132356E-03 -1.310656E-01  2.882549E-05
