
                        S T E P       1


                                INCREMENT     1


 displacements (vx,vy,vz) for set NALL and time  0.1000000E+01

         1  3.940925E-03  5.048166E-04  0.000000E+00
         2  3.940925E-03 -5.048166E-04  0.000000E+00
         3  4.921826E-03 -5.047803E-04  0.000000E+00
         4  4.921826E-03  5.047803E-04  0.000000E+00
         5  3.940359E-03  0.000000E+00  0.000000E+00
         6  4.437598E-03 -5.045301E-04  0.000000E+00
         7  4.921474E-03 -8.821394E-17  0.000000E+00
         8  4.437598E-03  5.045301E-04  0.000000E+00
         9  4.913092E-03 -6.244555E-05  0.000000E+00
        10  4.913092E-03  6.244555E-05  0.000000E+00
        11  4.762846E-03  6.245650E-05  0.000000E+00
        12  4.762846E-03 -6.245650E-05  0.000000E+00
        13  4.912739E-03 -2.624988E-18  0.000000E+00
        14  4.830720E-03  6.220014E-05  0.000000E+00
        15  4.762211E-03  0.000000E+00  0.000000E+00
        16  4.830720E-03 -6.220014E-05  0.000000E+00

 stresses (elem, integ.pnt.,sxx,syy,szz,sxy,sxz,syz) for set EALL and time  0.1000000E+01

         1   1 -1.283437E+01 -3.314894E-01 -9.330852E+02 -2.166897E-01 -1.244673E+01  2.929238E-03
         1   2 -1.231409E+01 -1.142161E-01 -9.328814E+02 -6.058281E-13 -1.245092E+01 -4.413808E-13
         1   3 -1.283437E+01 -3.314894E-01 -9.330852E+02  2.166897E-01 -1.244673E+01 -2.929238E-03
         1   4 -4.499678E+01  2.072980E-01 -8.974652E+02 -1.172560E-03 -1.153437E+01  1.583083E-05
         1   5 -4.446702E+01  4.343976E-01 -8.972397E+02 -6.090393E-13 -1.153848E+01  2.455789E-14
         1   6 -4.499678E+01  2.072980E-01 -8.974652E+02  1.172560E-03 -1.153437E+01 -1.583084E-05
         1   7 -7.923827E+01 -3.295954E-01 -8.676997E+02  2.139563E-01 -1.066450E+01 -2.892326E-03
         1   8 -7.870119E+01 -9.483069E-02 -8.674555E+02  1.034308E-13 -1.066853E+01 -6.723258E-13
         1   9 -7.923827E+01 -3.295954E-01 -8.676997E+02 -2.139563E-01 -1.066450E+01  2.892326E-03
         1  10 -1.267169E+01 -3.340662E-01 -9.332560E+02 -2.167392E-01 -1.725837E-14  5.138832E-14
         1  11 -1.215067E+01 -1.160764E-01 -9.330516E+02 -4.836792E-13  2.205109E-12 -3.870351E-30
         1  12 -1.267169E+01 -3.340662E-01 -9.332560E+02  2.167392E-01  2.594580E-13  2.142891E-14
         1  13 -4.484023E+01  2.078299E-01 -8.976205E+02 -1.174626E-03 -2.148338E-21 -8.634796E-15
         1  14 -4.431052E+01  4.348491E-01 -8.973952E+02 -6.090357E-13  0.000000E+00  0.000000E+00
         1  15 -4.484023E+01  2.078299E-01 -8.976205E+02  1.174626E-03 -6.887223E-13 -6.025200E-14
         1  16 -7.908905E+01 -3.276097E-01 -8.678418E+02  2.140016E-01  1.725113E-14  4.319257E-15
         1  17 -7.855122E+01 -9.212525E-02 -8.675970E+02 -2.456433E-13  2.197383E-12  9.930317E-30
         1  18 -7.908905E+01 -3.276097E-01 -8.678418E+02 -2.140016E-01  1.517162E-12 -1.291508E-14
         1  19 -1.283437E+01 -3.314894E-01 -9.330852E+02 -2.166897E-01  1.244673E+01 -2.929238E-03
         1  20 -1.231409E+01 -1.142161E-01 -9.328814E+02 -4.661240E-13  1.245092E+01  4.419420E-13
         1  21 -1.283437E+01 -3.314894E-01 -9.330852E+02  2.166897E-01  1.244673E+01  2.929238E-03
         1  22 -4.499678E+01  2.072980E-01 -8.974652E+02 -1.172560E-03  1.153437E+01 -1.583084E-05
         1  23 -4.446702E+01  4.343976E-01 -8.972397E+02 -7.312341E-13  1.153848E+01 -2.565363E-14
         1  24 -4.499678E+01  2.072980E-01 -8.974652E+02  1.172560E-03  1.153437E+01  1.583084E-05
         1  25 -7.923827E+01 -3.295954E-01 -8.676997E+02  2.139563E-01  1.066450E+01  2.892326E-03
         1  26 -7.870119E+01 -9.483069E-02 -8.674555E+02  3.477266E-13  1.066853E+01  6.664173E-13
         1  27 -7.923827E+01 -3.295954E-01 -8.676997E+02 -2.139563E-01  1.066450E+01 -2.892326E-03
         2   1 -7.433051E+01  3.008274E-01  9.552203E+02  1.977329E-01  1.392455E+01 -2.672972E-03
         2   2 -7.482310E+01  9.382149E-02  9.550229E+02 -3.382712E-13  1.392847E+01  3.596862E-14
         2   3 -7.433051E+01  3.008274E-01  9.552203E+02 -1.977329E-01  1.392455E+01  2.672972E-03
         2   4 -4.171843E+01 -1.909410E-01  9.180604E+02  7.971271E-04  1.298509E+01 -1.078471E-05
         2   5 -4.221926E+01 -4.058646E-01  9.178443E+02  1.135525E-12  1.298894E+01 -1.949109E-15
         2   6 -4.171843E+01 -1.909410E-01  9.180604E+02 -7.971271E-04  1.298509E+01  1.078471E-05
         2   7 -7.118014E+00  3.029846E-01  8.865345E+02 -1.965058E-01  1.208678E+01  2.656367E-03
         2   8 -7.626555E+00  8.067712E-02  8.863010E+02 -4.798113E-14  1.209057E+01  5.480964E-14
         2   9 -7.118014E+00  3.029846E-01  8.865345E+02  1.965058E-01  1.208678E+01 -2.656367E-03
         2  10 -7.451346E+01  3.030903E-01  9.554107E+02  1.977764E-01  5.667866E-13 -1.762367E-14
         2  11 -7.500605E+01  9.610537E-02  9.552134E+02  4.296607E-13  1.115968E-12  5.409519E-30
         2  12 -7.451346E+01  3.030903E-01  9.554107E+02 -1.977764E-01  1.157774E-12  1.079212E-15
         2  13 -4.189418E+01 -1.910640E-01  9.182357E+02  7.965049E-04 -2.764326E-21 -2.642612E-14
         2  14 -4.239502E+01 -4.059681E-01  9.180197E+02 -1.224293E-13  2.270979E-12 -3.314282E-30
         2  15 -4.189418E+01 -1.910640E-01  9.182357E+02 -7.965049E-04 -2.200472E-15 -1.653949E-22
         2  16 -7.286863E+00  3.006379E-01  8.866955E+02 -1.965506E-01  5.489417E-13 -1.545828E-14
         2  17 -7.795412E+00  7.834873E-02  8.864621E+02  2.263445E-13 -2.274992E-12 -6.558003E-30
         2  18 -7.286863E+00  3.006379E-01  8.866955E+02  1.965506E-01 -6.729712E-13  2.314218E-14
         2  19 -7.433051E+01  3.008274E-01  9.552203E+02  1.977329E-01 -1.392455E+01  2.672972E-03
         2  20 -7.482310E+01  9.382149E-02  9.550229E+02 -3.426202E-13 -1.392847E+01 -3.541671E-14
         2  21 -7.433051E+01  3.008274E-01  9.552203E+02 -1.977329E-01 -1.392455E+01 -2.672972E-03
         2  22 -4.171843E+01 -1.909410E-01  9.180604E+02  7.971271E-04 -1.298509E+01  1.078471E-05
         2  23 -4.221926E+01 -4.058646E-01  9.178443E+02  7.176578E-13 -1.298894E+01 -1.861021E-16
         2  24 -4.171843E+01 -1.909410E-01  9.180604E+02 -7.971271E-04 -1.298509E+01 -1.078471E-05
         2  25 -7.118014E+00  3.029846E-01  8.865345E+02 -1.965058E-01 -1.208678E+01 -2.656367E-03
         2  26 -7.626555E+00  8.067712E-02  8.863010E+02 -4.798137E-14 -1.209057E+01 -5.315867E-14
         2  27 -7.118014E+00  3.029846E-01  8.865345E+02  1.965058E-01 -1.208678E+01  2.656367E-03
