
                        S T E P       1


                                INCREMENT     1


 displacements (vx,vy,vz) for set NALL and time  0.1000000E+01

         1  0.000000E+00  0.000000E+00  0.000000E+00
         2  2.157345E-15  1.608631E-15 -3.206231E-02
         3  4.689174E-18  1.719781E-15 -3.953616E-02
         4  0.000000E+00  0.000000E+00  0.000000E+00
         5  8.861726E-16  6.347191E-16 -6.092914E-03
         6  1.013512E-15  1.610528E-15 -3.795675E-02
         7  1.234906E-16  5.014020E-16 -1.008965E-02
         8  0.000000E+00  0.000000E+00  0.000000E+00
         9 -2.167429E-15  2.022803E-15 -3.206230E-02
        10  0.000000E+00  0.000000E+00  0.000000E+00
        11 -7.749877E-16  1.897937E-15 -3.795675E-02
        12 -1.050538E-15  7.469611E-16 -6.092914E-03
        13  0.000000E+00  0.000000E+00  0.000000E+00
        14  4.283900E-15  5.905256E-15 -1.536786E-01
        15  2.520770E-16  4.709960E-15 -1.629012E-01
        16  3.792973E-15  3.350293E-15 -8.128493E-02
        17  1.557565E-15  5.047395E-15 -1.615621E-01
        18 -4.124305E-16  3.197643E-15 -9.060018E-02
        19 -3.546642E-15  5.064823E-15 -1.536786E-01
        20 -1.129739E-15  4.713095E-15 -1.615621E-01
        21 -2.423842E-15  2.915094E-15 -8.128493E-02

 forces (fx,fy,fz) for set NALL and time  0.1000000E+01

         1 -1.929887E-12 -8.247847E-13 -2.191172E-02
         2 -2.284631E-15  9.009148E-13  8.699080E-12
         3 -9.518792E-13  2.391853E-12  3.632892E-11
         4 -3.893552E-13 -3.247255E-13 -1.654339E-02
         5 -5.949386E-14  1.071920E-13 -3.361367E-12
         6  4.138946E-13 -1.581707E-12 -6.482548E-11
         7  2.931561E-13 -2.140241E-13 -7.213313E-12
         8 -2.699285E-12 -2.438882E-13  3.018342E-02
         9 -9.169514E-13  1.971335E-13  3.282241E-11
        10  1.634998E-12 -6.591394E-13 -2.191172E-02
        11  2.187174E-12  3.601060E-13 -1.726513E-11
        12  2.337523E-13 -1.978070E-13  3.421374E-12
        13  2.610467E-12 -1.315614E-13  3.018341E-02
        14  1.326050E-12  2.267865E-13 -1.836678E-10
        15 -2.028155E-12  1.304515E-12 -5.457099E-11
        16  1.220374E-12  1.082502E-12  1.811078E-11
        17 -4.262701E-13  4.050232E-13 -1.949434E-11
        18  6.275050E-13  1.241021E-14 -1.736271E-11
        19 -7.965850E-13  1.332476E-12 -1.140227E-11
        20  7.605028E-14 -2.222070E-12 -5.131073E-11
        21 -4.227313E-13 -1.921390E-12 -4.312828E-12

 stresses (elem, integ.pnt.,sxx,syy,szz,sxy,sxz,syz) for set EALL and time  0.1000000E+01

         1   1 -3.813504E+02 -1.275990E+02 -1.131822E+02 -4.602788E+01  6.827066E+00  2.222289E+00 _shell_0000000001   
         1   2 -4.875908E+02 -7.869431E+01 -2.245989E+01 -6.029655E+01 -3.346212E-01  1.661380E+00 _shell_0000000001   
         1   3 -4.846750E+02 -1.767003E+02 -1.567350E+02 -1.353336E+01 -6.827067E+00 -9.232410E+00 _shell_0000000001   
         1   4 -3.784346E+02 -4.989904E+01  2.704258E+01  7.716417E+00  3.346213E-01  1.967211E+01 _shell_0000000001   
         1   5  3.813504E+02  1.275990E+02  1.131822E+02  4.602788E+01  6.827066E+00  2.222289E+00 _shell_0000000001   
         1   6  4.875908E+02  7.869431E+01  2.245989E+01  6.029655E+01 -3.346212E-01  1.661380E+00 _shell_0000000001   
         1   7  4.846750E+02  1.767003E+02  1.567350E+02  1.353336E+01 -6.827067E+00 -9.232410E+00 _shell_0000000001   
         1   8  3.784346E+02  4.989904E+01 -2.704258E+01 -7.716417E+00  3.346214E-01  1.967211E+01 _shell_0000000001   
         2   1 -4.846750E+02 -1.767003E+02 -1.567350E+02  1.353336E+01 -6.827064E+00  9.232410E+00 _shell_0000000002   
         2   2 -3.784346E+02 -4.989904E+01  2.704258E+01 -7.716416E+00  3.346209E-01 -1.967211E+01 _shell_0000000002   
         2   3 -3.813504E+02 -1.275990E+02 -1.131822E+02  4.602788E+01  6.827065E+00 -2.222289E+00 _shell_0000000002   
         2   4 -4.875908E+02 -7.869430E+01 -2.245989E+01  6.029655E+01 -3.346211E-01 -1.661381E+00 _shell_0000000002   
         2   5  4.846750E+02  1.767003E+02  1.567350E+02 -1.353336E+01 -6.827064E+00  9.232410E+00 _shell_0000000002   
         2   6  3.784346E+02  4.989904E+01 -2.704258E+01  7.716416E+00  3.346209E-01 -1.967211E+01 _shell_0000000002   
         2   7  3.813504E+02  1.275990E+02  1.131822E+02 -4.602788E+01  6.827065E+00 -2.222289E+00 _shell_0000000002   
         2   8  4.875908E+02  7.869430E+01  2.245989E+01 -6.029655E+01 -3.346211E-01 -1.661381E+00 _shell_0000000002   
         3   1 -3.898628E+02  1.397329E+01  5.687007E+01 -8.864736E+00 -9.634877E-01 -1.806548E+00 _shell_0000000003   
         3   2 -4.731807E+02  1.439927E+01 -1.523829E+01  1.256685E+02  4.834197E+00  1.900841E+00 _shell_0000000003   
         3   3 -4.761626E+02 -6.488977E+01  1.611118E+01 -1.831381E+01  9.634878E-01 -1.790373E+01 _shell_0000000003   
         3   4 -3.928446E+02 -4.515424E+01 -4.316979E+00 -1.253895E+02 -4.834197E+00  6.214068E+00 _shell_0000000003   
         3   5  3.898628E+02 -1.397329E+01 -5.687007E+01  8.864736E+00 -9.634877E-01 -1.806548E+00 _shell_0000000003   
         3   6  4.731807E+02 -1.439927E+01  1.523829E+01 -1.256685E+02  4.834197E+00  1.900841E+00 _shell_0000000003   
         3   7  4.761626E+02  6.488977E+01 -1.611118E+01  1.831381E+01  9.634878E-01 -1.790373E+01 _shell_0000000003   
         3   8  3.928446E+02  4.515424E+01  4.316979E+00  1.253895E+02 -4.834197E+00  6.214068E+00 _shell_0000000003   
         4   1 -4.761626E+02 -6.488977E+01  1.611118E+01  1.831381E+01  9.634874E-01  1.790373E+01 _shell_0000000004   
         4   2 -3.928446E+02 -4.515424E+01 -4.316978E+00  1.253895E+02 -4.834197E+00 -6.214068E+00 _shell_0000000004   
         4   3 -3.898628E+02  1.397329E+01  5.687007E+01  8.864735E+00 -9.634876E-01  1.806548E+00 _shell_0000000004   
         4   4 -4.731808E+02  1.439928E+01 -1.523829E+01 -1.256685E+02  4.834197E+00 -1.900841E+00 _shell_0000000004   
         4   5  4.761626E+02  6.488977E+01 -1.611118E+01 -1.831381E+01  9.634874E-01  1.790373E+01 _shell_0000000004   
         4   6  3.928446E+02  4.515424E+01  4.316978E+00 -1.253895E+02 -4.834197E+00 -6.214068E+00 _shell_0000000004   
         4   7  3.898628E+02 -1.397329E+01 -5.687007E+01 -8.864735E+00 -9.634876E-01  1.806548E+00 _shell_0000000004   
         4   8  4.731808E+02 -1.439928E+01  1.523829E+01  1.256685E+02  4.834197E+00 -1.900841E+00 _shell_0000000004   

                        S T E P       2


                                INCREMENT     1


 displacements (vx,vy,vz) for set NALL and time  0.2000000E+01

         1  0.000000E+00  0.000000E+00  0.000000E+00
         2  3.478663E-15  2.335222E-15 -6.519425E-02
         3 -2.006858E-16  2.364008E-15 -7.631347E-02
         4  0.000000E+00  0.000000E+00  0.000000E+00
         5  1.525689E-15  1.040211E-15 -1.316777E-02
         6  1.777441E-15  2.368900E-15 -7.438585E-02
         7 -4.488597E-17  4.845537E-16 -1.933376E-02
         8  0.000000E+00  0.000000E+00  0.000000E+00
         9 -4.315341E-15  2.776303E-15 -6.519425E-02
        10  0.000000E+00  0.000000E+00  0.000000E+00
        11 -1.808016E-15  2.540435E-15 -7.438585E-02
        12 -1.851926E-15  8.370041E-16 -1.316777E-02
        13  0.000000E+00  0.000000E+00  0.000000E+00
        14  7.134376E-15  9.761099E-15 -2.680129E-01
        15  4.556902E-16  8.082081E-15 -2.782580E-01
        16  6.191228E-15  5.543851E-15 -1.542711E-01
        17  2.513181E-15  8.336336E-15 -2.764189E-01
        18 -7.116703E-16  5.257507E-15 -1.661753E-01
        19 -7.274346E-15  9.205961E-15 -2.680129E-01
        20 -2.328866E-15  8.353602E-15 -2.764189E-01
        21 -5.181619E-15  4.522641E-15 -1.542711E-01

 forces (fx,fy,fz) for set NALL and time  0.2000000E+01

         1 -3.014200E-12 -1.078138E-12 -7.689579E-02
         2 -1.632972E-12 -1.868660E-12 -9.288013E-11
         3 -1.257661E-12  1.441374E-12  5.769837E-11
         4 -1.922906E-13  4.617227E-14 -1.663493E-01
         5 -3.171022E-13  2.803313E-14 -6.230350E-12
         6 -3.635980E-13  1.553306E-12 -1.381225E-10
         7  1.409879E-13  3.927709E-13 -2.525036E-12
         8 -4.213518E-12  1.754152E-13  1.600705E-01
         9 -1.950051E-12 -8.038253E-13  7.248761E-11
        10  2.968126E-12 -1.269956E-12 -7.689579E-02
        11  2.053913E-12  7.745176E-13 -3.970368E-11
        12  2.400927E-13 -9.627021E-13  5.384138E-12
        13  6.195044E-12  3.598788E-13  1.600705E-01
        14  3.981038E-12 -2.510944E-12 -3.204021E-10
        15 -1.682599E-12 -9.087254E-13 -9.161093E-11
        16  1.490301E-12 -2.321823E-13  3.430503E-11
        17  1.561196E-12  4.946391E-12 -3.390677E-11
        18 -1.343568E-12  2.994334E-12 -3.488151E-11
        19 -2.850886E-12  4.032608E-13 -1.752987E-11
        20 -1.371125E-13  3.602466E-13 -8.612311E-11
        21  3.255729E-13 -3.839602E-12 -6.112111E-12

 stresses (elem, integ.pnt.,sxx,syy,szz,sxy,sxz,syz) for set EALL and time  0.2000000E+01

         1   1 -7.838384E+02 -2.693116E+02 -2.513486E+02 -5.064647E+01  6.522198E+00  1.250986E+01 _shell_0000000001   
         1   2 -9.482257E+02 -1.670637E+02 -9.350981E+01 -6.674552E+00  3.383951E+00  2.407393E+00 _shell_0000000001   
         1   3 -9.482124E+02 -3.586583E+02 -3.215352E+02 -4.184333E+01 -6.522199E+00 -2.688844E+01 _shell_0000000001   
         1   4 -7.838251E+02 -1.671447E+02 -2.208421E+01 -6.736861E+01 -3.383952E+00  1.824767E+01 _shell_0000000001   
         1   5  7.838384E+02  2.693116E+02  2.513486E+02  5.064647E+01  6.522198E+00  1.250986E+01 _shell_0000000001   
         1   6  9.482257E+02  1.670637E+02  9.350981E+01  6.674552E+00  3.383951E+00  2.407393E+00 _shell_0000000001   
         1   7  9.482124E+02  3.586583E+02  3.215352E+02  4.184333E+01 -6.522199E+00 -2.688844E+01 _shell_0000000001   
         1   8  7.838251E+02  1.671447E+02  2.208421E+01  6.736861E+01 -3.383952E+00  1.824767E+01 _shell_0000000001   
         2   1 -9.482124E+02 -3.586583E+02 -3.215352E+02  4.184333E+01 -6.522196E+00  2.688844E+01 _shell_0000000002   
         2   2 -7.838251E+02 -1.671447E+02 -2.208421E+01  6.736861E+01 -3.383952E+00 -1.824767E+01 _shell_0000000002   
         2   3 -7.838384E+02 -2.693116E+02 -2.513486E+02  5.064647E+01  6.522197E+00 -1.250986E+01 _shell_0000000002   
         2   4 -9.482257E+02 -1.670637E+02 -9.350981E+01  6.674552E+00  3.383952E+00 -2.407394E+00 _shell_0000000002   
         2   5  9.482124E+02  3.586583E+02  3.215352E+02 -4.184333E+01 -6.522196E+00  2.688844E+01 _shell_0000000002   
         2   6  7.838251E+02  1.671447E+02  2.208421E+01 -6.736861E+01 -3.383952E+00 -1.824767E+01 _shell_0000000002   
         2   7  7.838384E+02  2.693116E+02  2.513486E+02 -5.064647E+01  6.522197E+00 -1.250986E+01 _shell_0000000002   
         2   8  9.482257E+02  1.670637E+02  9.350981E+01 -6.674552E+00  3.383952E+00 -2.407394E+00 _shell_0000000002   
         3   1 -3.753749E+02  1.199777E+02  1.733009E+02  6.276527E+01  2.115850E-01 -4.393178E+00 _shell_0000000003   
         3   2 -4.863683E+02  6.251745E+00 -4.643584E+01  1.204917E+02  3.977719E+00  2.710540E+00 _shell_0000000003   
         3   3 -4.906505E+02 -1.665969E+01  1.166116E+02 -7.438721E+01 -2.115850E-01 -1.008540E+01 _shell_0000000003   
         3   4 -3.796571E+02 -2.922277E+01 -3.124600E+01 -9.634822E+01 -3.977720E+00  4.235765E+00 _shell_0000000003   
         3   5  3.753749E+02 -1.199777E+02 -1.733009E+02 -6.276527E+01  2.115851E-01 -4.393178E+00 _shell_0000000003   
         3   6  4.863683E+02 -6.251745E+00  4.643584E+01 -1.204917E+02  3.977719E+00  2.710540E+00 _shell_0000000003   
         3   7  4.906505E+02  1.665969E+01 -1.166116E+02  7.438721E+01 -2.115850E-01 -1.008540E+01 _shell_0000000003   
         3   8  3.796571E+02  2.922277E+01  3.124600E+01  9.634822E+01 -3.977720E+00  4.235765E+00 _shell_0000000003   
         4   1 -4.906505E+02 -1.665968E+01  1.166116E+02  7.438721E+01 -2.115855E-01  1.008540E+01 _shell_0000000004   
         4   2 -3.796571E+02 -2.922277E+01 -3.124599E+01  9.634822E+01 -3.977719E+00 -4.235766E+00 _shell_0000000004   
         4   3 -3.753749E+02  1.199777E+02  1.733009E+02 -6.276528E+01  2.115853E-01  4.393179E+00 _shell_0000000004   
         4   4 -4.863683E+02  6.251745E+00 -4.643584E+01 -1.204917E+02  3.977719E+00 -2.710541E+00 _shell_0000000004   
         4   5  4.906505E+02  1.665968E+01 -1.166116E+02 -7.438721E+01 -2.115855E-01  1.008540E+01 _shell_0000000004   
         4   6  3.796571E+02  2.922277E+01  3.124599E+01 -9.634822E+01 -3.977719E+00 -4.235766E+00 _shell_0000000004   
         4   7  3.753749E+02 -1.199777E+02 -1.733009E+02  6.276528E+01  2.115853E-01  4.393179E+00 _shell_0000000004   
         4   8  4.863683E+02 -6.251745E+00  4.643584E+01  1.204917E+02  3.977719E+00 -2.710541E+00 _shell_0000000004   
