
                        S T E P       1


                                INCREMENT    11


 displacements (vx,vy,vz) for set NALL and time  0.7200000E+02

         2  0.000000E+00  0.000000E+00  0.000000E+00
        10  2.751184E-03  0.000000E+00  0.000000E+00
        11  1.375592E-03 -4.179014E-19  0.000000E+00
        12 -2.347229E-18 -1.375592E-03  0.000000E+00
        13 -3.525278E-18 -2.751184E-03  0.000000E+00
        33  1.809926E-18  3.733569E-18  6.000000E-03
        34  6.371501E-18  5.043735E-18  1.200000E-02
        93  2.751184E-03 -1.375592E-03  0.000000E+00
        95  2.751184E-03 -2.751184E-03  0.000000E+00
        96  1.375592E-03 -2.751184E-03  0.000000E+00
       103  2.751184E-03 -3.329911E-19  6.000000E-03
       105  2.751184E-03  3.742667E-18  1.200000E-02
       106  1.375592E-03  1.878536E-18  1.200000E-02
       132 -1.283993E-18 -2.751184E-03  6.000000E-03
       133  1.414532E-18 -1.375592E-03  1.200000E-02
       134  2.980587E-18 -2.751184E-03  1.200000E-02
       219  2.751184E-03 -2.751184E-03  6.000000E-03
       220  2.751184E-03 -1.375592E-03  1.200000E-02
       222  2.751184E-03 -2.751184E-03  1.200000E-02
       223  1.375592E-03 -2.751184E-03  1.200000E-02

 stresses (elem, integ.pnt.,sxx,syy,szz,sxy,sxz,syz) for set EALL and time  0.7200000E+02

         1   1  3.687155E-09  3.687099E-09  3.063394E+02 -6.715917E-14  1.054643E-13 -1.788411E-13
         1   2  3.686621E-09  3.686537E-09  3.063394E+02 -7.323225E-14  4.785454E-14 -6.006685E-14
         1   3  3.686060E-09  3.685976E-09  3.063394E+02  1.140152E-13 -2.867895E-15  6.120345E-14
         1   4  3.686004E-09  3.685863E-09  3.063394E+02 -8.501211E-14  6.998777E-14 -1.883829E-13
         1   5  3.686284E-09  3.686284E-09  3.063394E+02 -1.506448E-14  4.590279E-15  5.800244E-14
         1   6  3.686593E-09  3.686593E-09  3.063394E+02  3.157334E-14  1.265379E-13  7.765350E-14
         1   7  3.687267E-09  3.687211E-09  3.063394E+02 -3.350924E-14 -6.802500E-14  6.010932E-14
         1   8  3.686228E-09  3.686228E-09  3.063394E+02 -5.805947E-14  7.999649E-14 -6.471701E-14
         1   9  3.685976E-09  3.686060E-09  3.063394E+02 -6.474236E-14  9.351050E-14 -1.434368E-14
         1  10  3.686172E-09  3.686228E-09  3.063394E+02  2.116589E-14 -1.860390E-13  2.456632E-13
         1  11  3.686565E-09  3.686509E-09  3.063394E+02 -2.191783E-14 -1.416561E-13  4.146713E-14
         1  12  3.686004E-09  3.685639E-09  3.063394E+02 -4.352348E-15  1.354728E-13 -2.495480E-13
         1  13  3.686397E-09  3.686341E-09  3.063394E+02 -2.867068E-14  9.644894E-14 -2.363578E-14
         1  14  3.686284E-09  3.686341E-09  3.063394E+02  1.402812E-14 -7.703398E-14 -2.911329E-14
         1  15  3.685639E-09  3.685639E-09  3.063394E+02  9.544251E-15  1.303389E-14  1.078632E-14
         1  16  3.685807E-09  3.685807E-09  3.063394E+02  1.099746E-13  7.354838E-14 -1.286773E-13
         1  17  3.685947E-09  3.685863E-09  3.063394E+02 -6.675851E-14 -1.347515E-13  4.936654E-14
         1  18  3.686453E-09  3.686369E-09  3.063394E+02 -1.054250E-13 -1.026445E-13  1.463886E-13
         1  19  3.686453E-09  3.686284E-09  3.063394E+02  3.677328E-14  8.151446E-14  1.281483E-13
         1  20  3.686060E-09  3.686060E-09  3.063394E+02  1.650737E-14 -5.359571E-14 -3.935178E-13
         1  21  3.686116E-09  3.686060E-09  3.063394E+02 -1.323812E-13  6.882428E-14  3.301642E-13
         1  22  3.685554E-09  3.685554E-09  3.063394E+02  1.348486E-14  3.253244E-14  2.045568E-13
         1  23  3.686088E-09  3.686284E-09  3.063394E+02  2.629519E-14  7.787413E-14  2.370844E-13
         1  24  3.685639E-09  3.685639E-09  3.063394E+02  1.042884E-14 -2.111819E-13  1.521426E-13
         1  25  3.687857E-09  3.687689E-09  3.063394E+02 -1.410839E-13  2.770312E-14 -2.579242E-13
         1  26  3.685807E-09  3.685807E-09  3.063394E+02 -7.971233E-14  1.356874E-13 -6.270066E-13
         1  27  3.686565E-09  3.686425E-09  3.063394E+02 -1.110439E-13 -3.753876E-14  2.982934E-13

 internal state variables (elem, integ.pnt.,values) for set EALL and time  0.7200000E+02

         1   1 -4.359431E-03 -4.359431E-03  8.718862E-03  4.923644E-19 -6.097578E-19 -5.908320E-19  1.524725E-38  2.669595E-03  2.669595E-03  2.669595E-03  2.669595E-03  1.796861E-38  2.669595E-03  2.669595E-03  1.372502E-38  2.669595E-03  2.669595E-03  4.148561E-38  4.716268E-38  1.016405E-37  1.126889E-37  2.761951E-38  1.484884E-38  7.679521E-38
         1   2 -4.359431E-03 -4.359431E-03  8.718862E-03 -3.104455E-18  7.173310E-21 -9.051871E-19  1.790242E-38  2.669595E-03  2.669595E-03  2.669595E-03  2.669595E-03  2.167322E-38  2.669595E-03  2.669595E-03  2.949743E-38  2.669595E-03  2.669595E-03  1.671383E-38  5.861142E-38  7.576167E-38  1.172268E-37  5.726764E-38  7.397319E-38  4.472729E-38
         1   3 -4.359431E-03 -4.359431E-03  8.718862E-03  1.061068E-18  9.145309E-20  7.748234E-19  1.739115E-38  2.669595E-03  2.669595E-03  2.669595E-03  2.669595E-03  2.094032E-38  2.669595E-03  2.669595E-03  2.327676E-38  2.669595E-03  2.669595E-03  2.020613E-38  8.085027E-38  1.120865E-37  5.556314E-38  6.669564E-38  4.981305E-38  4.024710E-38
         1   4 -4.359431E-03 -4.359431E-03  8.718862E-03 -4.331515E-19  1.102043E-18 -4.122139E-19  2.516266E-38  2.669595E-03  2.669595E-03  2.669595E-03  2.669595E-03  2.353197E-38  2.669595E-03  2.669595E-03  4.218930E-38  2.669595E-03  2.669595E-03  3.494041E-38  9.620495E-38  6.336848E-38  7.529119E-38  3.503862E-38  8.756595E-38  8.074666E-38
         1   5 -4.359431E-03 -4.359431E-03  8.718862E-03 -7.168810E-19  1.872737E-19  1.131662E-18  1.161471E-38  2.669595E-03  2.669595E-03  2.669595E-03  2.669595E-03  2.282850E-38  2.669595E-03  2.669595E-03  1.219393E-38  2.669595E-03  2.669595E-03  2.094542E-38  1.786540E-38  2.262584E-38  3.152249E-38  2.863846E-38  3.438773E-38  3.252089E-38
         1   6 -4.359431E-03 -4.359431E-03  8.718862E-03  7.831878E-19  7.131488E-19  9.394389E-19  3.045560E-38  2.669595E-03  2.669595E-03  2.669595E-03  2.669595E-03  1.849812E-38  2.669595E-03  2.669595E-03  1.335309E-38  2.669595E-03  2.669595E-03  2.706710E-38  1.317870E-38  5.750254E-38  6.655317E-38  5.278900E-38  4.473934E-38  7.135096E-38
         1   7 -4.359431E-03 -4.359431E-03  8.718862E-03 -9.939667E-19 -2.846560E-19  2.018109E-18  2.982105E-38  2.669595E-03  2.669595E-03  2.669595E-03  2.669595E-03  2.707279E-38  2.669595E-03  2.669595E-03  2.589531E-38  2.669595E-03  2.669595E-03  2.213653E-38  4.250916E-38  7.715262E-38  4.884212E-38  6.959846E-38  6.601274E-38  7.107580E-38
         1   8 -4.359431E-03 -4.359431E-03  8.718862E-03  3.616566E-19  4.293928E-19  5.745266E-19  4.693519E-38  2.669595E-03  2.669595E-03  2.669595E-03  2.669595E-03  1.195899E-38  2.669595E-03  2.669595E-03  2.388923E-38  2.669595E-03  2.669595E-03  3.278777E-38  4.016929E-38  4.506147E-38  8.051031E-38  8.115351E-38  4.915500E-38  1.040609E-37
         1   9 -4.359431E-03 -4.359431E-03  8.718862E-03 -2.344084E-18  1.259882E-18  6.167459E-20  1.796782E-38  2.669595E-03  2.669595E-03  2.669595E-03  2.669595E-03  2.148063E-38  2.669595E-03  2.669595E-03  3.017389E-38  2.669595E-03  2.669595E-03  2.294070E-38  2.508327E-38  7.398725E-38  5.383704E-38  7.614271E-38  6.093640E-38  2.868545E-38
         1  10 -4.359431E-03 -4.359431E-03  8.718862E-03 -1.239289E-18 -1.895448E-18 -1.280714E-18  5.070938E-38  2.669595E-03  2.669595E-03  2.669595E-03  2.669595E-03  5.795213E-38  2.669595E-03  2.669595E-03  3.345227E-38  2.669595E-03  2.669595E-03  3.706575E-38  9.109335E-38  8.130290E-38  9.327409E-38  8.727890E-38  1.136116E-37  1.202272E-37
         1  11 -4.359431E-03 -4.359431E-03  8.718862E-03 -1.077029E-18 -4.361690E-19  1.367402E-18  3.921839E-38  2.669595E-03  2.669595E-03  2.669595E-03  2.669595E-03  3.873148E-38  2.669595E-03  2.669595E-03  1.930111E-38  2.669595E-03  2.669595E-03  4.717846E-38  3.926036E-38  3.240461E-38  8.972894E-38  8.866145E-38  7.819375E-38  1.010912E-37
         1  12 -4.359431E-03 -4.359431E-03  8.718862E-03 -6.899083E-19  4.655399E-18 -2.335932E-18  4.160477E-38  2.669595E-03  2.669595E-03  2.669595E-03  2.669595E-03  6.602619E-38  2.669595E-03  2.669595E-03  6.772965E-38  2.669595E-03  2.669595E-03  5.982995E-38  1.255441E-37  1.800594E-37  6.260126E-38  4.634656E-38  1.832108E-37  1.219304E-37
         1  13 -4.359431E-03 -4.359431E-03  8.718862E-03 -1.435456E-19  1.712330E-18 -3.210784E-19  2.449546E-38  2.669595E-03  2.669595E-03  2.669595E-03  2.669595E-03  2.038908E-38  2.669595E-03  2.669595E-03  2.641940E-38  2.669595E-03  2.669595E-03  4.734746E-38  2.932286E-38  7.995254E-38  4.545165E-38  3.949771E-38  5.803941E-38  9.840296E-38
         1  14 -4.359431E-03 -4.359431E-03  8.718862E-03  6.116637E-19 -1.046059E-18 -8.004197E-19  2.016675E-38  2.669595E-03  2.669595E-03  2.669595E-03  2.669595E-03  2.408844E-38  2.669595E-03  2.669595E-03  1.780890E-38  2.669595E-03  2.669595E-03  1.726471E-38  3.454733E-38  5.797504E-38  1.305122E-38  2.481795E-38  5.049088E-38  5.069513E-38
         1  15 -4.359431E-03 -4.359431E-03  8.718862E-03  6.229398E-19 -3.638801E-19 -1.865458E-18  5.450515E-38  2.669595E-03  2.669595E-03  2.669595E-03  2.669595E-03  2.184985E-38  2.669595E-03  2.669595E-03  1.855634E-38  2.669595E-03  2.669595E-03  4.963776E-38  7.503634E-38  8.063102E-38  6.801928E-38  6.409728E-38  5.534566E-38  1.426483E-37
         1  16 -4.359431E-03 -4.359431E-03  8.718862E-03  1.448612E-18  3.762150E-19 -2.508673E-18  4.577913E-38  2.669595E-03  2.669595E-03  2.669595E-03  2.669595E-03  3.021954E-38  2.669595E-03  2.669595E-03  4.426387E-38  2.669595E-03  2.669595E-03  4.002225E-38  8.935011E-38  6.248131E-38  6.079875E-38  5.337125E-38  9.112606E-38  9.069807E-38
         1  17 -4.359431E-03 -4.359431E-03  8.718862E-03 -1.125998E-18 -2.064193E-18  1.568017E-18  2.608041E-38  2.669595E-03  2.669595E-03  2.669595E-03  2.669595E-03  4.557437E-38  2.669595E-03  2.669595E-03  4.637298E-38  2.669595E-03  2.669595E-03  3.255187E-38  8.022399E-38  8.624154E-38  9.199041E-38  9.612661E-38  1.259359E-37  8.151365E-38
         1  18 -4.359431E-03 -4.359431E-03  8.718862E-03 -4.317380E-18 -7.408627E-19  2.690335E-18  4.098415E-38  2.669595E-03  2.669595E-03  2.669595E-03  2.669595E-03  6.424725E-38  2.669595E-03  2.669595E-03  5.112917E-38  2.669595E-03  2.669595E-03  5.455919E-38  6.218961E-38  1.026259E-37  8.344005E-38  2.403242E-37  1.596230E-37  1.341413E-37
         1  19 -4.359431E-03 -4.359431E-03  8.718862E-03 -3.856647E-20  6.711148E-19  7.783783E-18  1.177573E-37  2.669595E-03  2.669595E-03  2.669595E-03  2.669595E-03  1.150157E-37  2.669595E-03  2.669595E-03  1.436541E-37  2.669595E-03  2.669595E-03  9.790854E-38  1.072134E-37  1.198052E-37  3.297762E-37  2.814337E-37  3.543083E-37  2.954090E-37
         1  20 -4.359431E-03 -4.359431E-03  8.718862E-03  1.899313E-18  9.938343E-19 -3.515451E-18  5.603149E-38  2.669595E-03  2.669595E-03  2.669595E-03  2.669595E-03  4.537083E-38  2.669595E-03  2.669595E-03  5.328370E-38  2.669595E-03  2.669595E-03  5.961260E-38  6.555298E-38  4.071074E-38  1.324322E-37  1.087564E-37  1.150465E-37  1.225685E-37
         1  21 -4.359431E-03 -4.359431E-03  8.718862E-03 -9.340126E-19 -3.269547E-19  1.266447E-18  9.134310E-38  2.669595E-03  2.669595E-03  2.669595E-03  2.669595E-03  6.375811E-38  2.669595E-03  2.669595E-03  8.156505E-38  2.669595E-03  2.669595E-03  4.290002E-38  1.381260E-37  1.902537E-37  7.700786E-38  9.459563E-38  1.620566E-37  1.812507E-37
         1  22 -4.359431E-03 -4.359431E-03  8.718862E-03  9.365008E-19 -2.319944E-18  1.821571E-18  2.005291E-38  2.669595E-03  2.669595E-03  2.669595E-03  2.669595E-03  4.873259E-38  2.669595E-03  2.669595E-03  4.541174E-38  2.669595E-03  2.669595E-03  3.252344E-38  5.180599E-38  1.275317E-37  2.566589E-38  7.841631E-38  1.289566E-37  5.039321E-38
         1  23 -4.359431E-03 -4.359431E-03  8.718862E-03  6.886378E-19  1.301996E-18  1.977981E-18  1.974641E-38  2.669595E-03  2.669595E-03  2.669595E-03  2.669595E-03  1.966954E-38  2.669595E-03  2.669595E-03  2.075764E-38  2.669595E-03  2.669595E-03  1.952540E-38  1.341252E-38  1.709086E-38  5.027135E-38  3.943925E-38  4.160408E-38  5.027571E-38
         1  24 -4.359431E-03 -4.359431E-03  8.718862E-03  1.213745E-18 -3.165812E-18  5.933730E-19  2.288591E-38  2.669595E-03  2.669595E-03  2.669595E-03  2.669595E-03  5.575586E-38  2.669595E-03  2.669595E-03  2.960089E-38  2.669595E-03  2.669595E-03  4.167747E-38  5.066539E-38  8.105944E-38  6.062091E-38  8.141121E-38  8.075436E-38  8.321365E-38
         1  25 -4.359431E-03 -4.359431E-03  8.718862E-03  3.548009E-19  4.696798E-18 -7.345814E-18  1.825548E-37  2.669595E-03  2.669595E-03  2.669595E-03  2.669595E-03  9.599810E-38  2.669595E-03  2.669595E-03  6.031954E-38  2.669595E-03  2.669595E-03  1.987866E-37  2.699137E-37  2.020731E-37  2.878522E-37  3.202619E-37  2.211736E-37  5.223261E-37
         1  26 -4.359431E-03 -4.359431E-03  8.718862E-03 -3.357718E-18 -5.929495E-19 -1.177482E-18  7.186009E-38  2.669595E-03  2.669595E-03  2.669595E-03  2.669595E-03  5.666391E-38  2.669595E-03  2.669595E-03  5.706952E-38  2.669595E-03  2.669595E-03  8.312561E-38  1.298910E-37  3.508224E-38  1.744738E-37  1.898650E-37  1.395693E-37  2.108617E-37
         1  27 -4.359431E-03 -4.359431E-03  8.718862E-03 -3.332836E-18 -3.476541E-19  1.892854E-18  7.143356E-38  2.669595E-03  2.669595E-03  2.669595E-03  2.669595E-03  5.403087E-38  2.669595E-03  2.669595E-03  5.118483E-38  2.669595E-03  2.669595E-03  7.613803E-38  8.916139E-38  1.062736E-37  1.753977E-37  1.426394E-37  1.346212E-37  1.962321E-37
