
                        S T E P       1


                                INCREMENT     1


 displacements (vx,vy,vz) for set NALL and time  0.7200000E+00

         2  0.000000E+00  0.000000E+00  0.000000E+00
        10  2.459355E-05  0.000000E+00  0.000000E+00
        11  1.229695E-05 -1.972814E-09  0.000000E+00
        12  8.540203E-06  5.087661E-06  0.000000E+00
        13  1.707936E-05  1.017955E-05  0.000000E+00
        33  4.025968E-05  5.126196E-05  5.999538E-05
        34  8.052827E-05  1.025237E-04  1.200000E-04
        93  3.314066E-05  5.085028E-06  0.000000E+00
        95  4.168775E-05  1.017325E-05  0.000000E+00
        96  2.938462E-05  1.017402E-05  0.000000E+00
       103  6.486037E-05  5.125781E-05  5.997966E-05
       105  1.051367E-04  1.025174E-04  1.200000E-04
       106  9.283140E-05  1.025230E-04  1.200000E-04
       132  5.735565E-05  6.143918E-05  6.002034E-05
       133  8.907535E-05  1.076120E-04  1.200000E-04
       134  9.762247E-05  1.126970E-04  1.200000E-04
       219  8.195633E-05  6.143503E-05  6.000462E-05
       220  1.136758E-04  1.076093E-04  1.200000E-04
       222  1.222160E-04  1.126970E-04  1.200000E-04
       223  1.099191E-04  1.126990E-04  1.200000E-04

 forces (fx,fy,fz) for set NALL and time  0.7200000E+00

         2  6.935329E-12 -8.172697E-12  5.180846E-01
        10  1.574655E-11  1.364337E-11  5.181953E-01
        11 -2.014821E-11 -2.164482E-11 -2.072105E+00
        12  3.470693E-11  5.570939E-11 -2.072886E+00
        13 -1.351630E-11  1.161951E-11  5.178449E-01
        33 -2.184587E-11  3.141325E-12 -1.471336E-12
        34  1.189486E-11  3.099536E-13 -5.180894E-01
        93 -1.186617E-11 -1.605286E-11 -2.072240E+00
        95 -1.189389E-11 -3.108545E-13  5.180894E-01
        96  5.220872E-11  6.209977E-11 -2.073034E+00
       103 -6.111393E-11 -3.999740E-11  5.819817E-11
       105  1.351730E-11 -1.162011E-11 -5.178449E-01
       106 -5.221278E-11 -6.209911E-11  2.073034E+00
       132  6.111502E-11  3.999925E-11 -5.819668E-11
       133  1.186514E-11  1.605558E-11  2.072240E+00
       134 -1.574511E-11 -1.142745E-11 -5.181953E-01
       219  2.184706E-11 -3.142567E-12  1.470907E-12
       220 -3.470726E-11 -5.571034E-11  2.072886E+00
       222 -6.933711E-12  5.954662E-12 -5.180846E-01
       223  2.014632E-11  2.164540E-11  2.072105E+00

 stresses (elem, integ.pnt.,sxx,syy,szz,sxy,sxz,syz) for set EALL and time  0.7200000E+00

         1   1 -9.244437E-04 -7.984861E-04  2.486068E+01 -3.206971E-04  1.545742E-03  1.090151E-03
         1   2 -1.037782E-03 -7.058760E-04  2.486618E+01 -2.938248E-04 -2.955484E-04  5.921035E-04
         1   3 -9.358147E-04 -7.757984E-04  2.487189E+01 -4.430879E-04 -1.839953E-03 -1.924519E-04
         1   4 -6.072357E-04 -5.844766E-04  2.486873E+01 -5.538602E-04  2.546233E-04  1.333444E-04
         1   5 -6.853027E-04 -5.749140E-04  2.487404E+01 -4.945029E-04 -1.100818E-03 -4.940132E-04
         1   6 -5.480649E-04 -7.278839E-04  2.487956E+01 -6.112808E-04 -2.159374E-03 -1.407878E-03
         1   7 -4.521730E-04 -7.131904E-04  2.487696E+01 -3.719253E-04 -9.669891E-04 -1.226181E-03
         1   8 -4.949691E-04 -7.866753E-04  2.488207E+01 -2.800828E-04 -1.836581E-03 -1.982848E-03
         1   9 -3.224605E-04 -1.022693E-03  2.488739E+01 -3.643756E-04 -2.409288E-03 -3.026023E-03
         1  10  8.852547E-04  6.987526E-04  2.487128E+01  6.207438E-04  1.816072E-03  5.743591E-04
         1  11  7.423314E-04  8.630663E-04  2.487137E+01  6.763264E-04  1.181780E-03  8.469227E-04
         1  12  8.147129E-04  8.648475E-04  2.487167E+01  5.557736E-04  8.443741E-04  8.329787E-04
         1  13  9.310564E-04  9.531617E-04  2.487139E+01  3.807096E-04  1.295470E-03  9.050280E-04
         1  14  8.234040E-04  1.034428E-03  2.487128E+01  4.687773E-04  1.147027E-03  1.048282E-03
         1  15  9.310564E-04  9.531617E-04  2.487139E+01  3.807096E-04  1.295470E-03  9.050280E-04
         1  16  8.147129E-04  8.648475E-04  2.487167E+01  5.557736E-04  8.443741E-04  8.329787E-04
         1  17  7.423314E-04  8.630663E-04  2.487137E+01  6.763263E-04  1.181780E-03  8.469227E-04
         1  18  8.852547E-04  6.987526E-04  2.487128E+01  6.207438E-04  1.816072E-03  5.743591E-04
         1  19 -3.224605E-04 -1.022693E-03  2.488739E+01 -3.643756E-04 -2.409288E-03 -3.026023E-03
         1  20 -4.949691E-04 -7.866753E-04  2.488207E+01 -2.800828E-04 -1.836581E-03 -1.982848E-03
         1  21 -4.521730E-04 -7.131904E-04  2.487696E+01 -3.719253E-04 -9.669891E-04 -1.226181E-03
         1  22 -5.480649E-04 -7.278839E-04  2.487956E+01 -6.112808E-04 -2.159374E-03 -1.407878E-03
         1  23 -6.853027E-04 -5.749140E-04  2.487404E+01 -4.945028E-04 -1.100818E-03 -4.940132E-04
         1  24 -6.072357E-04 -5.844765E-04  2.486873E+01 -5.538602E-04  2.546233E-04  1.333444E-04
         1  25 -9.358147E-04 -7.757984E-04  2.487189E+01 -4.430878E-04 -1.839953E-03 -1.924519E-04
         1  26 -1.037782E-03 -7.058760E-04  2.486618E+01 -2.938248E-04 -2.955485E-04  5.921035E-04
         1  27 -9.244437E-04 -7.984860E-04  2.486068E+01 -3.206970E-04  1.545742E-03  1.090151E-03

                                INCREMENT     2


 displacements (vx,vy,vz) for set NALL and time  0.1440000E+01

         2  0.000000E+00  0.000000E+00  0.000000E+00
        10  4.917649E-05  0.000000E+00  0.000000E+00
        11  2.458893E-05 -7.886643E-09  0.000000E+00
        12  1.706066E-05  1.017913E-05  0.000000E+00
        13  3.411714E-05  2.037517E-05  0.000000E+00
        33  8.047791E-05  1.024469E-04  1.199815E-04
        34  1.609914E-04  2.048930E-04  2.400000E-04
        93  6.626477E-05  1.016860E-05  0.000000E+00
        95  8.335294E-05  2.034996E-05  0.000000E+00
        96  5.873929E-05  2.035306E-05  0.000000E+00
       103  1.296829E-04  1.024302E-04  1.199187E-04
       105  2.102272E-04  2.048678E-04  2.400000E-04
       106  1.856050E-04  2.048899E-04  2.400000E-04
       132  1.146614E-04  1.228127E-04  1.200813E-04
       133  1.780796E-04  2.150743E-04  2.400000E-04
       134  1.951678E-04  2.252429E-04  2.400000E-04
       219  1.638664E-04  1.227961E-04  1.200185E-04
       220  2.272837E-04  2.150638E-04  2.400000E-04
       222  2.443443E-04  2.252429E-04  2.400000E-04
       223  2.197554E-04  2.252508E-04  2.400000E-04

 forces (fx,fy,fz) for set NALL and time  0.1440000E+01

         2 -1.951178E-15  2.787867E-15  1.036403E+00
        10 -7.105281E-16  2.206690E-17  1.036846E+00
        11  3.307389E-15  3.919772E-16 -4.144680E+00
        12  1.706924E-16 -5.393865E-15 -4.147803E+00
        13  1.115813E-15  2.269777E-15  1.035445E+00
        33  3.099643E-15 -3.516949E-15 -8.296518E-16
        34 -1.263315E-15  3.473330E-15 -1.036423E+00
        93 -4.930490E-16 -1.280436E-15 -4.145217E+00
        95  2.679804E-15  2.147229E-17  1.036423E+00
        96 -1.867303E-15  8.402770E-16 -4.148396E+00
       103  3.182222E-15  5.300855E-15 -1.345560E-15
       105  6.203192E-16  1.634591E-15 -1.035445E+00
       106  8.179034E-15  1.118526E-15  4.148396E+00
       132 -4.670120E-15 -4.482634E-15  2.976108E-15
       133 -2.207993E-15 -1.246985E-14  4.145217E+00
       134  1.397509E-15  3.967218E-15 -1.036846E+00
       219 -3.998919E-15  1.021847E-15 -1.438780E-15
       220 -3.619532E-15  1.754908E-15  4.147803E+00
       222  2.178318E-15  9.408304E-16 -1.036403E+00
       223 -5.148532E-15  1.598646E-15  4.144680E+00

 stresses (elem, integ.pnt.,sxx,syy,szz,sxy,sxz,syz) for set EALL and time  0.1440000E+01

         1   1 -3.694660E-03 -3.189548E-03  4.971782E+01 -1.280939E-03  6.177111E-03  4.354372E-03
         1   2 -4.148136E-03 -2.819521E-03  4.973983E+01 -1.173997E-03 -1.184504E-03  2.364931E-03
         1   3 -3.741145E-03 -3.100027E-03  4.976269E+01 -1.770944E-03 -7.359017E-03 -7.704170E-04
         1   4 -2.427845E-03 -2.334492E-03  4.975004E+01 -2.213184E-03  1.017040E-03  5.327443E-04
         1   5 -2.740193E-03 -2.296493E-03  4.977127E+01 -1.976308E-03 -4.402609E-03 -1.973986E-03
         1   6 -2.192074E-03 -2.909025E-03  4.979334E+01 -2.443318E-03 -8.635156E-03 -5.626624E-03
         1   7 -1.808469E-03 -2.849587E-03  4.978294E+01 -1.486411E-03 -3.864678E-03 -4.899133E-03
         1   8 -1.979689E-03 -3.143614E-03  4.980338E+01 -1.119599E-03 -7.342360E-03 -7.923154E-03
         1   9 -1.290443E-03 -4.088173E-03  4.982467E+01 -1.456674E-03 -9.632940E-03 -1.209308E-02
         1  10  3.539740E-03  2.791175E-03  4.976022E+01  2.480928E-03  7.262044E-03  2.294714E-03
         1  11  2.968379E-03  3.448468E-03  4.976058E+01  2.702937E-03  4.726529E-03  3.384957E-03
         1  12  3.257484E-03  3.455228E-03  4.976179E+01  2.221058E-03  3.378114E-03  3.329293E-03
         1  13  3.722332E-03  3.808276E-03  4.976066E+01  1.521484E-03  5.180903E-03  3.617129E-03
         1  14  3.292099E-03  4.133542E-03  4.976024E+01  1.873427E-03  4.587353E-03  4.190082E-03
         1  15  3.722332E-03  3.808276E-03  4.976066E+01  1.521484E-03  5.180903E-03  3.617129E-03
         1  16  3.257484E-03  3.455228E-03  4.976179E+01  2.221058E-03  3.378114E-03  3.329293E-03
         1  17  2.968379E-03  3.448468E-03  4.976058E+01  2.702937E-03  4.726529E-03  3.384957E-03
         1  18  3.539740E-03  2.791175E-03  4.976022E+01  2.480928E-03  7.262044E-03  2.294714E-03
         1  19 -1.290443E-03 -4.088173E-03  4.982467E+01 -1.456674E-03 -9.632940E-03 -1.209308E-02
         1  20 -1.979689E-03 -3.143614E-03  4.980338E+01 -1.119599E-03 -7.342360E-03 -7.923154E-03
         1  21 -1.808469E-03 -2.849587E-03  4.978294E+01 -1.486411E-03 -3.864678E-03 -4.899133E-03
         1  22 -2.192074E-03 -2.909025E-03  4.979334E+01 -2.443318E-03 -8.635156E-03 -5.626624E-03
         1  23 -2.740193E-03 -2.296493E-03  4.977127E+01 -1.976308E-03 -4.402609E-03 -1.973986E-03
         1  24 -2.427845E-03 -2.334492E-03  4.975004E+01 -2.213184E-03  1.017040E-03  5.327443E-04
         1  25 -3.741145E-03 -3.100027E-03  4.976269E+01 -1.770944E-03 -7.359017E-03 -7.704170E-04
         1  26 -4.148136E-03 -2.819521E-03  4.973983E+01 -1.173997E-03 -1.184504E-03  2.364931E-03
         1  27 -3.694660E-03 -3.189548E-03  4.971782E+01 -1.280939E-03  6.177111E-03  4.354372E-03

                                INCREMENT     3


 displacements (vx,vy,vz) for set NALL and time  0.2520000E+01

         2  0.000000E+00  0.000000E+00  0.000000E+00
        10  8.603105E-05  0.000000E+00  0.000000E+00
        11  4.301762E-05 -2.413166E-08  0.000000E+00
        12  2.980441E-05  1.782347E-05  0.000000E+00
        13  5.959601E-05  3.569867E-05  0.000000E+00
        33  1.407276E-04  1.790800E-04  2.099436E-04
        34  2.815639E-04  3.581577E-04  4.200000E-04
        93  1.159199E-04  1.779123E-05  0.000000E+00
        95  1.458085E-04  3.562150E-05  0.000000E+00
        96  1.027153E-04  3.563102E-05  0.000000E+00
       103  2.268459E-04  1.790291E-04  2.097511E-04
       105  3.677764E-04  3.580805E-04  4.200000E-04
       106  3.246572E-04  3.581481E-04  4.200000E-04
       132  2.005265E-04  2.147500E-04  2.102489E-04
       133  3.114525E-04  3.759879E-04  4.200000E-04
       134  3.413414E-04  3.937792E-04  4.200000E-04
       219  2.866449E-04  2.146992E-04  2.100564E-04
       220  3.975680E-04  3.759557E-04  4.200000E-04
       222  4.273724E-04  3.937792E-04  4.200000E-04
       223  3.843548E-04  3.938033E-04  4.200000E-04

 forces (fx,fy,fz) for set NALL and time  0.2520000E+01

         2  5.111634E-15 -2.117359E-15  1.814319E+00
        10  3.245965E-15  2.027099E-15  1.815675E+00
        11 -7.862978E-15  6.407028E-15 -7.254424E+00
        12 -2.229838E-15 -5.893316E-17 -7.263985E+00
        13  6.352205E-16 -2.453089E-15  1.811384E+00
        33 -3.764818E-15  2.250038E-15  4.037142E-15
        34  7.083815E-15 -3.539122E-15 -1.814379E+00
        93  2.103843E-15 -8.040235E-15 -7.256065E+00
        95 -1.163112E-15  3.187453E-15  1.814379E+00
        96 -1.949280E-15  3.236689E-15 -7.265797E+00
       103 -1.078702E-14 -7.953561E-15 -6.503224E-15
       105 -1.692501E-16 -5.177006E-16 -1.811384E+00
       106 -7.535242E-15  1.022416E-14  7.265797E+00
       132  1.118311E-14  1.059997E-14  3.850273E-15
       133 -7.251314E-15 -3.330981E-15  7.256065E+00
       134  1.762533E-15  1.111849E-16 -1.815675E+00
       219  4.978324E-15 -5.738411E-15  4.615225E-15
       220  5.398166E-16 -1.908422E-14  7.263985E+00
       222  1.108172E-15  1.376261E-15 -1.814319E+00
       223  4.960157E-15  1.341286E-14  7.254424E+00

 stresses (elem, integ.pnt.,sxx,syy,szz,sxy,sxz,syz) for set EALL and time  0.2520000E+01

         1   1 -1.130061E-02 -9.747842E-03  8.699690E+01 -3.914393E-03  1.889053E-02  1.330668E-02
         1   2 -1.268994E-02 -8.616525E-03  8.706432E+01 -3.589394E-03 -3.638132E-03  7.226628E-03
         1   3 -1.144754E-02 -9.479304E-03  8.713433E+01 -5.417050E-03 -2.253332E-02 -2.362189E-03
         1   4 -7.430228E-03 -7.133731E-03  8.709552E+01 -6.767519E-03  3.108018E-03  1.628614E-03
         1   5 -8.387157E-03 -7.018502E-03  8.716055E+01 -6.044619E-03 -1.347993E-02 -6.035862E-03
         1   6 -6.712358E-03 -8.897364E-03  8.722816E+01 -7.474369E-03 -2.643441E-02 -1.720912E-02
         1   7 -5.537398E-03 -8.712295E-03  8.719623E+01 -4.546206E-03 -1.182053E-02 -1.497798E-02
         1   8 -6.061923E-03 -9.613147E-03  8.725886E+01 -3.425404E-03 -2.246777E-02 -2.422689E-02
         1   9 -3.954723E-03 -1.250809E-02  8.732407E+01 -4.457247E-03 -2.948152E-02 -3.698460E-02
         1  10  1.083458E-02  8.530393E-03  8.712674E+01  7.588449E-03  2.222969E-02  7.015074E-03
         1  11  9.086312E-03  1.054352E-02  8.712784E+01  8.266877E-03  1.447225E-02  1.035389E-02
         1  12  9.969767E-03  1.056255E-02  8.713153E+01  6.792649E-03  1.034828E-02  1.018393E-02
         1  13  1.139095E-02  1.164281E-02  8.712809E+01  4.653328E-03  1.586201E-02  1.106377E-02
         1  14  1.007509E-02  1.263985E-02  8.712680E+01  5.729656E-03  1.404527E-02  1.281815E-02
         1  15  1.139095E-02  1.164281E-02  8.712809E+01  4.653328E-03  1.586201E-02  1.106377E-02
         1  16  9.969767E-03  1.056255E-02  8.713153E+01  6.792649E-03  1.034828E-02  1.018393E-02
         1  17  9.086312E-03  1.054352E-02  8.712784E+01  8.266877E-03  1.447225E-02  1.035389E-02
         1  18  1.083458E-02  8.530393E-03  8.712674E+01  7.588449E-03  2.222969E-02  7.015074E-03
         1  19 -3.954723E-03 -1.250809E-02  8.732407E+01 -4.457247E-03 -2.948152E-02 -3.698460E-02
         1  20 -6.061923E-03 -9.613147E-03  8.725886E+01 -3.425404E-03 -2.246777E-02 -2.422689E-02
         1  21 -5.537398E-03 -8.712295E-03  8.719623E+01 -4.546206E-03 -1.182053E-02 -1.497798E-02
         1  22 -6.712358E-03 -8.897364E-03  8.722816E+01 -7.474369E-03 -2.643441E-02 -1.720912E-02
         1  23 -8.387157E-03 -7.018502E-03  8.716055E+01 -6.044619E-03 -1.347993E-02 -6.035862E-03
         1  24 -7.430228E-03 -7.133731E-03  8.709552E+01 -6.767519E-03  3.108018E-03  1.628614E-03
         1  25 -1.144754E-02 -9.479304E-03  8.713433E+01 -5.417050E-03 -2.253332E-02 -2.362189E-03
         1  26 -1.268994E-02 -8.616525E-03  8.706432E+01 -3.589394E-03 -3.638132E-03  7.226628E-03
         1  27 -1.130061E-02 -9.747842E-03  8.699690E+01 -3.914393E-03  1.889053E-02  1.330668E-02

                                INCREMENT     4


 displacements (vx,vy,vz) for set NALL and time  0.4140000E+01

         2  0.000000E+00  0.000000E+00  0.000000E+00
        10  1.412682E-04  0.000000E+00  0.000000E+00
        11  7.063976E-05 -6.504505E-08  0.000000E+00
        12  4.883718E-05  2.930602E-05  0.000000E+00
        13  9.763987E-05  5.875149E-05  0.000000E+00
        33  2.309274E-04  2.937062E-04  3.448482E-04
        34  4.621480E-04  5.874058E-04  6.900000E-04
        93  1.903330E-04  2.921906E-05  0.000000E+00
        95  2.393969E-04  5.854336E-05  0.000000E+00
        96  1.685534E-04  5.856910E-05  0.000000E+00
       103  3.724310E-04  2.935689E-04  3.443292E-04
       105  6.039050E-04  5.871976E-04  6.900000E-04
       106  5.329914E-04  5.873800E-04  6.900000E-04
       132  3.291139E-04  3.523802E-04  3.456708E-04
       133  5.112118E-04  6.167301E-04  6.900000E-04
       134  5.602766E-04  6.459491E-04  6.900000E-04
       219  4.706174E-04  3.522429E-04  3.451518E-04
       220  6.527077E-04  6.166431E-04  6.900000E-04
       222  7.015448E-04  6.459491E-04  6.900000E-04
       223  6.309051E-04  6.460142E-04  6.900000E-04

 forces (fx,fy,fz) for set NALL and time  0.4140000E+01

         2  3.178000E-15 -5.237699E-15  2.982177E+00
        10  5.672722E-15 -2.364814E-15  2.985837E+00
        11 -5.731879E-15  7.509543E-15 -1.192102E+01
        12 -5.200809E-15  4.154500E-15 -1.194682E+01
        13  3.700761E-15  3.557918E-15  2.974257E+00
        33  4.242009E-15  2.695977E-15  1.420760E-14
        34 -1.767029E-15 -3.091138E-15 -2.982343E+00
        93 -5.092948E-15 -5.240532E-15 -1.192544E+01
        95  4.054753E-15  4.881661E-15  2.982343E+00
        96 -2.110535E-15 -5.166278E-15 -1.195169E+01
       103 -6.319198E-15  5.667677E-15  1.973499E-15
       105  7.158572E-15  7.379270E-15 -2.974257E+00
       106 -1.300016E-15  3.794044E-15  1.195169E+01
       132  3.832004E-15 -4.474502E-15  5.199400E-15
       133 -2.448942E-16  4.285201E-15  1.192544E+01
       134  4.368251E-16  3.551955E-15 -2.985837E+00
       219 -7.782295E-15 -4.753278E-15 -3.982627E-15
       220  1.446224E-16 -5.364453E-15  1.194682E+01
       222  1.012957E-15  5.077793E-15 -2.982177E+00
       223  2.119426E-15 -1.685251E-14  1.192102E+01

 stresses (elem, integ.pnt.,sxx,syy,szz,sxy,sxz,syz) for set EALL and time  0.4140000E+01

         1   1 -3.044239E-02 -2.622793E-02  1.429006E+02 -1.053065E-02  5.087654E-02  3.579902E-02
         1   2 -3.419443E-02 -2.318216E-02  1.430826E+02 -9.663595E-03 -9.861934E-03  1.944007E-02
         1   3 -3.085741E-02 -2.552580E-02  1.432715E+02 -1.459438E-02 -6.080201E-02 -6.386666E-03
         1   4 -2.003360E-02 -1.919063E-02  1.431666E+02 -1.822353E-02  8.361570E-03  4.383782E-03
         1   5 -2.261779E-02 -1.888425E-02  1.433421E+02 -1.628267E-02 -3.636961E-02 -1.625242E-02
         1   6 -1.811295E-02 -2.396725E-02  1.435246E+02 -2.013960E-02 -7.130231E-02 -4.635646E-02
         1   7 -1.494106E-02 -2.345546E-02  1.434382E+02 -1.224613E-02 -3.184250E-02 -4.032188E-02
         1   8 -1.635741E-02 -2.588842E-02  1.436073E+02 -9.231454E-03 -6.056632E-02 -6.523540E-02
         1   9 -1.068476E-02 -3.371073E-02  1.437833E+02 -1.201454E-02 -7.949162E-02 -9.961684E-02
         1  10  2.921849E-02  2.295241E-02  1.432509E+02  2.044307E-02  5.995559E-02  1.888313E-02
         1  11  2.450614E-02  2.838645E-02  1.432539E+02  2.226819E-02  3.904911E-02  2.789429E-02
         1  12  2.688278E-02  2.843107E-02  1.432638E+02  1.829547E-02  2.794106E-02  2.743763E-02
         1  13  3.070874E-02  3.134278E-02  1.432546E+02  1.253412E-02  4.279292E-02  2.980559E-02
         1  14  2.716425E-02  3.403748E-02  1.432511E+02  1.543303E-02  3.789370E-02  3.453949E-02
         1  15  3.070874E-02  3.134278E-02  1.432546E+02  1.253412E-02  4.279292E-02  2.980559E-02
         1  16  2.688278E-02  2.843107E-02  1.432638E+02  1.829547E-02  2.794106E-02  2.743763E-02
         1  17  2.450614E-02  2.838645E-02  1.432539E+02  2.226819E-02  3.904911E-02  2.789429E-02
         1  18  2.921849E-02  2.295241E-02  1.432509E+02  2.044307E-02  5.995559E-02  1.888313E-02
         1  19 -1.068476E-02 -3.371073E-02  1.437833E+02 -1.201454E-02 -7.949162E-02 -9.961684E-02
         1  20 -1.635741E-02 -2.588842E-02  1.436073E+02 -9.231454E-03 -6.056632E-02 -6.523540E-02
         1  21 -1.494106E-02 -2.345546E-02  1.434382E+02 -1.224613E-02 -3.184250E-02 -4.032188E-02
         1  22 -1.811295E-02 -2.396725E-02  1.435246E+02 -2.013960E-02 -7.130231E-02 -4.635646E-02
         1  23 -2.261779E-02 -1.888425E-02  1.433421E+02 -1.628267E-02 -3.636961E-02 -1.625242E-02
         1  24 -2.003360E-02 -1.919063E-02  1.431666E+02 -1.822353E-02  8.361570E-03  4.383782E-03
         1  25 -3.085741E-02 -2.552580E-02  1.432715E+02 -1.459438E-02 -6.080201E-02 -6.386666E-03
         1  26 -3.419443E-02 -2.318216E-02  1.430826E+02 -9.663595E-03 -9.861934E-03  1.944007E-02
         1  27 -3.044239E-02 -2.622793E-02  1.429006E+02 -1.053065E-02  5.087654E-02  3.579902E-02

                                INCREMENT     5


 displacements (vx,vy,vz) for set NALL and time  0.6570000E+01

         2  0.000000E+00  0.000000E+00  0.000000E+00
        10  2.238247E-04  0.000000E+00  0.000000E+00
        11  1.119323E-04 -1.673520E-07  0.000000E+00
        12  7.638172E-05  4.585625E-05  0.000000E+00
        13  1.526926E-04  9.202332E-05  0.000000E+00
        33  3.638085E-04  4.627938E-04  5.471075E-04
        34  7.283566E-04  9.255569E-04  1.095000E-03
        93  3.008236E-04  4.570068E-05  0.000000E+00
        95  3.778284E-04  9.162496E-05  0.000000E+00
        96  2.653571E-04  9.162201E-05  0.000000E+00
       103  5.882777E-04  4.624540E-04  5.457190E-04
       105  9.534924E-04  9.251585E-04  1.095000E-03
       106  8.408279E-04  9.255598E-04  1.095000E-03
       132  5.179073E-04  5.547278E-04  5.492810E-04
       133  8.053614E-04  9.714811E-04  1.095000E-03
       134  8.823603E-04  1.017182E-03  1.095000E-03
       219  7.423766E-04  5.543880E-04  5.478925E-04
       220  1.029803E-03  9.713256E-04  1.095000E-03
       222  1.106185E-03  1.017182E-03  1.095000E-03
       223  9.942527E-04  1.017349E-03  1.095000E-03

 forces (fx,fy,fz) for set NALL and time  0.6570000E+01

         2  6.721507E-09  6.618277E-09  4.722326E+00
        10  1.980252E-08  2.550749E-08  4.731833E+00
        11 -3.816465E-08 -4.595202E-08 -1.886995E+01
        12  3.406789E-09  1.488833E-08 -1.893497E+01
        13 -3.616840E-09 -5.750559E-09  4.703227E+00
        33 -9.984962E-09 -9.688551E-09  8.457168E-09
        34 -1.771715E-09 -1.902979E-09 -4.722814E+00
        93 -3.125857E-08 -3.975264E-08 -1.888132E+01
        95  1.777249E-09  1.911638E-09  4.722814E+00
        96  1.626070E-08  2.839013E-08 -1.894690E+01
       103 -4.540179E-08 -6.310730E-08 -1.532202E-08
       105  3.624785E-09  5.763749E-09 -4.703227E+00
       106 -1.623301E-08 -2.834483E-08  1.894690E+01
       132  4.540966E-08  6.311255E-08  1.530115E-08
       133  3.121659E-08  3.969718E-08  1.888132E+01
       134 -1.981765E-08 -2.552973E-08 -4.731833E+00
       219  9.987430E-09  9.688656E-09 -8.469179E-09
       220 -3.454183E-09 -1.495838E-08  1.893497E+01
       222 -6.707071E-09 -6.599092E-09 -4.722326E+00
       223  3.820321E-08  4.600809E-08  1.886995E+01

 stresses (elem, integ.pnt.,sxx,syy,szz,sxy,sxz,syz) for set EALL and time  0.6570000E+01

         1   1 -7.539739E-02 -6.214738E-02  2.260510E+02 -2.374296E-02  1.226402E-01  8.169188E-02
         1   2 -8.588648E-02 -5.458914E-02  2.265088E+02 -2.146179E-02 -3.114276E-02  4.418397E-02
         1   3 -7.618362E-02 -5.959269E-02  2.269817E+02 -3.389336E-02 -1.569503E-01 -1.727810E-02
         1   4 -4.901921E-02 -4.769601E-02  2.267184E+02 -4.232134E-02  2.011507E-02  3.920197E-03
         1   5 -5.639055E-02 -4.635123E-02  2.271578E+02 -3.738037E-02 -9.147009E-02 -4.247638E-02
         1   6 -4.358148E-02 -5.759052E-02  2.276122E+02 -4.717639E-02 -1.750911E-01 -1.128307E-01
         1   7 -3.496360E-02 -5.557963E-02  2.273953E+02 -2.831675E-02 -7.833929E-02 -1.023457E-01
         1   8 -3.923986E-02 -6.048943E-02  2.278163E+02 -2.077517E-02 -1.477508E-01 -1.576325E-01
         1   9 -2.334529E-02 -7.800098E-02  2.282524E+02 -2.799372E-02 -1.892080E-01 -2.368788E-01
         1  10  7.225299E-02  5.518940E-02  2.269444E+02  4.686686E-02  1.521971E-01  5.041168E-02
         1  11  5.939389E-02  6.853737E-02  2.269542E+02  5.186318E-02  9.633329E-02  7.160224E-02
         1  12  6.652547E-02  6.884162E-02  2.269796E+02  4.196934E-02  6.826185E-02  6.865785E-02
         1  13  7.573575E-02  7.363384E-02  2.269566E+02  2.826903E-02  1.083610E-01  7.395839E-02
         1  14  6.574093E-02  8.015687E-02  2.269488E+02  3.571456E-02  9.446524E-02  8.602629E-02
         1  15  7.573575E-02  7.363384E-02  2.269566E+02  2.826903E-02  1.083610E-01  7.395839E-02
         1  16  6.652547E-02  6.884162E-02  2.269796E+02  4.196934E-02  6.826185E-02  6.865785E-02
         1  17  5.939389E-02  6.853737E-02  2.269542E+02  5.186318E-02  9.633329E-02  7.160224E-02
         1  18  7.225299E-02  5.518940E-02  2.269444E+02  4.686686E-02  1.521971E-01  5.041168E-02
         1  19 -2.334529E-02 -7.800098E-02  2.282524E+02 -2.799372E-02 -1.892080E-01 -2.368788E-01
         1  20 -3.923986E-02 -6.048943E-02  2.278163E+02 -2.077517E-02 -1.477508E-01 -1.576325E-01
         1  21 -3.496360E-02 -5.557963E-02  2.273953E+02 -2.831675E-02 -7.833929E-02 -1.023457E-01
         1  22 -4.358148E-02 -5.759052E-02  2.276122E+02 -4.717639E-02 -1.750911E-01 -1.128307E-01
         1  23 -5.639055E-02 -4.635123E-02  2.271578E+02 -3.738037E-02 -9.147009E-02 -4.247638E-02
         1  24 -4.901921E-02 -4.769601E-02  2.267184E+02 -4.232134E-02  2.011507E-02  3.920197E-03
         1  25 -7.618362E-02 -5.959269E-02  2.269817E+02 -3.389336E-02 -1.569503E-01 -1.727810E-02
         1  26 -8.588648E-02 -5.458914E-02  2.265088E+02 -2.146179E-02 -3.114276E-02  4.418397E-02
         1  27 -7.539739E-02 -6.214738E-02  2.260510E+02 -2.374297E-02  1.226402E-01  8.169188E-02

                                INCREMENT     6


 displacements (vx,vy,vz) for set NALL and time  0.1021500E+02

         2  0.000000E+00  0.000000E+00  0.000000E+00
        10  3.426572E-04  0.000000E+00  0.000000E+00
        11  1.715034E-04 -5.546501E-07  0.000000E+00
        12  1.009904E-04  4.822722E-05  0.000000E+00
        13  2.024882E-04  9.631999E-05  0.000000E+00
        33  5.019785E-04  6.415763E-04  8.500760E-04
        34  1.005602E-03  1.283026E-03  1.702500E-03
        93  4.459677E-04  4.914988E-05  0.000000E+00
        95  5.497546E-04  9.788453E-05  0.000000E+00
        96  3.765058E-04  9.644931E-05  0.000000E+00
       103  8.472096E-04  6.414724E-04  8.454836E-04
       105  1.352868E-03  1.284590E-03  1.702500E-03
       106  1.178850E-03  1.284461E-03  1.702500E-03
       132  7.081466E-04  7.394380E-04  8.570164E-04
       133  1.109388E-03  1.331760E-03  1.702500E-03
       134  1.212699E-03  1.380910E-03  1.702500E-03
       219  1.053378E-03  7.393340E-04  8.524240E-04
       220  1.454366E-03  1.332683E-03  1.702500E-03
       222  1.555356E-03  1.380910E-03  1.702500E-03
       223  1.383853E-03  1.381465E-03  1.702500E-03

 forces (fx,fy,fz) for set NALL and time  0.1021500E+02

         2 -1.005135E-08 -3.575973E-08  6.877173E+00
        10 -3.819537E-08 -6.510874E-08  6.903599E+00
        11  3.800837E-08  1.342496E-07 -2.746570E+01
        12  5.300591E-10  3.006492E-08 -2.760503E+01
        13 -1.043438E-09  5.019576E-09  6.848683E+00
        33 -8.517544E-09  8.356251E-08  6.098053E-09
        34  1.104637E-08 -5.973630E-09 -6.880070E+00
        93  6.748025E-08  6.959753E-08 -2.749615E+01
        95 -1.185325E-08  5.412688E-09  6.880070E+00
        96 -1.342813E-09 -7.483718E-08 -2.762605E+01
       103  6.169292E-08  1.303997E-07  4.913046E-08
       105  6.645649E-11 -6.168224E-09 -6.848683E+00
       106 -5.160924E-13  7.331330E-08  2.762605E+01
       132 -6.235151E-08 -1.309005E-07 -4.787212E-08
       133 -6.487222E-08 -6.691717E-08  2.749615E+01
       134  3.847007E-08  6.588799E-08 -6.903599E+00
       219  8.488016E-09 -8.298593E-08 -5.479436E-09
       220  2.346068E-09 -2.735385E-08  2.760503E+01
       222  9.035148E-09  3.456289E-08 -6.877173E+00
       223 -3.893571E-08 -1.360658E-07  2.746570E+01

 stresses (elem, integ.pnt.,sxx,syy,szz,sxy,sxz,syz) for set EALL and time  0.1021500E+02

         1   1 -1.503998E-01 -8.032005E-02  3.287918E+02  7.626572E-03  1.358376E-01  4.049245E-03
         1   2 -1.877521E-01 -4.102364E-02  3.296902E+02  8.236490E-03 -2.051297E-01  1.043836E-03
         1   3 -1.422688E-01 -4.236740E-02  3.306103E+02 -2.532694E-02 -4.231974E-01 -8.100600E-02
         1   4 -7.235319E-02 -9.897977E-02  3.301207E+02 -3.202166E-02  2.592767E-02 -1.281167E-01
         1   5 -1.013560E-01 -6.659440E-02  3.309733E+02 -2.274583E-02 -1.962324E-01 -1.243904E-01
         1   6 -4.820124E-02 -7.500826E-02  3.318483E+02 -4.776967E-02 -2.964172E-01 -1.997382E-01
         1   7 -3.370324E-02 -6.092204E-02  3.314424E+02 -2.729962E-02 -1.720927E-01 -2.333512E-01
         1   8 -5.485056E-02 -3.612332E-02  3.322503E+02 -9.716878E-03 -2.760484E-01 -2.231208E-01
         1   9  5.550109E-03 -5.222358E-02  3.330813E+02 -2.653303E-02 -2.588766E-01 -2.919735E-01
         1  10  1.266051E-01  6.901632E-02  3.307634E+02  3.543403E-02  3.568720E-01  1.662622E-01
         1  11  8.010451E-02  1.013208E-01  3.307902E+02  4.444623E-02  1.799591E-01  2.013425E-01
         1  12  1.144315E-01  9.032590E-02  3.308432E+02  1.890941E-02  1.237691E-01  1.562062E-01
         1  13  1.417852E-01  5.412970E-02  3.308025E+02  5.137823E-03  2.858537E-01  1.491049E-01
         1  14  1.013869E-01  7.578833E-02  3.307894E+02  2.241706E-02  2.255105E-01  1.892161E-01
         1  15  1.417852E-01  5.412970E-02  3.308025E+02  5.137824E-03  2.858537E-01  1.491049E-01
         1  16  1.144315E-01  9.032588E-02  3.308432E+02  1.890939E-02  1.237691E-01  1.562061E-01
         1  17  8.010450E-02  1.013208E-01  3.307902E+02  4.444621E-02  1.799591E-01  2.013425E-01
         1  18  1.266051E-01  6.901631E-02  3.307634E+02  3.543401E-02  3.568720E-01  1.662622E-01
         1  19  5.550118E-03 -5.222357E-02  3.330813E+02 -2.653301E-02 -2.588766E-01 -2.919735E-01
         1  20 -5.485055E-02 -3.612331E-02  3.322503E+02 -9.716860E-03 -2.760484E-01 -2.231208E-01
         1  21 -3.370323E-02 -6.092202E-02  3.314424E+02 -2.729960E-02 -1.720927E-01 -2.333512E-01
         1  22 -4.820124E-02 -7.500828E-02  3.318483E+02 -4.776968E-02 -2.964172E-01 -1.997382E-01
         1  23 -1.013560E-01 -6.659440E-02  3.309733E+02 -2.274582E-02 -1.962324E-01 -1.243904E-01
         1  24 -7.235318E-02 -9.897975E-02  3.301207E+02 -3.202164E-02  2.592766E-02 -1.281167E-01
         1  25 -1.422688E-01 -4.236745E-02  3.306103E+02 -2.532696E-02 -4.231974E-01 -8.100601E-02
         1  26 -1.877521E-01 -4.102364E-02  3.296902E+02  8.236494E-03 -2.051297E-01  1.043835E-03
         1  27 -1.503998E-01 -8.032001E-02  3.287918E+02  7.626600E-03  1.358376E-01  4.049256E-03

                                INCREMENT     7


 displacements (vx,vy,vz) for set NALL and time  0.1568250E+02

         2  0.000000E+00  0.000000E+00  0.000000E+00
        10  5.140069E-04  0.000000E+00  0.000000E+00
        11  2.577339E-04 -1.233880E-06  0.000000E+00
        12  9.720332E-05 -1.567715E-05  0.000000E+00
        13  1.962866E-04 -3.365429E-05  0.000000E+00
        33  5.218134E-04  6.821352E-04  1.304183E-03
        34  1.045587E-03  1.363617E-03  2.613750E-03
        93  6.174387E-04 -1.123120E-05  0.000000E+00
        95  7.223339E-04 -2.550044E-05  0.000000E+00
        96  4.604070E-04 -3.106083E-05  0.000000E+00
       103  1.043128E-03  6.839265E-04  1.293153E-03
       105  1.571634E-03  1.371771E-03  2.613750E-03
       106  1.307513E-03  1.369177E-03  2.613750E-03
       132  7.247925E-04  6.541901E-04  1.320597E-03
       133  1.150482E-03  1.349348E-03  2.613750E-03
       134  1.253914E-03  1.338117E-03  2.613750E-03
       219  1.246107E-03  6.559814E-04  1.309567E-03
       220  1.670717E-03  1.353794E-03  2.613750E-03
       222  1.767920E-03  1.338117E-03  2.613750E-03
       223  1.510187E-03  1.339350E-03  2.613750E-03

 forces (fx,fy,fz) for set NALL and time  0.1568250E+02

         2  2.673439E-05 -1.380709E-05  8.649686E+00
        10  3.825501E-05  4.322150E-05  8.697088E+00
        11 -1.197685E-04 -5.334128E-05 -3.452033E+01
        12  5.193443E-06  1.109583E-04 -3.471785E+01
        13 -2.712984E-05 -3.946235E-05  8.629617E+00
        33 -8.835538E-05  5.247467E-05  3.177443E-05
        34  1.782586E-05 -1.283878E-05 -8.654532E+00
        93 -3.628774E-05 -1.071489E-04 -3.457153E+01
        95 -1.754932E-05  1.263617E-05  8.654532E+00
        96  9.776031E-05  5.998360E-05 -3.474200E+01
       103 -1.300471E-04 -1.650914E-04 -1.169731E-05
       105  2.747086E-05  3.952756E-05 -8.629617E+00
       106 -9.744256E-05 -5.933878E-05  3.474200E+01
       132  1.300126E-04  1.652693E-04  1.135806E-05
       133  3.571124E-05  1.067636E-04  3.457153E+01
       134 -3.825078E-05 -4.359168E-05 -8.697088E+00
       219  8.855612E-05 -5.263015E-05 -3.219774E-05
       220 -5.905643E-06 -1.109560E-04  3.471785E+01
       222 -2.643282E-05  1.352543E-05 -8.649686E+00
       223  1.196498E-04  5.384619E-05  3.452033E+01

 stresses (elem, integ.pnt.,sxx,syy,szz,sxy,sxz,syz) for set EALL and time  0.1568250E+02

         1   1 -1.594536E-01 -1.968738E-02  4.135443E+02  1.230174E-01 -1.257477E-01 -3.988010E-01
         1   2 -2.322130E-01  6.821924E-02  4.145467E+02  1.191829E-01 -5.595282E-01 -2.451853E-01
         1   3 -1.307163E-01  9.812409E-02  4.155951E+02  6.405807E-02 -7.277954E-01 -2.588728E-01
         1   4 -2.375166E-02 -8.560151E-02  4.150935E+02  5.986819E-02 -8.774787E-02 -4.854445E-01
         1   5 -8.377084E-02 -5.063484E-03  4.160952E+02  6.939828E-02 -3.112650E-01 -2.775695E-01
         1   6  2.855444E-02  1.810210E-02  4.171443E+02  2.731683E-02 -2.723461E-01 -2.365323E-01
         1   7  5.662994E-02  2.983555E-02  4.166534E+02  4.843163E-02 -2.947276E-01 -4.022339E-01
         1   8  8.817444E-03  1.016044E-01  4.176565E+02  7.038523E-02 -3.089222E-01 -1.406532E-01
         1   9  1.314913E-01  1.167888E-01  4.187079E+02  4.062436E-02 -6.377646E-02 -4.541487E-02
         1  10  9.899147E-02 -2.294654E-02  4.162007E+02 -7.551957E-02  5.934901E-01  3.986172E-01
         1  11  3.634650E-03  2.005170E-02  4.161673E+02 -5.948226E-02  2.555744E-01  4.297944E-01
         1  12  7.948910E-02  2.056219E-03  4.161859E+02 -9.660136E-02  1.793225E-01  2.930513E-01
         1  13  1.192668E-01 -9.729911E-02  4.161818E+02 -1.102978E-01  5.110309E-01  2.622126E-01
         1  14  3.366096E-02 -6.676724E-02  4.161558E+02 -8.367100E-02  3.801768E-01  3.461799E-01
         1  15  1.192664E-01 -9.729960E-02  4.161818E+02 -1.103002E-01  5.110309E-01  2.622127E-01
         1  16  7.949122E-02  2.057357E-03  4.161859E+02 -9.659607E-02  1.793236E-01  2.930497E-01
         1  17  3.636085E-03  2.005264E-02  4.161673E+02 -5.947931E-02  2.555748E-01  4.297931E-01
         1  18  9.899236E-02 -2.294599E-02  4.162007E+02 -7.551884E-02  5.934902E-01  3.986157E-01
         1  19  1.314895E-01  1.167840E-01  4.187079E+02  4.061782E-02 -6.377648E-02 -4.541305E-02
         1  20  8.816350E-03  1.016020E-01  4.176565E+02  7.037882E-02 -3.089228E-01 -1.406521E-01
         1  21  5.662867E-02  2.983194E-02  4.166534E+02  4.842510E-02 -2.947279E-01 -4.022334E-01
         1  22  2.855440E-02  1.809998E-02  4.171443E+02  2.731641E-02 -2.723466E-01 -2.365324E-01
         1  23 -8.377081E-02 -5.064668E-03  4.160952E+02  6.939496E-02 -3.112659E-01 -2.775696E-01
         1  24 -2.375231E-02 -8.560545E-02  4.150935E+02  5.986182E-02 -8.774795E-02 -4.854449E-01
         1  25 -1.307171E-01  9.812360E-02  4.155951E+02  6.406340E-02 -7.277964E-01 -2.588746E-01
         1  26 -2.322148E-01  6.821866E-02  4.145467E+02  1.191824E-01 -5.595301E-01 -2.451863E-01
         1  27 -1.594569E-01 -1.969192E-02  4.135443E+02  1.230111E-01 -1.257492E-01 -3.988020E-01

                                INCREMENT     8


 displacements (vx,vy,vz) for set NALL and time  0.2388375E+02

         2  0.000000E+00  0.000000E+00  0.000000E+00
        10  7.671056E-04  0.000000E+00  0.000000E+00
        11  3.847261E-04 -1.240979E-06  0.000000E+00
        12  2.393584E-05 -1.856929E-04  0.000000E+00
        13  4.940336E-05 -3.765271E-04  0.000000E+00
        33  3.385871E-04  5.114014E-04  1.985637E-03
        34  6.769811E-04  1.022120E-03  3.980625E-03
        93  8.000622E-04 -1.783941E-04  0.000000E+00
        95  8.339348E-04 -3.629858E-04  0.000000E+00
        96  4.432300E-04 -3.713655E-04  0.000000E+00
       103  1.116507E-03  5.161059E-04  1.971355E-03
       105  1.461514E-03  1.035664E-03  3.980625E-03
       106  1.067686E-03  1.030501E-03  3.980625E-03
       132  3.944102E-04  1.430290E-04  2.009269E-03
       133  7.108528E-04  8.375273E-04  3.980625E-03
       134  7.438090E-04  6.591320E-04  3.980625E-03
       219  1.172330E-03  1.477335E-04  1.994986E-03
       220  1.486980E-03  8.448285E-04  3.980625E-03
       222  1.510916E-03  6.591348E-04  3.980625E-03
       223  1.126189E-03  6.603745E-04  3.980625E-03

 forces (fx,fy,fz) for set NALL and time  0.2388375E+02

         2 -1.248640E-04  1.121812E-04  9.693174E+00
        10 -1.724412E-04 -1.618134E-04  9.733106E+00
        11  5.414993E-04  6.301175E-05 -3.865717E+01
        12 -1.523696E-05 -5.550149E-04 -3.882848E+01
        13  1.261518E-04  1.557135E-04  9.688515E+00
        33  4.412071E-04 -4.037657E-04 -2.168017E-04
        34 -8.821509E-05  9.029383E-05 -9.691435E+00
        93  1.228409E-04  4.454254E-04 -3.871185E+01
        95  9.821829E-05 -9.145738E-05  9.691434E+00
        96 -4.545706E-04 -1.501203E-04 -3.884967E+01
       103  5.821733E-04  6.175517E-04 -5.674199E-05
       105 -1.147783E-04 -1.471375E-04 -9.688518E+00
       106  4.692543E-04  1.605099E-04  3.884967E+01
       132 -5.785586E-04 -6.141906E-04  4.197555E-05
       133 -1.405665E-04 -4.624270E-04  3.871186E+01
       134  1.742853E-04  1.559660E-04 -9.733110E+00
       219 -4.386444E-04  3.965956E-04  2.017647E-04
       220 -1.250467E-06  5.666696E-04  3.882849E+01
       222  1.296334E-04 -1.102008E-04 -9.693172E+00
       223 -5.561375E-04 -6.779093E-05  3.865717E+01

 stresses (elem, integ.pnt.,sxx,syy,szz,sxy,sxz,syz) for set EALL and time  0.2388375E+02

         1   1 -5.120251E-02  7.946103E-02  4.643461E+02  1.437379E-01 -3.635259E-01 -7.234599E-01
         1   2 -1.199785E-01  1.409403E-01  4.648487E+02  1.610253E-01 -6.168858E-01 -5.174741E-01
         1   3 -2.950862E-02  2.122409E-01  4.654222E+02  1.172142E-01 -6.344560E-01 -4.570368E-01
         1   4  5.007399E-02  5.238858E-02  4.653156E+02  1.101696E-01 -2.729493E-01 -6.752392E-01
         1   5 -5.859236E-03  1.076106E-01  4.659072E+02  1.263561E-01 -3.139588E-01 -3.800717E-01
         1   6  9.662788E-02  1.733459E-01  4.665696E+02  8.134911E-02 -1.210537E-01 -2.300609E-01
         1   7  1.625063E-01  1.410981E-01  4.663615E+02  1.144135E-01 -3.418661E-01 -3.824530E-01
         1   8  1.195560E-01  1.894727E-01  4.670424E+02  1.291736E-01 -1.711299E-01  1.358689E-03
         1   9  2.342776E-01  2.491132E-01  4.677941E+02  8.278460E-02  2.315104E-01  2.404159E-01
         1  10 -2.790633E-03 -1.611787E-01  4.662618E+02 -1.647899E-01  5.937260E-01  5.529837E-01
         1  11 -9.460653E-02 -1.568624E-01  4.661343E+02 -1.312756E-01  2.647598E-01  5.370679E-01
         1  12 -2.761729E-02 -1.441191E-01  4.660791E+02 -1.595890E-01  1.705289E-01  3.755525E-01
         1  13 -1.980788E-02 -2.090446E-01  4.661301E+02 -1.801636E-01  4.626060E-01  3.423275E-01
         1  14 -9.919727E-02 -2.132383E-01  4.660938E+02 -1.492234E-01  3.451761E-01  4.151271E-01
         1  15 -1.980528E-02 -2.090390E-01  4.661301E+02 -1.801751E-01  4.625753E-01  3.423157E-01
         1  16 -2.758219E-02 -1.441300E-01  4.660792E+02 -1.594968E-01  1.705931E-01  3.754876E-01
         1  17 -9.457421E-02 -1.568618E-01  4.661343E+02 -1.311935E-01  2.647814E-01  5.369965E-01
         1  18 -2.754455E-03 -1.611737E-01  4.662618E+02 -1.647196E-01  5.937196E-01  5.528990E-01
         1  19  2.342553E-01  2.490060E-01  4.677942E+02  8.250374E-02  2.315269E-01  2.405235E-01
         1  20  1.195461E-01  1.893653E-01  4.670425E+02  1.288935E-01 -1.711218E-01  1.434681E-03
         1  21  1.624896E-01  1.409619E-01  4.663617E+02  1.141500E-01 -3.418756E-01 -3.824052E-01
         1  22  9.661889E-02  1.732962E-01  4.665698E+02  8.116471E-02 -1.210725E-01 -2.300009E-01
         1  23 -5.862153E-03  1.075329E-01  4.659073E+02  1.261497E-01 -3.139866E-01 -3.800533E-01
         1  24  5.006456E-02  5.224697E-02  4.653157E+02  1.099556E-01 -2.729811E-01 -6.752660E-01
         1  25 -2.953397E-02  2.122352E-01  4.654224E+02  1.171335E-01 -6.345093E-01 -4.570272E-01
         1  26 -1.200083E-01  1.408835E-01  4.648489E+02  1.609010E-01 -6.169582E-01 -5.175121E-01
         1  27 -5.124279E-02  7.931002E-02  4.643461E+02  1.435826E-01 -3.635978E-01 -7.235559E-01

                                INCREMENT     9


 displacements (vx,vy,vz) for set NALL and time  0.3618563E+02

         2  0.000000E+00  0.000000E+00  0.000000E+00
        10  1.126522E-03  0.000000E+00  0.000000E+00
        11  5.639146E-04 -5.311850E-07  0.000000E+00
        12 -1.558906E-04 -4.977839E-04  0.000000E+00
        13 -3.128900E-04 -9.997887E-04  0.000000E+00
        33 -2.272942E-05  1.138610E-04  3.010977E-03
        34 -4.951055E-05  2.277540E-04  6.030938E-03
        93  9.756083E-04 -4.947664E-04  0.000000E+00
        95  8.236790E-04 -9.943440E-04  0.000000E+00
        96  2.562425E-04 -9.977745E-04  0.000000E+00
       103  1.109594E-03  1.170971E-04  3.005599E-03
       105  1.087065E-03  2.332132E-04  6.030938E-03
       106  5.179292E-04  2.311910E-04  6.030938E-03
       132 -3.354199E-04 -8.836844E-04  3.025332E-03
       133 -2.014449E-04 -2.718310E-04  6.030938E-03
       134 -3.523587E-04 -7.666037E-04  6.030938E-03
       219  7.969039E-04 -8.804470E-04  3.019949E-03
       220  9.300595E-04 -2.687954E-04  6.030938E-03
       222  7.741668E-04 -7.665844E-04  6.030938E-03
       223  2.102496E-04 -7.660642E-04  6.030938E-03

 forces (fx,fy,fz) for set NALL and time  0.3618563E+02

         2 -2.408182E-04  7.376081E-04  1.028229E+01
        10 -4.728806E-04 -3.872560E-04  1.027725E+01
        11  3.749995E-03 -4.828912E-04 -4.103698E+01
        12 -9.039157E-04 -4.203805E-03 -4.106542E+01
        13  9.606431E-04  9.392837E-04  1.028100E+01
        33  2.327118E-03 -3.074855E-03 -1.514931E-03
        34 -8.576525E-04  8.521893E-04 -1.027137E+01
        93 -7.340028E-05  2.400700E-03 -4.106096E+01
        95  8.860557E-04 -8.299721E-04  1.027134E+01
        96 -2.764964E-03  1.467957E-05 -4.108423E+01
       103  3.663402E-03  3.141488E-03 -3.165020E-04
       105 -9.174610E-04 -8.788793E-04 -1.028104E+01
       106  2.815654E-03 -5.043114E-05  4.108426E+01
       132 -3.609754E-03 -3.141829E-03  2.643144E-04
       133 -7.284262E-06 -2.461950E-03  4.106100E+01
       134  4.847588E-04  4.073248E-04 -1.027729E+01
       219 -2.321713E-03  3.035974E-03  1.471855E-03
       220  8.565963E-04  4.273365E-03  4.106549E+01
       222  2.440354E-04 -6.887885E-04 -1.028229E+01
       223 -3.818416E-03  3.980468E-04  4.103703E+01

 stresses (elem, integ.pnt.,sxx,syy,szz,sxy,sxz,syz) for set EALL and time  0.3618563E+02

         1   1  6.893369E-02  9.149230E-02  4.946879E+02 -4.329901E-02 -1.068817E-01 -3.584067E-01
         1   2  6.242660E-02  4.443616E-02  4.945247E+02 -2.676649E-02 -1.393584E-02 -3.307579E-01
         1   3  6.418953E-02  7.071513E-02  4.943953E+02 -2.379745E-02  8.603674E-02 -3.311119E-01
         1   4  7.138571E-02  1.740450E-01  4.947028E+02  5.928995E-03 -2.231955E-01 -2.349541E-01
         1   5  6.693658E-02  1.298063E-01  4.946022E+02  5.628063E-03 -5.778002E-02 -1.834706E-01
         1   6  7.018091E-02  1.595196E-01  4.945352E+02 -8.047098E-03  1.133798E-01 -1.597606E-01
         1   7  1.471618E-01  1.119896E-01  4.947601E+02  4.225234E-02 -1.709336E-01 -1.149785E-02
         1   8  1.450366E-01  7.040007E-02  4.947218E+02  2.509532E-02  6.674181E-02  6.349527E-02
         1   9  1.501239E-01  1.033358E-01  4.947171E+02 -5.234658E-03  3.088390E-01  1.109325E-01
         1  10 -9.966070E-02 -1.508966E-01  4.947575E+02 -6.500420E-02  1.131510E-01  2.604323E-01
         1  11 -1.063629E-01 -1.892354E-01  4.946776E+02 -4.137037E-02  3.678717E-02  2.509276E-01
         1  12 -1.046026E-01 -1.547814E-01  4.946319E+02 -3.120325E-02 -3.276408E-02  2.133797E-01
         1  13 -1.384925E-01 -8.056875E-02  4.946732E+02 -4.197180E-02 -4.372987E-02  1.869366E-01
         1  14 -1.426989E-01 -1.169464E-01  4.946561E+02 -3.509197E-02 -4.731311E-02  2.008827E-01
         1  15 -1.384647E-01 -8.053709E-02  4.946732E+02 -4.169731E-02 -4.401354E-02  1.867915E-01
         1  16 -1.045562E-01 -1.549904E-01  4.946319E+02 -3.121723E-02 -3.228164E-02  2.132006E-01
         1  17 -1.062954E-01 -1.894075E-01  4.946776E+02 -4.110695E-02  3.697369E-02  2.506144E-01
         1  18 -9.953370E-02 -1.510759E-01  4.947575E+02 -6.448349E-02  1.131206E-01  2.599896E-01
         1  19  1.499939E-01  1.032707E-01  4.947175E+02 -6.566806E-03  3.088848E-01  1.115720E-01
         1  20  1.449765E-01  7.007350E-02  4.947222E+02  2.395287E-02  6.673143E-02  6.391563E-02
         1  21  1.471282E-01  1.116608E-01  4.947606E+02  4.139265E-02 -1.712014E-01 -1.128212E-02
         1  22  7.001074E-02  1.595384E-01  4.945358E+02 -9.140050E-03  1.132423E-01 -1.592638E-01
         1  23  6.680778E-02  1.295752E-01  4.946026E+02  4.788873E-03 -5.802700E-02 -1.832898E-01
         1  24  7.129317E-02  1.737793E-01  4.947032E+02  5.416325E-03 -2.236746E-01 -2.350700E-01
         1  25  6.413414E-02  7.091038E-02  4.943961E+02 -2.457763E-02  8.568095E-02 -3.307957E-01
         1  26  6.240919E-02  4.435957E-02  4.945252E+02 -2.724338E-02 -1.439997E-02 -3.308277E-01
         1  27  6.898733E-02  9.131492E-02  4.946881E+02 -4.342024E-02 -1.074981E-01 -3.588386E-01

                                INCREMENT    10


 displacements (vx,vy,vz) for set NALL and time  0.4079883E+02

         2  0.000000E+00  0.000000E+00  0.000000E+00
        10  1.267536E-03  0.000000E+00  0.000000E+00
        11  6.338499E-04 -2.103632E-07  0.000000E+00
        12 -2.230083E-04 -6.167689E-04  0.000000E+00
        13 -4.484820E-04 -1.236650E-03  0.000000E+00
        33 -1.926709E-04 -4.714343E-05  3.395318E-03
        34 -3.907898E-04 -9.421154E-05  6.799805E-03
        93  1.046979E-03 -6.167205E-04  0.000000E+00
        95  8.242430E-04 -1.236843E-03  0.000000E+00
        96  1.880609E-04 -1.236972E-03  0.000000E+00
       103  1.077110E-03 -4.573783E-05  3.396364E-03
       105  8.819407E-04 -9.439362E-05  6.799805E-03
       106  2.453952E-04 -9.407731E-05  6.799805E-03
       132 -6.436515E-04 -1.285315E-03  3.403436E-03
       133 -6.135302E-04 -7.143406E-04  6.799805E-03
       134 -8.340873E-04 -1.331066E-03  6.799805E-03
       219  6.261290E-04 -1.283908E-03  3.404477E-03
       220  6.564619E-04 -7.142775E-04  6.799805E-03
       222  4.334517E-04 -1.331051E-03  6.799805E-03
       223 -2.004005E-04 -1.330849E-03  6.799805E-03

 forces (fx,fy,fz) for set NALL and time  0.4079883E+02

         2  4.434323E-05 -5.859845E-05  1.040431E+01
        10  3.912522E-05  3.152961E-05  1.037932E+01
        11 -2.252388E-04  1.112663E-05 -4.155014E+01
        12  3.551277E-05  2.504835E-04 -4.151166E+01
        13 -7.497732E-05 -9.658031E-05  1.040333E+01
        33 -1.894931E-04  1.713296E-04  7.711575E-05
        34  5.551229E-05 -2.705376E-05 -1.039072E+01
        93 -8.601158E-06 -1.720981E-04 -4.157148E+01
        95 -5.433084E-05  2.762798E-05  1.039069E+01
        96  2.034776E-04  8.825018E-05 -4.153657E+01
       103 -2.364410E-04 -2.623115E-04  1.460625E-05
       105  7.620344E-05  9.783737E-05 -1.040336E+01
       106 -2.024857E-04 -8.799939E-05  4.153661E+01
       132  2.368354E-04  2.625697E-04 -1.580646E-05
       133  6.690062E-06  1.701851E-04  4.157150E+01
       134 -3.865126E-05 -3.182792E-05 -1.037936E+01
       219  1.894774E-04 -1.721532E-04 -7.738382E-05
       220 -3.760901E-05 -2.510649E-04  4.151169E+01
       222 -4.346094E-05  6.001879E-05 -1.040434E+01
       223  2.241117E-04 -1.127087E-05  4.155018E+01

 stresses (elem, integ.pnt.,sxx,syy,szz,sxy,sxz,syz) for set EALL and time  0.4079883E+02

         1   1  8.562017E-02  7.536467E-02  5.016625E+02 -7.629760E-02  1.119208E-01 -1.394880E-01
         1   2  1.068224E-01 -2.325238E-03  5.011942E+02 -6.250963E-02  2.906110E-01 -1.909325E-01
         1   3  6.829266E-02 -4.996802E-03  5.007207E+02 -4.193900E-02  3.679081E-01 -2.171009E-01
         1   4  5.098285E-02  1.750285E-01  5.013211E+02 -2.874955E-02 -8.381917E-02 -1.029676E-02
         1   5  7.064441E-02  1.012115E-01  5.008821E+02 -2.980484E-02  1.031587E-01 -8.378669E-02
         1   6  3.008316E-02  1.028667E-01  5.004379E+02 -2.399592E-02  1.875724E-01 -1.318504E-01
         1   7  9.112844E-02  7.276585E-02  5.010144E+02  3.163338E-03 -2.680151E-02  1.436006E-01
         1   8  1.101287E-01  1.961405E-03  5.006045E+02 -1.303888E-02  1.692475E-01  4.748679E-02
         1   9  6.820311E-02  7.287753E-03  5.001896E+02 -2.213725E-02  2.611027E-01 -2.298616E-02
         1  10 -9.161975E-02 -1.077767E-01  5.008994E+02  2.648710E-02 -1.389686E-01  7.519080E-02
         1  11 -6.028578E-02 -1.473069E-01  5.008709E+02  3.809483E-02 -9.654930E-02  8.526059E-02
         1  12 -8.902763E-02 -1.126790E-01  5.008386E+02  5.642217E-02 -1.563712E-01  1.204713E-01
         1  13 -1.271603E-01 -9.152101E-03  5.008509E+02  4.885745E-02 -2.735858E-01  8.561927E-02
         1  14 -9.717997E-02 -4.616066E-02  5.008528E+02  4.554769E-02 -2.226910E-01  7.305935E-02
         1  15 -1.271572E-01 -9.132384E-03  5.008508E+02  4.887350E-02 -2.737823E-01  8.560664E-02
         1  16 -8.905103E-02 -1.127969E-01  5.008385E+02  5.637621E-02 -1.560968E-01  1.203470E-01
         1  17 -6.031211E-02 -1.474006E-01  5.008708E+02  3.806831E-02 -9.648380E-02  8.513557E-02
         1  18 -9.162878E-02 -1.078764E-01  5.008992E+02  2.647330E-02 -1.390652E-01  7.506642E-02
         1  19  6.828742E-02  7.304228E-03  5.001898E+02 -2.217280E-02  2.613638E-01 -2.283907E-02
         1  20  1.102230E-01  1.886660E-03  5.006046E+02 -1.307195E-02  1.694263E-01  4.758743E-02
         1  21  9.122725E-02  7.276029E-02  5.010144E+02  3.162021E-03 -2.681167E-02  1.436660E-01
         1  22  3.014362E-02  1.029511E-01  5.004381E+02 -2.397337E-02  1.877226E-01 -1.317461E-01
         1  23  7.069134E-02  1.012095E-01  5.008821E+02 -2.980676E-02  1.031750E-01 -8.379016E-02
         1  24  5.103146E-02  1.750702E-01  5.013210E+02 -2.875349E-02 -8.399597E-02 -1.039555E-02
         1  25  6.843902E-02 -4.767535E-03  5.007210E+02 -4.183801E-02  3.679190E-01 -2.170548E-01
         1  26  1.069401E-01 -2.198879E-03  5.011941E+02 -6.246015E-02  2.904590E-01 -1.910306E-01
         1  27  8.574478E-02  7.548784E-02  5.016622E+02 -7.628382E-02  1.115938E-01 -1.397164E-01

                                INCREMENT    11


 displacements (vx,vy,vz) for set NALL and time  0.4541203E+02

         2  0.000000E+00  0.000000E+00  0.000000E+00
        10  1.407599E-03  0.000000E+00  0.000000E+00
        11  7.031702E-04  1.194737E-07  0.000000E+00
        12 -2.906071E-04 -7.372505E-04  0.000000E+00
        13 -5.852110E-04 -1.475798E-03  0.000000E+00
        33 -3.616346E-04 -2.110608E-04  3.780006E-03
        34 -7.299391E-04 -4.225741E-04  7.568672E-03
        93  1.116156E-03 -7.411976E-04  0.000000E+00
        95  8.212845E-04 -1.483611E-03  0.000000E+00
        96  1.173968E-04 -1.479434E-03  0.000000E+00
       103  1.043579E-03 -2.129177E-04  3.788931E-03
       105  6.765614E-04 -4.303766E-04  7.568672E-03
       106 -2.604878E-05 -4.267469E-04  7.568672E-03
       132 -9.522294E-04 -1.693266E-03  3.779737E-03
       133 -1.024815E-03 -1.164993E-03  7.568672E-03
       134 -1.316258E-03 -1.906195E-03  7.568672E-03
       219  4.529844E-04 -1.695121E-03  3.788657E-03
       220  3.819526E-04 -1.168927E-03  7.568672E-03
       222  9.134385E-05 -1.906182E-03  7.568672E-03
       223 -6.118283E-04 -1.906309E-03  7.568672E-03

 forces (fx,fy,fz) for set NALL and time  0.4541203E+02

         2 -6.356305E-06 -2.421796E-06  1.051467E+01
        10 -1.586097E-05 -1.599815E-05  1.046910E+01
        11 -2.179229E-06  4.678737E-06 -4.202830E+01
        12  1.947912E-05  1.242853E-05 -4.191658E+01
        13 -1.348441E-05 -2.088394E-05  1.051252E+01
        33 -3.176951E-06 -7.159277E-06 -8.578469E-06
        34  7.858946E-06  7.680548E-06 -1.049792E+01
        93  2.259190E-05  6.489745E-06 -4.204145E+01
        95 -7.903059E-06 -7.700248E-06  1.049790E+01
        96  6.124336E-06  1.924766E-05 -4.194694E+01
       103 -1.489839E-07 -1.332136E-05 -1.218524E-05
       105  1.343736E-05  2.083494E-05 -1.051254E+01
       106 -6.166940E-06 -1.925328E-05  4.194697E+01
       132  1.299430E-07  1.331611E-05  1.223494E-05
       133 -2.252410E-05 -6.416834E-06  4.204146E+01
       134  1.584118E-05  1.600636E-05 -1.046913E+01
       219  3.180252E-06  7.189396E-06  8.600641E-06
       220 -1.941155E-05 -1.243606E-05  4.191660E+01
       222  6.331260E-06  2.369278E-06 -1.051469E+01
       223  2.238200E-06 -4.650369E-06  4.202832E+01

 stresses (elem, integ.pnt.,sxx,syy,szz,sxy,sxz,syz) for set EALL and time  0.4541203E+02

         1   1  8.789176E-02  4.493461E-02  5.081488E+02 -1.523033E-01  3.752045E-01  1.545567E-01
         1   2  1.389507E-01 -7.724068E-02  5.074296E+02 -1.486249E-01  6.337186E-01  2.407135E-02
         1   3  5.925366E-02 -1.224091E-01  5.066658E+02 -1.074743E-01  6.726540E-01 -3.101011E-02
         1   4  1.695873E-02  1.601204E-01  5.074827E+02 -8.401812E-02  8.928755E-02  2.607843E-01
         1   5  6.030990E-02  4.666690E-02  5.067441E+02 -9.516993E-02  2.823209E-01  5.072716E-02
         1   6 -2.757198E-02  1.062613E-02  5.059610E+02 -6.881515E-02  2.543464E-01 -8.385955E-02
         1   7  2.237786E-02  1.474781E-02  5.068156E+02 -5.178072E-02  1.606843E-01  2.978042E-01
         1   8  5.951969E-02 -9.163224E-02  5.060577E+02 -7.824611E-02  2.898605E-01  7.153838E-03
         1   9 -3.563450E-02 -1.196301E-01  5.052554E+02 -6.683789E-02  1.955913E-01 -2.077648E-01
         1  10 -7.685350E-02 -2.930933E-02  5.065840E+02  1.033832E-01 -4.353086E-01 -1.445043E-01
         1  11 -3.953464E-03 -7.305538E-02  5.066224E+02  1.005079E-01 -2.604191E-01 -1.015030E-01
         1  12 -6.205598E-02 -4.167489E-02  5.066183E+02  1.345150E-01 -3.057987E-01  1.650525E-02
         1  13 -1.065074E-01  9.510879E-02  5.066001E+02  1.366555E-01 -5.484063E-01 -2.919010E-02
         1  14 -4.115075E-02  5.769563E-02  5.066213E+02  1.183076E-01 -4.386009E-01 -6.664686E-02
         1  15 -1.065005E-01  9.511363E-02  5.066000E+02  1.366723E-01 -5.485505E-01 -2.919444E-02
         1  16 -6.209419E-02 -4.175841E-02  5.066183E+02  1.344679E-01 -3.055988E-01  1.641775E-02
         1  17 -3.989662E-03 -7.313130E-02  5.066223E+02  1.004816E-01 -2.603743E-01 -1.015839E-01
         1  18 -7.687418E-02 -2.939882E-02  5.065839E+02  1.033740E-01 -4.353845E-01 -1.445756E-01
         1  19 -3.556907E-02 -1.196199E-01  5.052556E+02 -6.684016E-02  1.957962E-01 -2.076660E-01
         1  20  5.958021E-02 -9.168424E-02  5.060578E+02 -7.824960E-02  2.899916E-01  7.221861E-03
         1  21  2.244525E-02  1.476068E-02  5.068156E+02 -5.176735E-02  1.606709E-01  2.978468E-01
         1  22 -2.751927E-02  1.066548E-02  5.059611E+02 -6.877993E-02  2.544780E-01 -8.378302E-02
         1  23  6.034228E-02  4.665825E-02  5.067441E+02 -9.515752E-02  2.823338E-01  5.072063E-02
         1  24  1.699672E-02  1.601691E-01  5.074826E+02 -8.401421E-02  8.914613E-02  2.607030E-01
         1  25  5.938992E-02 -1.222688E-01  5.066660E+02 -1.073930E-01  6.726886E-01 -3.096590E-02
         1  26  1.390554E-01 -7.715020E-02  5.074296E+02 -1.485837E-01  6.336029E-01  2.400502E-02
         1  27  8.800477E-02  4.505905E-02  5.081486E+02 -1.522915E-01  3.749378E-01  1.543911E-01

                                INCREMENT    12


 displacements (vx,vy,vz) for set NALL and time  0.5233184E+02

         2  0.000000E+00  0.000000E+00  0.000000E+00
        10  1.616121E-03  0.000000E+00  0.000000E+00
        11  8.061395E-04  6.913577E-07  0.000000E+00
        12 -3.878382E-04 -9.205398E-04  0.000000E+00
        13 -7.821317E-04 -1.838367E-03  0.000000E+00
        33 -6.122822E-04 -4.642900E-04  4.357838E-03
        34 -1.232359E-03 -9.312687E-04  8.721973E-03
        93  1.221263E-03 -9.320511E-04  0.000000E+00
        95  8.209640E-04 -1.860615E-03  0.000000E+00
        96  1.728044E-05 -1.848405E-03  0.000000E+00
       103  9.927697E-04 -4.738058E-04  4.380901E-03
       105  3.707411E-04 -9.535067E-04  8.721973E-03
       106 -4.286730E-04 -9.434742E-04  8.721973E-03
       132 -1.404161E-03 -2.318076E-03  4.341068E-03
       133 -1.632662E-03 -1.859837E-03  8.721973E-03
       134 -2.027520E-03 -2.791892E-03  8.721973E-03
       219  2.008909E-04 -2.327591E-03  4.364127E-03
       220 -2.355689E-05 -1.871336E-03  8.721973E-03
       222 -4.113963E-04 -2.791880E-03  8.721973E-03
       223 -1.217538E-03 -2.792578E-03  8.721973E-03

 forces (fx,fy,fz) for set NALL and time  0.5233184E+02

         2 -1.181958E-04  1.218501E-04  1.066112E+01
        10 -1.648276E-04 -1.197513E-04  1.058667E+01
        11  4.099846E-04 -8.775534E-05 -4.269356E+01
        12  4.371594E-05 -4.203157E-04 -4.246177E+01
        13  6.550624E-05  5.332306E-05  1.065827E+01
        33  3.317778E-04 -4.358119E-04 -2.448910E-04
        34 -5.306478E-05  1.087681E-04 -1.064044E+01
        93  1.521336E-04  3.349201E-04 -4.268780E+01
        95  5.311650E-05 -1.087178E-04  1.064043E+01
        96 -3.380256E-04 -3.222046E-06 -4.250283E+01
       103  4.461680E-04  3.353821E-04 -1.175885E-04
       105 -6.544931E-05 -5.325157E-05 -1.065828E+01
       106  3.380344E-04  3.157035E-06  4.250285E+01
       132 -4.461313E-04 -3.353802E-04  1.175575E-04
       133 -1.522154E-04 -3.349755E-04  4.268780E+01
       134  1.648777E-04  1.197828E-04 -1.058669E+01
       219 -3.317997E-04  4.357743E-04  2.449165E-04
       220 -4.379690E-05  4.202903E-04  4.246178E+01
       222  1.182346E-04 -1.217537E-04 -1.066113E+01
       223 -4.100430E-04  8.768724E-05  4.269358E+01

 stresses (elem, integ.pnt.,sxx,syy,szz,sxy,sxz,syz) for set EALL and time  0.5233184E+02

         1   1  8.357912E-02 -2.338469E-02  5.172181E+02 -2.654995E-01  8.002191E-01  6.689960E-01
         1   2  1.796278E-01 -2.262995E-01  5.161756E+02 -2.810434E-01  1.170896E+00  4.426167E-01
         1   3  4.004834E-02 -3.468766E-01  5.150310E+02 -2.052984E-01  1.136416E+00  3.672554E-01
         1   4 -4.810094E-02  9.976962E-02  5.160837E+02 -1.535966E-01  3.982580E-01  6.930374E-01
         1   5  2.910049E-02 -8.179093E-02  5.149297E+02 -1.840037E-01  5.789644E-01  2.866131E-01
         1   6 -1.296283E-01 -1.805078E-01  5.136735E+02 -1.230205E-01  3.520396E-01  3.103959E-02
         1   7 -9.862009E-02 -1.119100E-01  5.148720E+02 -1.330097E-01  5.176213E-01  4.756414E-01
         1   8 -3.731765E-02 -2.750784E-01  5.136067E+02 -1.791439E-01  5.112465E-01 -1.129620E-01
         1   9 -2.137036E-01 -3.534086E-01  5.122389E+02 -1.330335E-01  9.225642E-02 -5.503478E-01
         1  10 -3.718385E-02  1.503422E-01  5.144469E+02  2.077161E-01 -9.276716E-01 -5.259892E-01
         1  11  9.760740E-02  9.515565E-02  5.146041E+02  1.800210E-01 -5.376234E-01 -4.192919E-01
         1  12 -1.767760E-03  1.174427E-01  5.146624E+02  2.418528E-01 -5.514890E-01 -1.627921E-01
         1  13 -5.718212E-02  3.013904E-01  5.145903E+02  2.703262E-01 -9.981637E-01 -2.237387E-01
         1  14  5.955009E-02  2.630225E-01  5.146397E+02  2.257549E-01 -7.968711E-01 -2.985082E-01
         1  15 -5.717313E-02  3.013857E-01  5.145902E+02  2.703426E-01 -9.982631E-01 -2.237400E-01
         1  16 -1.807620E-03  1.173913E-01  5.146624E+02  2.418173E-01 -5.513516E-01 -1.628457E-01
         1  17  9.757277E-02  9.510101E-02  5.146040E+02  1.800064E-01 -5.375953E-01 -4.193372E-01
         1  18 -3.720452E-02  1.502698E-01  5.144468E+02  2.077200E-01 -9.277280E-01 -5.260228E-01
         1  19 -2.136573E-01 -3.534118E-01  5.122390E+02 -1.330312E-01  9.240168E-02 -5.502879E-01
         1  20 -3.728384E-02 -2.751207E-01  5.136068E+02 -1.791440E-01  5.113385E-01 -1.129219E-01
         1  21 -9.857885E-02 -1.118988E-01  5.148720E+02 -1.330009E-01  5.176157E-01  4.756633E-01
         1  22 -1.295871E-01 -1.804935E-01  5.136736E+02 -1.229899E-01  3.521384E-01  3.110131E-02
         1  23  2.911952E-02 -8.180639E-02  5.149297E+02 -1.839935E-01  5.789729E-01  2.866073E-01
         1  24 -4.807470E-02  9.980185E-02  5.160836E+02 -1.535976E-01  3.981578E-01  6.929686E-01
         1  25  4.015914E-02 -3.467836E-01  5.150311E+02 -2.052397E-01  1.136450E+00  3.673137E-01
         1  26  1.797084E-01 -2.262387E-01  5.161756E+02 -2.810164E-01  1.170808E+00  4.425820E-01
         1  27  8.366819E-02 -2.329367E-02  5.172180E+02 -2.654972E-01  8.000176E-01  6.688759E-01

                                INCREMENT    13


 displacements (vx,vy,vz) for set NALL and time  0.6271154E+02

         2  0.000000E+00  0.000000E+00  0.000000E+00
        10  1.918364E-03  0.000000E+00  0.000000E+00
        11  9.558668E-04  1.599058E-06  0.000000E+00
        12 -5.266382E-04 -1.204077E-03  0.000000E+00
        13 -1.062657E-03 -2.397277E-03  0.000000E+00
        33 -9.494609E-04 -8.608811E-04  5.229072E-03
        34 -1.908221E-03 -1.730527E-03  1.045192E-02
        93  1.372625E-03 -1.228506E-03  0.000000E+00
        95  8.198355E-04 -2.443522E-03  0.000000E+00
        96 -1.256191E-04 -2.417864E-03  0.000000E+00
       103  9.405731E-04 -8.839915E-04  5.272146E-03
       105 -2.572463E-05 -1.776763E-03  1.045192E-02
       106 -9.627645E-04 -1.756181E-03  1.045192E-02
       132 -2.028956E-03 -3.290056E-03  5.179775E-03
       133 -2.461014E-03 -2.945547E-03  1.045192E-02
       134 -3.006752E-03 -4.174055E-03  1.045192E-02
       219 -1.389218E-04 -3.313165E-03  5.222845E-03
       220 -5.617477E-04 -2.969966E-03  1.045192E-02
       222 -1.088387E-03 -4.174046E-03  1.045192E-02
       223 -2.044255E-03 -4.175650E-03  1.045192E-02

 forces (fx,fy,fz) for set NALL and time  0.6271154E+02

         2  1.733389E-04 -3.352275E-04  1.088217E+01
        10  2.755023E-05  4.763153E-05  1.076031E+01
        11 -3.588338E-04  2.825770E-04 -4.370538E+01
        12 -1.240370E-04  4.436836E-04 -4.325942E+01
        13 -4.358008E-05 -4.927780E-05  1.087192E+01
        33 -2.957151E-04  4.655954E-04  1.314205E-04
        34  1.388477E-04 -1.770596E-04 -1.084583E+01
        93  1.204898E-04 -2.741641E-04 -4.361763E+01
        95 -1.400462E-04  1.750860E-04  1.084582E+01
        96  2.396506E-04 -1.066813E-04 -4.332207E+01
       103 -4.680059E-04 -3.984830E-04  1.497963E-04
       105  4.200966E-05  4.634373E-05 -1.087193E+01
       106 -2.406922E-04  1.102813E-04  4.332209E+01
       132  4.658062E-04  3.987131E-04 -1.485108E-04
       133 -1.176373E-04  2.759300E-04  4.361763E+01
       134 -2.866339E-05 -4.943612E-05 -1.076032E+01
       219  2.968659E-04 -4.642551E-04 -1.317765E-04
       220  1.256735E-04 -4.447606E-04  4.325942E+01
       222 -1.736051E-04  3.314785E-04 -1.088218E+01
       223  3.605837E-04 -2.779748E-04  4.370539E+01

 stresses (elem, integ.pnt.,sxx,syy,szz,sxy,sxz,syz) for set EALL and time  0.6271154E+02

         1   1  1.981597E-01 -2.048556E-01  5.304316E+02 -4.725445E-01  1.301603E+00  1.644317E+00
         1   2  4.448921E-01 -5.825298E-01  5.292184E+02 -5.489425E-01  2.181108E+00  1.228745E+00
         1   3  1.332202E-01 -8.124038E-01  5.278107E+02 -3.594648E-01  2.221704E+00  1.110115E+00
         1   4 -9.505484E-02 -2.478042E-02  5.285819E+02 -2.043299E-01  7.276303E-01  1.399903E+00
         1   5  1.001799E-01 -3.411519E-01  5.271040E+02 -3.063627E-01  1.131879E+00  6.773918E-01
         1   6 -2.642517E-01 -5.077658E-01  5.254307E+02 -1.417977E-01  6.894543E-01  2.516299E-01
         1   7 -2.377972E-01 -4.405180E-01  5.264224E+02 -2.294729E-01  1.109588E+00  5.628354E-01
         1   8 -8.879211E-02 -6.991010E-01  5.246783E+02 -3.599830E-01  1.039883E+00 -4.709741E-01
         1   9 -5.029506E-01 -8.031052E-01  5.227373E+02 -2.218123E-01  1.104406E-01 -1.206901E+00
         1  10 -1.308810E-01  5.399600E-01  5.260386E+02  3.608213E-01 -1.910525E+00 -1.116757E+00
         1  11  2.043658E-01  4.072726E-01  5.263951E+02  2.568293E-01 -1.002391E+00 -9.585726E-01
         1  12 -2.292516E-02  4.223545E-01  5.265598E+02  4.188750E-01 -9.448962E-01 -5.023673E-01
         1  13 -1.489676E-01  7.818205E-01  5.264489E+02  5.398554E-01 -1.906571E+00 -5.138211E-01
         1  14  1.317618E-01  7.086392E-01  5.265446E+02  4.071705E-01 -1.482573E+00 -6.624950E-01
         1  15 -1.489586E-01  7.818078E-01  5.264488E+02  5.398455E-01 -1.906627E+00 -5.138074E-01
         1  16 -2.296292E-02  4.223202E-01  5.265598E+02  4.188580E-01 -9.448099E-01 -5.024079E-01
         1  17  2.043317E-01  4.072285E-01  5.263950E+02  2.568075E-01 -1.002374E+00 -9.585889E-01
         1  18 -1.309043E-01  5.398956E-01  5.260385E+02  3.607925E-01 -1.910557E+00 -1.116748E+00
         1  19 -5.029168E-01 -8.031325E-01  5.227374E+02 -2.217672E-01  1.105523E-01 -1.206892E+00
         1  20 -8.877489E-02 -6.991306E-01  5.246783E+02 -3.599500E-01  1.039950E+00 -4.709666E-01
         1  21 -2.377781E-01 -4.405061E-01  5.264224E+02 -2.294477E-01  1.109591E+00  5.628421E-01
         1  22 -2.642128E-01 -5.077919E-01  5.254308E+02 -1.417388E-01  6.895363E-01  2.516567E-01
         1  23  1.001978E-01 -3.411641E-01  5.271040E+02 -3.063352E-01  1.131889E+00  6.773793E-01
         1  24 -9.503213E-02 -2.474604E-02  5.285818E+02 -2.043315E-01  7.275702E-01  1.399853E+00
         1  25  1.333063E-01 -8.123825E-01  5.278108E+02 -3.593895E-01  2.221741E+00  1.110155E+00
         1  26  4.449495E-01 -5.824837E-01  5.292184E+02 -5.489096E-01  2.181041E+00  1.228729E+00
         1  27  1.982217E-01 -2.047630E-01  5.304315E+02 -4.725538E-01  1.301453E+00  1.644248E+00

                                INCREMENT    14


 displacements (vx,vy,vz) for set NALL and time  0.7200000E+02

         2  0.000000E+00  0.000000E+00  0.000000E+00
        10  2.190052E-03  0.000000E+00  0.000000E+00
        11  1.090352E-03  2.409416E-06  0.000000E+00
        12 -6.431118E-04 -1.461354E-03  0.000000E+00
        13 -1.297175E-03 -2.902947E-03  0.000000E+00
        33 -1.253014E-03 -1.227114E-03  6.010615E-03
        34 -2.515443E-03 -2.469695E-03  1.200000E-02
        93  1.514940E-03 -1.498629E-03  0.000000E+00
        95  8.323951E-04 -2.972781E-03  0.000000E+00
        96 -2.387404E-04 -2.933783E-03  0.000000E+00
       103  8.904456E-04 -1.264083E-03  6.073370E-03
       105 -3.858705E-04 -2.539521E-03  1.200000E-02
       106 -1.444306E-03 -2.508689E-03  1.200000E-02
       132 -2.573491E-03 -4.178391E-03  5.926628E-03
       133 -3.197992E-03 -3.943849E-03  1.200000E-02
       134 -3.873102E-03 -5.442481E-03  1.200000E-02
       219 -4.300321E-04 -4.215359E-03  5.989379E-03
       220 -1.039937E-03 -3.981115E-03  1.200000E-02
       222 -1.683049E-03 -5.442472E-03  1.200000E-02
       223 -2.773403E-03 -5.444887E-03  1.200000E-02

 forces (fx,fy,fz) for set NALL and time  0.7200000E+02

         2 -2.573501E-04  3.521666E-04  1.104232E+01
        10 -3.395006E-04 -1.637009E-04  1.088229E+01
        11  9.692523E-04 -4.169364E-04 -4.448836E+01
        12  1.687475E-05 -1.088941E-03 -4.383302E+01
        13  2.160267E-04  1.906237E-04  1.102799E+01
        33  8.172307E-04 -1.157393E-03 -6.093683E-04
        34 -1.694168E-04  2.504361E-04 -1.099352E+01
        93  2.521711E-04  7.069616E-04 -4.431794E+01
        95  1.696335E-04 -2.500382E-04  1.099352E+01
        96 -8.297110E-04  1.955257E-05 -4.391949E+01
       103  1.064421E-03  6.908470E-04 -3.484332E-04
       105 -2.157548E-04 -1.900672E-04 -1.102800E+01
       106  8.298976E-04 -2.027383E-05  4.391950E+01
       132 -1.064012E-03 -6.909067E-04  3.482097E-04
       133 -2.526854E-04 -7.072793E-04  4.431794E+01
       134  3.397119E-04  1.640660E-04 -1.088230E+01
       219 -8.174788E-04  1.157150E-03  6.095011E-04
       220 -1.714626E-05  1.089093E-03  4.383302E+01
       222  2.573846E-04 -3.514074E-04 -1.104232E+01
       223 -9.695483E-04  4.160465E-04  4.448837E+01

 stresses (elem, integ.pnt.,sxx,syy,szz,sxy,sxz,syz) for set EALL and time  0.7200000E+02

         1   1  2.916248E-01 -4.138648E-01  5.407884E+02 -6.279425E-01  1.680726E+00  2.594406E+00
         1   2  6.864001E-01 -9.004715E-01  5.394419E+02 -7.598988E-01  3.027387E+00  2.026696E+00
         1   3  2.014980E-01 -1.245895E+00  5.377545E+02 -4.819304E-01  3.154860E+00  1.903270E+00
         1   4 -1.302830E-01 -2.182156E-01  5.382891E+02 -2.577329E-01  1.062630E+00  2.056022E+00
         1   5  1.865247E-01 -6.139192E-01  5.365190E+02 -4.156505E-01  1.662394E+00  1.066076E+00
         1   6 -3.791373E-01 -8.642045E-01  5.344061E+02 -1.621103E-01  1.027615E+00  5.205763E-01
         1   7 -4.011439E-01 -7.735887E-01  5.352595E+02 -3.306013E-01  1.659788E+00  5.810701E-01
         1   8 -1.530573E-01 -1.082501E+00  5.330609E+02 -5.204128E-01  1.510671E+00 -8.388870E-01
         1   9 -7.938028E-01 -1.236449E+00  5.305160E+02 -2.946142E-01  1.007178E-01 -1.811735E+00
         1  10 -2.355321E-01  9.371683E-01  5.348134E+02  4.796212E-01 -2.847563E+00 -1.682034E+00
         1  11  2.960549E-01  7.704529E-01  5.354031E+02  3.036694E-01 -1.451903E+00 -1.485566E+00
         1  12 -6.457234E-02  7.522859E-01  5.356540E+02  5.408057E-01 -1.307041E+00 -8.403196E-01
         1  13 -2.212918E-01  1.226174E+00  5.354909E+02  7.391534E-01 -2.688099E+00 -7.944613E-01
         1  14  2.239586E-01  1.153203E+00  5.356599E+02  5.332739E-01 -2.065389E+00 -1.018232E+00
         1  15 -2.212795E-01  1.226162E+00  5.354909E+02  7.391664E-01 -2.688138E+00 -7.944609E-01
         1  16 -6.460385E-02  7.522675E-01  5.356539E+02  5.407858E-01 -1.306982E+00 -8.403372E-01
         1  17  2.960319E-01  7.704241E-01  5.354030E+02  3.036674E-01 -1.451894E+00 -1.485576E+00
         1  18 -2.355408E-01  9.371206E-01  5.348133E+02  4.796345E-01 -2.847587E+00 -1.682034E+00
         1  19 -7.937808E-01 -1.236465E+00  5.305160E+02 -2.946134E-01  1.007833E-01 -1.811716E+00
         1  20 -1.530521E-01 -1.082527E+00  5.330609E+02 -5.204137E-01  1.510715E+00 -8.388765E-01
         1  21 -4.011358E-01 -7.735833E-01  5.352595E+02 -3.305986E-01  1.659795E+00  5.810720E-01
         1  22 -3.791122E-01 -8.642114E-01  5.344061E+02 -1.620977E-01  1.027663E+00  5.206199E-01
         1  23  1.865285E-01 -6.139340E-01  5.365190E+02 -4.156465E-01  1.662397E+00  1.066073E+00
         1  24 -1.302748E-01 -2.182052E-01  5.382891E+02 -2.577346E-01  1.062588E+00  2.055973E+00
         1  25  2.015629E-01 -1.245854E+00  5.377546E+02 -4.819106E-01  3.154880E+00  1.903336E+00
         1  26  6.864377E-01 -9.004414E-01  5.394419E+02 -7.598872E-01  3.027335E+00  2.026694E+00
         1  27  2.916672E-01 -4.138213E-01  5.407884E+02 -6.279391E-01  1.680619E+00  2.594338E+00
