
                        S T E P       1


                                INCREMENT     1


 displacements (vx,vy,vz) for set NALL and time  0.1000000E+01

         1  2.397225E-26  0.000000E+00  6.776264E-19
         2  3.743569E-02  7.765087E-14  4.359951E-14
         3  1.866830E-02  1.852633E-14  1.024837E-14
         4  7.502564E-02  3.143292E-13  1.769066E-13
         5  5.624716E-02  1.779020E-13  1.002234E-13
         6  1.125694E-01  6.934191E-13  3.885845E-13
         7  9.379322E-02  4.859489E-13  2.730083E-13
         8  1.501247E-01  1.207309E-12  6.724417E-13
         9  1.313482E-01  9.346826E-13  5.223152E-13
        10  1.876771E-01  1.842158E-12  1.017827E-12
        11  1.689006E-01  1.510149E-12  8.379642E-13
        12  2.252302E-01  2.587072E-12  1.415279E-12
        13  2.064537E-01  2.201690E-12  1.210714E-12
        14  2.627831E-01  3.428800E-12  1.855385E-12
        15  2.440066E-01  2.996618E-12  1.630554E-12
        16  3.003361E-01  4.354018E-12  2.330641E-12
        17  2.815596E-01  3.881793E-12  2.089069E-12
        18  3.378890E-01  5.350390E-12  2.836026E-12
        19  3.191126E-01  4.843847E-12  2.579956E-12
        20  3.754420E-01  6.408016E-12  3.367103E-12
        21  3.566655E-01  5.872193E-12  3.098495E-12
        22  4.129949E-01  7.515451E-12  3.919372E-12
        23  3.942185E-01  6.956003E-12  3.640728E-12
        24  4.505479E-01  8.662474E-12  4.489385E-12
        25  4.317714E-01  8.084692E-12  4.202342E-12
        26  4.881008E-01  9.836400E-12  5.073158E-12
        27  4.693244E-01  9.246538E-12  4.779711E-12
        28  5.256539E-01  1.102612E-11  5.667789E-12
        29  5.068774E-01  1.042972E-11  5.369616E-12
        30  5.632064E-01  1.222576E-11  6.271431E-12
        31  5.444302E-01  1.162516E-11  5.968711E-12
        32  6.007610E-01  1.343372E-11  6.884615E-12
        33  5.819836E-01  1.282832E-11  6.576749E-12
        34  6.383082E-01  1.465098E-11  7.508376E-12
        35  6.195347E-01  1.404118E-11  7.195049E-12
        36  6.758824E-01  1.587543E-11  8.145212E-12
        37  6.570947E-01  1.526258E-11  7.824896E-12
        38  7.133570E-01  1.710131E-11  8.794688E-12
        39  6.946196E-01  1.649016E-11  8.469487E-12
        40  7.511702E-01  1.842224E-11  9.502823E-12
        41  7.322633E-01  1.771365E-11  9.122090E-12

 stresses (elem, integ.pnt.,sxx,syy,szz,sxy,sxz,syz) for set EALL and time  0.1000000E+01

         1   1  1.761838E+05 -5.675464E+03 -5.675464E+03 -3.082863E+01  3.082863E+01  5.339737E+03
         1   2  1.755101E+05 -2.678731E+03 -2.678731E+03 -3.202122E+01  3.202122E+01  2.570447E+03
         1   3  1.761924E+05  8.822974E+02  8.822974E+02 -3.663461E+01  3.663462E+01 -8.599605E+02
         1   4  1.734729E+05  3.603215E+03  1.259676E+03  2.283149E+02  3.000242E-07  2.781410E-09
         1   5  1.748199E+05  1.661281E+03  6.893936E+02  2.414622E+02  3.673235E-07 -2.267062E-08
         1   6  1.762674E+05 -5.342496E+02 -2.545965E+02  2.551206E+02  4.126273E-07  3.830794E-10
         1   7  1.761838E+05 -5.675464E+03 -5.675464E+03 -3.082863E+01 -3.082863E+01 -5.339737E+03
         1   8  1.755101E+05 -2.678731E+03 -2.678731E+03 -3.202122E+01 -3.202122E+01 -2.570447E+03
         1   9  1.761924E+05  8.822974E+02  8.822974E+02 -3.663461E+01 -3.663461E+01  8.599605E+02
         1  10  1.734729E+05  1.259676E+03  3.603215E+03  3.294587E-07 -2.283149E+02  1.056664E-08
         1  11  1.748199E+05  6.893936E+02  1.661281E+03  3.881618E-07 -2.414622E+02  1.987533E-08
         1  12  1.762674E+05 -2.545965E+02 -5.342496E+02  4.595765E-07 -2.551206E+02 -1.495082E-09
         1  13  1.732396E+05  5.179127E+03  5.179127E+03  8.430266E-09  4.178334E-09  5.965874E-10
         1  14  1.747158E+05  2.351971E+03  2.351971E+03  6.038918E-08  3.453485E-08 -8.375811E-11
         1  15  1.762933E+05 -7.489981E+02 -7.489981E+02  1.093698E-07  6.142860E-08 -3.048362E-11
         1  16  1.734729E+05  1.259676E+03  3.603215E+03 -3.111018E-07  2.283149E+02  8.297846E-09
         1  17  1.748199E+05  6.893936E+02  1.661281E+03 -2.637138E-07  2.414622E+02  2.034340E-08
         1  18  1.762674E+05 -2.545965E+02 -5.342496E+02 -2.408938E-07  2.551206E+02  7.653088E-10
         1  19  1.761838E+05 -5.675464E+03 -5.675464E+03  3.082863E+01  3.082863E+01 -5.339737E+03
         1  20  1.755101E+05 -2.678731E+03 -2.678731E+03  3.202122E+01  3.202122E+01 -2.570447E+03
         1  21  1.761924E+05  8.822974E+02  8.822974E+02  3.663462E+01  3.663461E+01  8.599605E+02
         1  22  1.734729E+05  3.603215E+03  1.259676E+03 -2.283149E+02 -2.906177E-07 -1.991331E-08
         1  23  1.748199E+05  1.661281E+03  6.893936E+02 -2.414622E+02 -2.958952E-07 -1.818203E-08
         1  24  1.762674E+05 -5.342496E+02 -2.545965E+02 -2.551206E+02 -2.901081E-07  3.196283E-10
         1  25  1.761838E+05 -5.675464E+03 -5.675464E+03  3.082863E+01 -3.082863E+01  5.339737E+03
         1  26  1.755101E+05 -2.678731E+03 -2.678731E+03  3.202122E+01 -3.202122E+01  2.570447E+03
         1  27  1.761924E+05  8.822974E+02  8.822974E+02  3.663461E+01 -3.663461E+01 -8.599605E+02
         2   1  1.766710E+05  1.741109E+03  1.741109E+03 -6.933336E+01  6.933336E+01 -1.685062E+03
         2   2  1.762167E+05  7.150810E+02  7.150810E+02 -2.357491E+01  2.357491E+01 -6.989307E+02
         2   3  1.758367E+05 -2.502606E+02 -2.502606E+02  2.006900E+01 -2.006900E+01  2.391930E+02
         2   4  1.767827E+05 -1.018452E+03 -4.873690E+02 -1.016562E+02  9.714707E-08  1.475247E-08
         2   5  1.762929E+05 -4.362738E+02 -2.072632E+02 -8.106064E+01  1.052666E-07  1.000689E-08
         2   6  1.758102E+05  1.475116E+02  6.602540E+01 -6.028699E+01  1.112809E-07 -1.002195E-09
         2   7  1.766710E+05  1.741109E+03  1.741109E+03 -6.933336E+01 -6.933336E+01  1.685062E+03
         2   8  1.762167E+05  7.150810E+02  7.150810E+02 -2.357491E+01 -2.357491E+01  6.989307E+02
         2   9  1.758367E+05 -2.502606E+02 -2.502606E+02  2.006900E+01  2.006900E+01 -2.391930E+02
         2  10  1.767827E+05 -4.873690E+02 -1.018452E+03  1.645026E-07  1.016562E+02 -1.338746E-08
         2  11  1.762929E+05 -2.072632E+02 -4.362738E+02  1.857291E-07  8.106064E+01 -1.102259E-08
         2  12  1.758102E+05  6.602540E+01  1.475116E+02  2.127667E-07  6.028699E+01  6.469532E-10
         2  13  1.768498E+05 -1.429540E+03 -1.429540E+03  1.460495E-07  8.250803E-08  1.546007E-11
         2  14  1.763249E+05 -6.096148E+02 -6.096148E+02  1.875647E-07  1.062338E-07 -1.145059E-10
         2  15  1.758082E+05  2.092432E+02  2.092432E+02  2.312919E-07  1.295197E-07  1.336966E-11
         2  16  1.767827E+05 -4.873690E+02 -1.018452E+03  1.258674E-07 -1.016562E+02 -1.140636E-08
         2  17  1.762929E+05 -2.072632E+02 -4.362738E+02  1.878162E-07 -8.106064E+01 -9.207144E-09
         2  18  1.758102E+05  6.602540E+01  1.475116E+02  2.497407E-07 -6.028699E+01  1.938923E-09
         2  19  1.766710E+05  1.741109E+03  1.741109E+03  6.933336E+01  6.933336E+01  1.685062E+03
         2  20  1.762167E+05  7.150810E+02  7.150810E+02  2.357491E+01  2.357491E+01  6.989307E+02
         2  21  1.758367E+05 -2.502606E+02 -2.502606E+02 -2.006900E+01 -2.006900E+01 -2.391930E+02
         2  22  1.767827E+05 -1.018452E+03 -4.873690E+02  1.016562E+02  6.646114E-08  1.030088E-08
         2  23  1.762929E+05 -4.362738E+02 -2.072632E+02  8.106064E+01  1.057541E-07  9.791313E-09
         2  24  1.758102E+05  1.475116E+02  6.602540E+01  6.028699E+01  1.479890E-07 -1.543001E-09
         2  25  1.766710E+05  1.741109E+03  1.741109E+03  6.933336E+01 -6.933336E+01 -1.685062E+03
         2  26  1.762167E+05  7.150810E+02  7.150810E+02  2.357491E+01 -2.357491E+01 -6.989307E+02
         2  27  1.758367E+05 -2.502606E+02 -2.502606E+02 -2.006900E+01  2.006900E+01  2.391930E+02
         3   1  1.757732E+05 -4.455399E+02 -4.455399E+02  3.436553E+01 -3.436553E+01  4.324288E+02
         3   2  1.758601E+05 -1.915713E+02 -1.915713E+02  1.335146E+01 -1.335146E+01  1.862466E+02
         3   3  1.759526E+05  6.641926E+01  6.641926E+01 -7.937079E+00  7.937079E+00 -6.328983E+01
         3   4  1.757059E+05  2.722416E+02  1.237552E+02  3.516200E+01  2.365627E-07 -5.571699E-09
         3   5  1.758313E+05  1.167893E+02  5.349563E+01  2.507557E+01  2.679748E-07 -4.063557E-09
         3   6  1.759572E+05 -3.881929E+01 -1.753561E+01  1.501325E+01  2.977987E-07  1.508729E-09
         3   7  1.757732E+05 -4.455399E+02 -4.455399E+02  3.436553E+01  3.436553E+01 -4.324288E+02
         3   8  1.758601E+05 -1.915713E+02 -1.915713E+02  1.335146E+01  1.335146E+01 -1.862466E+02
         3   9  1.759526E+05  6.641926E+01  6.641926E+01 -7.937079E+00 -7.937079E+00  6.328983E+01
         3  10  1.757059E+05  1.237552E+02  2.722416E+02  3.486922E-07 -3.516200E+01  5.689035E-09
         3  11  1.758313E+05  5.349563E+01  1.167893E+02  3.993223E-07 -2.507557E+01  3.694274E-09
         3  12  1.759572E+05 -1.753561E+01 -3.881929E+01  4.511246E-07 -1.501325E+01 -1.862329E-09
         3  13  1.756868E+05  3.821507E+02  3.821507E+02  2.536714E-07  1.422227E-07  7.112818E-11
         3  14  1.758212E+05  1.636037E+02  1.636037E+02  2.978288E-07  1.667881E-07  3.885441E-12
         3  15  1.759562E+05 -5.527683E+01 -5.527683E+01  3.433518E-07  1.910915E-07 -3.168916E-12
         3  16  1.757059E+05  1.237552E+02  2.722416E+02  1.602533E-07  3.516200E+01  7.045791E-09
         3  17  1.758313E+05  5.349563E+01  1.167893E+02  1.981537E-07  2.507557E+01  5.028764E-09
         3  18  1.759572E+05 -1.753561E+01 -3.881929E+01  2.355485E-07  1.501325E+01 -4.366243E-10
         3  19  1.757732E+05 -4.455399E+02 -4.455399E+02 -3.436553E+01 -3.436553E+01 -4.324288E+02
         3  20  1.758601E+05 -1.915713E+02 -1.915713E+02 -1.335146E+01 -1.335146E+01 -1.862466E+02
         3  21  1.759526E+05  6.641926E+01  6.641926E+01  7.937079E+00  7.937079E+00  6.328983E+01
         3  22  1.757059E+05  2.722416E+02  1.237552E+02 -3.516200E+01  4.882532E-08 -6.895920E-09
         3  23  1.758313E+05  1.167893E+02  5.349563E+01 -2.507557E+01  6.628131E-08 -4.670483E-09
         3  24  1.759572E+05 -3.881929E+01 -1.753561E+01 -1.501325E+01  8.346688E-08  7.750732E-10
         3  25  1.757732E+05 -4.455399E+02 -4.455399E+02 -3.436553E+01  3.436553E+01  4.324288E+02
         3  26  1.758601E+05 -1.915713E+02 -1.915713E+02 -1.335146E+01  1.335146E+01  1.862466E+02
         3  27  1.759526E+05  6.641926E+01  6.641926E+01  7.937079E+00 -7.937079E+00 -6.328983E+01
         4   1  1.759691E+05  1.210565E+02  1.210565E+02 -1.381127E+01  1.381127E+01 -1.169201E+02
         4   2  1.759439E+05  5.100720E+01  5.100720E+01 -5.518844E+00  5.518845E+00 -4.978009E+01
         4   3  1.759189E+05 -1.774045E+01 -1.774045E+01  2.744908E+00 -2.744907E+00  1.694429E+01
         4   4  1.759849E+05 -7.223963E+01 -3.300549E+01 -1.147178E+01  3.193412E-07  3.168063E-09
         4   5  1.759514E+05 -3.122373E+01 -1.447286E+01 -7.598179E+00  3.395061E-07  1.262474E-09
         4   6  1.759180E+05  1.050798E+01  4.790279E+00 -3.722084E+00  3.611200E-07  2.003428E-11
         4   7  1.759691E+05  1.210565E+02  1.210565E+02 -1.381127E+01 -1.381127E+01  1.169201E+02
         4   8  1.759439E+05  5.100720E+01  5.100720E+01 -5.518844E+00 -5.518844E+00  4.978009E+01
         4   9  1.759189E+05 -1.774045E+01 -1.774045E+01  2.744908E+00  2.744908E+00 -1.694429E+01
         4  10  1.759849E+05 -3.300549E+01 -7.223963E+01  4.841603E-07  1.147178E+01 -3.424368E-09
         4  11  1.759514E+05 -1.447286E+01 -3.122373E+01  5.218138E-07  7.598179E+00 -1.582990E-09
         4  12  1.759180E+05  4.790279E+00  1.050798E+01  5.617593E-07  3.722085E+00 -3.397876E-10
         4  13  1.759904E+05 -1.015519E+02 -1.015519E+02  3.675664E-07  2.042324E-07  3.224788E-12
         4  14  1.759546E+05 -4.361670E+01 -4.361670E+01  4.059227E-07  2.237926E-07 -5.121770E-12
         4  15  1.759187E+05  1.497795E+01  1.497795E+01  4.428780E-07  2.437877E-07 -1.160758E-11
         4  16  1.759849E+05 -3.300549E+01 -7.223963E+01  2.512373E-07 -1.147178E+01 -2.081233E-09
         4  17  1.759514E+05 -1.447286E+01 -3.122373E+01  2.882598E-07 -7.598179E+00 -2.791316E-10
         4  18  1.759180E+05  4.790279E+00  1.050798E+01  3.258091E-07 -3.722084E+00  8.928163E-10
         4  19  1.759691E+05  1.210565E+02  1.210565E+02  1.381127E+01  1.381127E+01  1.169201E+02
         4  20  1.759439E+05  5.100720E+01  5.100720E+01  5.518845E+00  5.518845E+00  4.978009E+01
         4  21  1.759189E+05 -1.774045E+01 -1.774045E+01 -2.744907E+00 -2.744907E+00 -1.694429E+01
         4  22  1.759849E+05 -7.223963E+01 -3.300549E+01  1.147178E+01  8.947416E-08  2.360413E-09
         4  23  1.759514E+05 -3.122373E+01 -1.447286E+01  7.598180E+00  1.069428E-07  5.877478E-10
         4  24  1.759180E+05  1.050798E+01  4.790279E+00  3.722085E+00  1.255027E-07 -6.031654E-10
         4  25  1.759691E+05  1.210565E+02  1.210565E+02  1.381127E+01 -1.381127E+01 -1.169201E+02
         4  26  1.759439E+05  5.100720E+01  5.100720E+01  5.518845E+00 -5.518844E+00 -4.978009E+01
         4  27  1.759189E+05 -1.774045E+01 -1.774045E+01 -2.744907E+00  2.744908E+00  1.694429E+01
         5   1  1.759147E+05 -3.195323E+01 -3.195323E+01  4.905109E+00 -4.905108E+00  3.109967E+01
         5   2  1.759213E+05 -1.346969E+01 -1.346969E+01  1.996767E+00 -1.996766E+00  1.328908E+01
         5   3  1.759280E+05  4.892039E+00  4.892039E+00 -9.142604E-01  9.142614E-01 -4.514426E+00
         5   4  1.759102E+05  1.949751E+01  8.997174E+00  3.651198E+00  3.791523E-07 -2.609436E-10
         5   5  1.759191E+05  8.475972E+00  3.992440E+00  2.278696E+00  3.977888E-07 -1.643616E-10
         5   6  1.759281E+05 -2.648502E+00 -1.126545E+00  9.064273E-01  4.158856E-07  3.853682E-10
         5   7  1.759147E+05 -3.195323E+01 -3.195323E+01  4.905109E+00  4.905109E+00 -3.109967E+01
         5   8  1.759213E+05 -1.346969E+01 -1.346969E+01  1.996767E+00  1.996767E+00 -1.328908E+01
         5   9  1.759280E+05  4.892039E+00  4.892039E+00 -9.142606E-01 -9.142606E-01  4.514426E+00
         5  10  1.759102E+05  8.997174E+00  1.949751E+01  5.887169E-07 -3.651198E+00 -4.489365E-11
         5  11  1.759191E+05  3.992440E+00  8.475972E+00  6.246173E-07 -2.278695E+00 -1.158661E-10
         5  12  1.759281E+05 -1.126545E+00 -2.648502E+00  6.616605E-07 -9.064264E-01 -6.688366E-10
         5  13  1.759086E+05  2.730327E+01  2.730327E+01  4.646480E-07  2.545524E-07 -8.378415E-12
         5  14  1.759182E+05  1.177324E+01  1.177324E+01  5.009972E-07  2.720075E-07  2.622396E-12
         5  15  1.759278E+05 -3.854496E+00 -3.854496E+00  5.362026E-07  2.890654E-07  3.115558E-12
         5  16  1.759102E+05  8.997174E+00  1.949751E+01  3.407564E-07  3.651198E+00  1.171957E-09
         5  17  1.759191E+05  3.992440E+00  8.475972E+00  3.744978E-07  2.278696E+00  1.026435E-09
         5  18  1.759281E+05 -1.126545E+00 -2.648502E+00  4.094922E-07  9.064270E-01  4.430814E-10
         5  19  1.759147E+05 -3.195323E+01 -3.195323E+01 -4.905108E+00 -4.905109E+00 -3.109967E+01
         5  20  1.759213E+05 -1.346969E+01 -1.346969E+01 -1.996766E+00 -1.996766E+00 -1.328908E+01
         5  21  1.759280E+05  4.892039E+00  4.892039E+00  9.142616E-01  9.142612E-01  4.514426E+00
         5  22  1.759102E+05  1.949751E+01  8.997174E+00 -3.651197E+00  1.302823E-07 -8.849387E-10
         5  23  1.759191E+05  8.475972E+00  3.992440E+00 -2.278695E+00  1.463393E-07 -7.329278E-10
         5  24  1.759281E+05 -2.648502E+00 -1.126545E+00 -9.064262E-01  1.635187E-07 -1.529589E-10
         5  25  1.759147E+05 -3.195323E+01 -3.195323E+01 -4.905108E+00  4.905109E+00  3.109967E+01
         5  26  1.759213E+05 -1.346969E+01 -1.346969E+01 -1.996766E+00  1.996766E+00  1.328908E+01
         5  27  1.759280E+05  4.892039E+00  4.892039E+00  9.142614E-01 -9.142608E-01 -4.514426E+00
         6   1  1.759289E+05  8.686696E+00  8.686696E+00 -1.635047E+00  1.635049E+00 -8.305815E+00
         6   2  1.759272E+05  3.724628E+00  3.724628E+00 -6.722938E-01  6.722949E-01 -3.544584E+00
         6   3  1.759254E+05 -1.166383E+00 -1.166383E+00  2.902226E-01 -2.902214E-01  1.203546E+00
         6   4  1.759302E+05 -5.046546E+00 -2.246822E+00 -1.126340E+00  4.230307E-07  5.494951E-10
         6   5  1.759278E+05 -2.124133E+00 -9.290872E-01 -6.733626E-01  4.384297E-07  3.505352E-10
         6   6  1.759254E+05  8.481558E-01  4.423028E-01 -2.203649E-01  4.523520E-07  2.504122E-10
         6   7  1.759289E+05  8.686696E+00  8.686696E+00 -1.635048E+00 -1.635048E+00  8.305815E+00
         6   8  1.759272E+05  3.724628E+00  3.724628E+00 -6.722940E-01 -6.722941E-01  3.544584E+00
         6   9  1.759254E+05 -1.166383E+00 -1.166383E+00  2.902223E-01  2.902223E-01 -1.203546E+00
         6  10  1.759302E+05 -2.246822E+00 -5.046546E+00  6.797166E-07  1.126341E+00 -8.269044E-10
         6  11  1.759278E+05 -9.290872E-01 -2.124133E+00  7.121150E-07  6.733635E-01 -6.183226E-10
         6  12  1.759254E+05  4.423028E-01  8.481558E-01  7.454261E-07  2.203659E-01 -5.494227E-10
         6  13  1.759306E+05 -7.125372E+00 -7.125372E+00  5.561763E-07  2.985738E-07  2.975821E-12
         6  14  1.759281E+05 -2.999163E+00 -2.999163E+00  5.884513E-07  3.137106E-07  3.928971E-12
         6  15  1.759255E+05  1.173855E+00  1.173855E+00  6.195234E-07  3.273465E-07 -8.240918E-13
         6  16  1.759302E+05 -2.246822E+00 -5.046546E+00  4.310215E-07 -1.126340E+00  2.622027E-10
         6  17  1.759278E+05 -9.290872E-01 -2.124133E+00  4.643443E-07 -6.733629E-01  4.330716E-10
         6  18  1.759254E+05  4.423028E-01  8.481558E-01  4.944845E-07 -2.203652E-01  4.475900E-10
         6  19  1.759289E+05  8.686696E+00  8.686696E+00  1.635049E+00  1.635048E+00  8.305815E+00
         6  20  1.759272E+05  3.724628E+00  3.724628E+00  6.722952E-01  6.722947E-01  3.544584E+00
         6  21  1.759254E+05 -1.166383E+00 -1.166383E+00 -2.902211E-01 -2.902216E-01 -1.203546E+00
         6  22  1.759302E+05 -5.046546E+00 -2.246822E+00  1.126341E+00  1.754915E-07  1.731950E-11
         6  23  1.759278E+05 -2.124133E+00 -9.290872E-01  6.733638E-01  1.899186E-07 -1.511898E-10
         6  24  1.759254E+05  8.481558E-01  4.423028E-01  2.203662E-01  2.036307E-07 -1.451361E-10
         6  25  1.759289E+05  8.686696E+00  8.686696E+00  1.635049E+00 -1.635048E+00 -8.305815E+00
         6  26  1.759272E+05  3.724628E+00  3.724628E+00  6.722950E-01 -6.722943E-01 -3.544584E+00
         6  27  1.759254E+05 -1.166383E+00 -1.166383E+00 -2.902213E-01  2.902221E-01  1.203546E+00
         7   1  1.759252E+05 -2.167914E+00 -2.167914E+00  5.236701E-01 -5.236689E-01  2.213168E+00
         7   2  1.759256E+05 -8.471206E-01 -8.471206E-01  2.169777E-01 -2.169764E-01  9.449279E-01
         7   3  1.759261E+05  4.560639E-01  4.560639E-01 -8.973488E-02  8.973614E-02 -3.203788E-01
         7   4  1.759248E+05  1.490597E+00  7.442543E-01  3.418599E-01  4.628283E-07  1.416455E-10
         7   5  1.759255E+05  7.110031E-01  3.923636E-01  1.973682E-01  4.759439E-07  3.299061E-11
         7   6  1.759261E+05 -8.130507E-02  2.672421E-02  5.287824E-02  4.864097E-07  2.814730E-10
         7   7  1.759252E+05 -2.167914E+00 -2.167914E+00  5.236699E-01  5.236698E-01 -2.213168E+00
         7   8  1.759256E+05 -8.471206E-01 -8.471206E-01  2.169774E-01  2.169773E-01 -9.449279E-01
         7   9  1.759261E+05  4.560639E-01  4.560639E-01 -8.973509E-02 -8.973522E-02  3.203788E-01
         7  10  1.759248E+05  7.442543E-01  1.490597E+00  7.635450E-07 -3.418589E-01 -4.359164E-10
         7  11  1.759255E+05  3.923636E-01  7.110031E-01  7.904666E-07 -1.973672E-01 -2.779320E-10
         7  12  1.759261E+05  2.672421E-02 -8.130507E-02  8.207838E-07 -5.287719E-02 -5.171415E-10
         7  13  1.759247E+05  2.043538E+00  2.043538E+00  6.357778E-07  3.349002E-07 -6.694504E-12
         7  14  1.759254E+05  9.431884E-01  9.431884E-01  6.629164E-07  3.471206E-07 -6.297173E-12
         7  15  1.759261E+05 -1.691157E-01 -1.691157E-01  6.920793E-07  3.587073E-07  1.357584E-11
         7  16  1.759248E+05  7.442543E-01  1.490597E+00  5.081824E-07  3.418596E-01  5.185936E-10
         7  17  1.759255E+05  3.923636E-01  7.110031E-01  5.353527E-07  1.973679E-01  6.063853E-10
         7  18  1.759261E+05  2.672421E-02 -8.130507E-02  5.620553E-07  5.287791E-02  3.472923E-10
         7  19  1.759252E+05 -2.167914E+00 -2.167914E+00 -5.236686E-01 -5.236691E-01 -2.213168E+00
         7  20  1.759256E+05 -8.471206E-01 -8.471206E-01 -2.169761E-01 -2.169766E-01 -9.449279E-01
         7  21  1.759261E+05  4.560639E-01  4.560639E-01  8.973646E-02  8.973593E-02  3.203788E-01
         7  22  1.759248E+05  1.490597E+00  7.442543E-01 -3.418586E-01  2.074574E-07 -2.446213E-10
         7  23  1.759255E+05  7.110031E-01  3.923636E-01 -1.973669E-01  2.180867E-07 -3.932230E-10
         7  24  1.759261E+05 -8.130507E-02  2.672421E-02 -5.287686E-02  2.288292E-07 -5.683902E-11
         7  25  1.759252E+05 -2.167914E+00 -2.167914E+00 -5.236688E-01  5.236695E-01  2.213168E+00
         7  26  1.759256E+05 -8.471206E-01 -8.471206E-01 -2.169763E-01  2.169771E-01  9.449279E-01
         7  27  1.759261E+05  4.560639E-01  4.560639E-01  8.973626E-02 -8.973543E-02 -3.203788E-01
         8   1  1.759262E+05  7.214380E-01  7.214380E-01 -1.628141E-01  1.628154E-01 -5.895600E-01
         8   2  1.759260E+05  3.691074E-01  3.691074E-01 -6.850841E-02  6.850974E-02 -2.518177E-01
         8   3  1.759259E+05  2.247245E-02  2.247245E-02  2.579560E-02 -2.579424E-02  8.494815E-02
         8   4  1.759263E+05 -2.528457E-01 -5.405274E-02 -1.020273E-01  4.975722E-07  2.961468E-10
         8   5  1.759261E+05 -4.584176E-02  3.906951E-02 -5.760934E-02  5.079193E-07  6.794715E-11
         8   6  1.759259E+05  1.652433E-01  1.365990E-01 -1.319124E-02  5.182082E-07  1.509256E-10
         8   7  1.759262E+05  7.214380E-01  7.214380E-01 -1.628143E-01 -1.628144E-01  5.895600E-01
         8   8  1.759260E+05  3.691074E-01  3.691074E-01 -6.850863E-02 -6.850877E-02  2.518177E-01
         8   9  1.759259E+05  2.247245E-02  2.247245E-02  2.579537E-02  2.579523E-02 -8.494815E-02
         8  10  1.759263E+05 -5.405274E-02 -2.528457E-01  8.405052E-07  1.020284E-01 -5.302899E-10
         8  11  1.759261E+05  3.906951E-02 -4.584176E-02  8.624118E-07  5.761044E-02 -2.928264E-10
         8  12  1.759259E+05  1.365990E-01  1.652433E-01  8.880268E-07  1.319238E-02 -3.865163E-10
         8  13  1.759263E+05 -3.998541E-01 -3.998541E-01  7.065453E-07  3.647716E-07  1.373968E-11
         8  14  1.759261E+05 -1.074378E-01 -1.074378E-01  7.293591E-07  3.752804E-07 -5.175436E-12
         8  15  1.759259E+05  1.888139E-01  1.888139E-01  7.519326E-07  3.836562E-07 -3.528437E-12
         8  16  1.759263E+05 -5.405274E-02 -2.528457E-01  5.723293E-07 -1.020276E-01  3.085807E-10
         8  17  1.759261E+05  3.906951E-02 -4.584176E-02  5.949391E-07 -5.760969E-02  4.711079E-10
         8  18  1.759259E+05  1.365990E-01  1.652433E-01  6.174832E-07 -1.319161E-02  3.450096E-10
         8  19  1.759262E+05  7.214380E-01  7.214380E-01  1.628157E-01  1.628151E-01  5.895600E-01
         8  20  1.759260E+05  3.691074E-01  3.691074E-01  6.851009E-02  6.850951E-02  2.518177E-01
         8  21  1.759259E+05  2.247245E-02  2.247245E-02 -2.579387E-02 -2.579446E-02 -8.494815E-02
         8  22  1.759263E+05 -2.528457E-01 -5.405274E-02  1.020287E-01  2.312836E-07 -1.862591E-11
         8  23  1.759261E+05 -4.584176E-02  3.906951E-02  5.761080E-02  2.397653E-07 -2.715680E-10
         8  24  1.759259E+05  1.652433E-01  1.365990E-01  1.319275E-02  2.488525E-07 -1.191904E-10
         8  25  1.759262E+05  7.214380E-01  7.214380E-01  1.628155E-01 -1.628146E-01 -5.895600E-01
         8  26  1.759260E+05  3.691074E-01  3.691074E-01  6.850987E-02 -6.850898E-02 -2.518177E-01
         8  27  1.759259E+05  2.247245E-02  2.247245E-02 -2.579410E-02  2.579501E-02  8.494815E-02
         9   1  1.759259E+05 -4.789051E-02 -4.789051E-02  4.886438E-02 -4.886299E-02  1.567409E-01
         9   2  1.759259E+05  4.523984E-02  4.523983E-02  2.336059E-02 -2.335917E-02  6.748374E-02
         9   3  1.759260E+05  1.368863E-01  1.368863E-01 -2.143334E-03  2.144768E-03 -2.152072E-02
         9   4  1.759259E+05  2.111252E-01  1.582723E-01  2.972289E-02  5.284953E-07  2.045763E-10
         9   5  1.759259E+05  1.564358E-01  1.336804E-01  1.770866E-02  5.389324E-07  1.203505E-10
         9   6  1.759260E+05  1.006812E-01  1.079379E-01  5.694424E-03  5.467462E-07  4.910835E-11
         9   7  1.759259E+05 -4.789051E-02 -4.789052E-02  4.886415E-02  4.886400E-02 -1.567409E-01
         9   8  1.759259E+05  4.523983E-02  4.523983E-02  2.336035E-02  2.336019E-02 -6.748374E-02
         9   9  1.759260E+05  1.368863E-01  1.368863E-01 -2.143563E-03 -2.143727E-03  2.152072E-02
         9  10  1.759259E+05  1.582723E-01  2.111252E-01  9.019703E-07 -2.972173E-02 -4.356985E-10
         9  11  1.759259E+05  1.336804E-01  1.564358E-01  9.215976E-07 -1.770747E-02 -3.222239E-10
         9  12  1.759260E+05  1.079379E-01  1.006812E-01  9.435963E-07 -5.693210E-03 -2.439157E-10
         9  13  1.759259E+05  2.502001E-01  2.502001E-01  7.649990E-07  3.911612E-07 -3.085862E-12
         9  14  1.759259E+05  1.729377E-01  1.729377E-01  7.828550E-07  3.991610E-07 -1.078817E-11
         9  15  1.759260E+05  9.467420E-02  9.467420E-02  8.055025E-07  4.080253E-07 -9.246572E-12
         9  16  1.759259E+05  1.582723E-01  2.111252E-01  6.269582E-07  2.972252E-02  2.912348E-10
         9  17  1.759259E+05  1.336804E-01  1.564358E-01  6.464829E-07  1.770827E-02  3.718455E-10
         9  18  1.759260E+05  1.079379E-01  1.006812E-01  6.689688E-07  5.694026E-03  3.706691E-10
         9  19  1.759259E+05 -4.789051E-02 -4.789051E-02 -4.886263E-02 -4.886323E-02 -1.567409E-01
         9  20  1.759259E+05  4.523983E-02  4.523984E-02 -2.335878E-02 -2.335940E-02 -6.748374E-02
         9  21  1.759260E+05  1.368863E-01  1.368863E-01  2.145172E-03  2.144543E-03  2.152072E-02
         9  22  1.759259E+05  2.111252E-01  1.582723E-01 -2.972136E-02  2.519920E-07 -6.360450E-11
         9  23  1.759259E+05  1.564358E-01  1.336804E-01 -1.770708E-02  2.596289E-07 -1.960781E-10
         9  24  1.759260E+05  1.006812E-01  1.079379E-01 -5.692812E-03  2.680153E-07 -1.861811E-10
         9  25  1.759259E+05 -4.789052E-02 -4.789051E-02 -4.886285E-02  4.886379E-02  1.567409E-01
         9  26  1.759259E+05  4.523983E-02  4.523984E-02 -2.335902E-02  2.335997E-02  6.748374E-02
         9  27  1.759260E+05  1.368863E-01  1.368863E-01  2.144948E-03 -2.143963E-03 -2.152072E-02
        10   1  1.759260E+05  1.564169E-01  1.564169E-01 -1.165662E-02  1.165808E-02 -4.109123E-02
        10   2  1.759260E+05  1.339893E-01  1.339893E-01 -1.603424E-02  1.603571E-02 -1.949321E-02
        10   3  1.759260E+05  1.114652E-01  1.114652E-01 -2.041184E-02  2.041334E-02  2.121251E-03
        10   4  1.759260E+05  8.826871E-02  1.021245E-01 -7.123753E-03  5.512208E-07  1.463443E-10
        10   5  1.759260E+05  1.016097E-01  1.081828E-01 -9.190600E-03  5.558385E-07  2.217695E-10
        10   6  1.759260E+05  1.148815E-01  1.141662E-01 -1.125744E-02  5.617249E-07 -2.077585E-10
        10   7  1.759260E+05  1.564169E-01  1.564169E-01 -1.165685E-02 -1.165703E-02  4.109123E-02
        10   8  1.759260E+05  1.339893E-01  1.339893E-01 -1.603447E-02 -1.603465E-02  1.949321E-02
        10   9  1.759260E+05  1.114652E-01  1.114652E-01 -2.041206E-02 -2.041227E-02 -2.121251E-03
        10  10  1.759260E+05  1.021245E-01  8.826871E-02  9.533980E-07  7.124976E-03 -3.233111E-10
        10  11  1.759260E+05  1.081828E-01  1.016097E-01  9.708948E-07  9.191846E-03 -3.652701E-10
        10  12  1.759260E+05  1.141662E-01  1.148815E-01  9.865730E-07  1.125871E-02  5.042651E-11
        10  13  1.759260E+05  7.778019E-02  7.778019E-02  8.175018E-07  4.112663E-07 -4.183456E-12
        10  14  1.759260E+05  9.658327E-02  9.658327E-02  8.325738E-07  4.177376E-07 -4.763417E-12
        10  15  1.759260E+05  1.153213E-01  1.153213E-01  8.492045E-07  4.260541E-07 -2.098378E-11
        10  16  1.759260E+05  1.021245E-01  8.826871E-02  6.798086E-07 -7.124155E-03  2.455929E-10
        10  17  1.759260E+05  1.081828E-01  1.016097E-01  6.967850E-07 -9.191015E-03  1.641066E-10
        10  18  1.759260E+05  1.141662E-01  1.148815E-01  7.128144E-07 -1.125787E-02  5.553533E-10
        10  19  1.759260E+05  1.564169E-01  1.564169E-01  1.165849E-02  1.165785E-02  4.109123E-02
        10  20  1.759260E+05  1.339893E-01  1.339893E-01  1.603613E-02  1.603549E-02  1.949321E-02
        10  21  1.759260E+05  1.114652E-01  1.114652E-01  2.041378E-02  2.041313E-02 -2.121251E-03
        10  22  1.759260E+05  8.826871E-02  1.021245E-01  7.125385E-03  2.722354E-07 -5.511114E-11
        10  23  1.759260E+05  1.016097E-01  1.081828E-01  9.192263E-03  2.796384E-07 -2.659385E-11
        10  24  1.759260E+05  1.148815E-01  1.141662E-01  1.125914E-02  2.904139E-07 -4.879871E-10
        10  25  1.759260E+05  1.564169E-01  1.564169E-01  1.165826E-02 -1.165725E-02 -4.109123E-02
        10  26  1.759260E+05  1.339893E-01  1.339893E-01  1.603591E-02 -1.603488E-02 -1.949321E-02
        10  27  1.759260E+05  1.114652E-01  1.114652E-01  2.041354E-02 -2.041248E-02  2.121251E-03
        11   1  1.759260E+05  1.029568E-01  1.029568E-01 -7.895026E-03  7.896523E-03  8.895663E-03
        11   2  1.759260E+05  1.009241E-01  1.009241E-01  3.867529E-02 -3.867378E-02  1.032554E-02
        11   3  1.759260E+05  1.009375E-01  1.009375E-01  8.524560E-02 -8.524408E-02  1.140644E-02
        11   4  1.759260E+05  1.187189E-01  1.157193E-01 -3.784662E-03  5.570627E-07  5.102740E-11
        11   5  1.759260E+05  1.190543E-01  1.155725E-01  1.817302E-02  5.603066E-07  6.181518E-10
        11   6  1.759260E+05  1.208577E-01  1.170114E-01  4.013070E-02  5.651070E-07 -4.841397E-10
        11   7  1.759260E+05  1.029568E-01  1.029568E-01 -7.895245E-03 -7.895449E-03 -8.895662E-03
        11   8  1.759260E+05  1.009241E-01  1.009241E-01  3.867508E-02  3.867487E-02 -1.032554E-02
        11   9  1.759260E+05  1.009375E-01  1.009375E-01  8.524541E-02  8.524515E-02 -1.140644E-02
        11  10  1.759260E+05  1.157193E-01  1.187189E-01  9.853668E-07  3.785953E-03 -1.841660E-10
        11  11  1.759260E+05  1.155725E-01  1.190543E-01  9.979091E-07 -1.817170E-02 -6.865163E-10
        11  12  1.759260E+05  1.170114E-01  1.208577E-01  1.009383E-06 -4.012937E-02  3.825989E-10
        11  13  1.759260E+05  1.219985E-01  1.219985E-01  8.569177E-07  4.286475E-07 -6.851235E-12
        11  14  1.759260E+05  1.226955E-01  1.226955E-01  8.742129E-07  4.342663E-07  3.305537E-11
        11  15  1.759260E+05  1.247722E-01  1.247722E-01  8.872720E-07  4.409221E-07  1.760805E-11
        11  16  1.759260E+05  1.157193E-01  1.187189E-01  7.286285E-07 -3.785095E-03  3.274292E-10
        11  17  1.759260E+05  1.155725E-01  1.190543E-01  7.495223E-07  1.817258E-02 -2.064795E-10
        11  18  1.759260E+05  1.170114E-01  1.208577E-01  7.654651E-07  4.013026E-02  7.281291E-10
        11  19  1.759260E+05  1.029568E-01  1.029568E-01  7.896946E-03  7.896313E-03 -8.895663E-03
        11  20  1.759260E+05  1.009241E-01  1.009241E-01 -3.867333E-02 -3.867400E-02 -1.032554E-02
        11  21  1.759260E+05  1.009375E-01  1.009375E-01 -8.524364E-02 -8.524428E-02 -1.140644E-02
        11  22  1.759260E+05  1.187189E-01  1.157193E-01  3.786385E-03  2.993250E-07 -2.323559E-10
        11  23  1.759260E+05  1.190543E-01  1.155725E-01 -1.817127E-02  3.098545E-07  3.877601E-10
        11  24  1.759260E+05  1.208577E-01  1.170114E-01 -4.012893E-02  3.203265E-07 -5.999409E-10
        11  25  1.759260E+05  1.029568E-01  1.029568E-01  7.896750E-03 -7.895665E-03  8.895662E-03
        11  26  1.759260E+05  1.009241E-01  1.009241E-01 -3.867355E-02  3.867466E-02  1.032554E-02
        11  27  1.759260E+05  1.009375E-01  1.009375E-01 -8.524383E-02  8.524497E-02  1.140644E-02
        12   1  1.759260E+05  1.150781E-01  1.150781E-01  4.507317E-02 -4.507167E-02  4.403941E-03
        12   2  1.759260E+05  1.422645E-01  1.422645E-01 -1.389638E-01  1.389653E-01 -1.960456E-02
        12   3  1.759260E+05  1.611741E-01  1.611741E-01 -3.230010E-01  3.230025E-01 -4.220149E-02
        12   4  1.759260E+05  1.183012E-01  1.168162E-01  2.288021E-02  5.423287E-07 -3.188744E-10
        12   5  1.759260E+05  1.057269E-01  1.123375E-01 -6.388658E-02  5.409968E-07  8.453013E-10
        12   6  1.759260E+05  8.721339E-02  1.014434E-01 -1.506533E-01  5.428364E-07 -4.450458E-10
        12   7  1.759260E+05  1.150781E-01  1.150781E-01  4.507301E-02  4.507271E-02 -4.403941E-03
        12   8  1.759260E+05  1.422645E-01  1.422645E-01 -1.389639E-01 -1.389643E-01  1.960456E-02
        12   9  1.759260E+05  1.611741E-01  1.611741E-01 -3.230011E-01 -3.230014E-01  4.220149E-02
        12  10  1.759260E+05  1.168162E-01  1.183012E-01  9.913262E-07 -2.287887E-02  2.251305E-10
        12  11  1.759260E+05  1.123375E-01  1.057269E-01  9.993740E-07  6.388793E-02 -8.971840E-10
        12  12  1.759260E+05  1.014434E-01  8.721339E-02  1.004134E-06  1.506547E-01  2.995968E-10
        12  13  1.759259E+05  1.153447E-01  1.153447E-01  8.936154E-07  4.438457E-07  1.117005E-11
        12  14  1.759259E+05  9.669868E-02  9.669868E-02  9.041566E-07  4.487070E-07  9.382493E-12
        12  15  1.759260E+05  7.247044E-02  7.247044E-02  9.152741E-07  4.549523E-07 -4.103294E-11
        12  16  1.759260E+05  1.168162E-01  1.183012E-01  7.944076E-07  2.287975E-02  5.154408E-10
        12  17  1.759260E+05  1.123375E-01  1.057269E-01  8.115256E-07 -6.388703E-02 -6.048923E-10
        12  18  1.759260E+05  1.014434E-01  8.721339E-02  8.261163E-07 -1.506538E-01  5.858134E-10
        12  19  1.759260E+05  1.150781E-01  1.150781E-01 -4.507122E-02 -4.507183E-02 -4.403941E-03
        12  20  1.759260E+05  1.422645E-01  1.422645E-01  1.389658E-01  1.389652E-01  1.960456E-02
        12  21  1.759260E+05  1.611741E-01  1.611741E-01  3.230030E-01  3.230024E-01  4.220149E-02
        12  22  1.759260E+05  1.183012E-01  1.168162E-01 -2.287842E-02  3.472117E-07 -4.191319E-10
        12  23  1.759260E+05  1.057269E-01  1.123375E-01  6.388839E-02  3.550380E-07  6.945135E-10
        12  24  1.759260E+05  8.721339E-02  1.014434E-01  1.506552E-01  3.659189E-07 -5.739828E-10
        12  25  1.759260E+05  1.150781E-01  1.150781E-01 -4.507138E-02  4.507256E-02  4.403941E-03
        12  26  1.759260E+05  1.422645E-01  1.422645E-01  1.389656E-01 -1.389644E-01 -1.960456E-02
        12  27  1.759260E+05  1.611741E-01  1.611741E-01  3.230028E-01 -3.230016E-01 -4.220149E-02
        13   1  1.759259E+05  1.155216E-01  1.155216E-01 -1.740301E-01  1.740315E-01 -2.344836E-02
        13   2  1.759258E+05  2.107872E-02  2.107873E-02  5.201917E-01 -5.201902E-01  5.930821E-02
        13   3  1.759258E+05 -4.273111E-02 -4.273111E-02  1.214411E+00 -1.214409E+00  1.368378E-01
        13   4  1.759260E+05  9.204172E-02  9.994837E-02 -8.762297E-02  5.136942E-07 -4.883172E-10
        13   5  1.759259E+05  1.346524E-01  1.146533E-01  2.396959E-01  5.147844E-07  7.654902E-10
        13   6  1.759259E+05  1.992381E-01  1.530937E-01  5.670150E-01  5.098192E-07 -2.706577E-10
        13   7  1.759259E+05  1.155216E-01  1.155216E-01 -1.740302E-01 -1.740305E-01  2.344836E-02
        13   8  1.759258E+05  2.107873E-02  2.107872E-02  5.201916E-01  5.201913E-01 -5.930821E-02
        13   9  1.759258E+05 -4.273111E-02 -4.273111E-02  1.214411E+00  1.214410E+00 -1.368378E-01
        13  10  1.759260E+05  9.994837E-02  9.204172E-02  9.713790E-07  8.762434E-02  4.018572E-10
        13  11  1.759259E+05  1.146533E-01  1.346524E-01  9.742284E-07 -2.396945E-01 -6.893934E-10
        13  12  1.759259E+05  1.530937E-01  1.992381E-01  9.809451E-07 -5.670136E-01  1.631767E-10
        13  13  1.759261E+05  1.014649E-01  1.014649E-01  9.161919E-07  4.562534E-07 -3.027373E-11
        13  14  1.759261E+05  1.650043E-01  1.650043E-01  9.257903E-07  4.621902E-07  2.588118E-11
        13  15  1.759260E+05  2.491966E-01  2.491966E-01  9.334830E-07  4.642069E-07 -1.466384E-11
        13  16  1.759260E+05  9.994837E-02  9.204172E-02  8.626038E-07 -8.762343E-02  6.360911E-10
        13  17  1.759259E+05  1.146533E-01  1.346524E-01  8.746057E-07  2.396954E-01 -5.420949E-10
        13  18  1.759259E+05  1.530937E-01  1.992381E-01  8.874523E-07  5.670145E-01  3.340263E-10
        13  19  1.759259E+05  1.155216E-01  1.155216E-01  1.740320E-01  1.740314E-01  2.344836E-02
        13  20  1.759258E+05  2.107873E-02  2.107872E-02 -5.201898E-01 -5.201903E-01 -5.930821E-02
        13  21  1.759258E+05 -4.273111E-02 -4.273111E-02 -1.214409E+00 -1.214409E+00 -1.368378E-01
        13  22  1.759260E+05  9.204172E-02  9.994837E-02  8.762481E-02  3.988144E-07 -6.355718E-10
        13  23  1.759259E+05  1.346524E-01  1.146533E-01 -2.396940E-01  4.086760E-07  5.882184E-10
        13  24  1.759259E+05  1.992381E-01  1.530937E-01 -5.670131E-01  4.175012E-07 -3.200062E-10
        13  25  1.759259E+05  1.155216E-01  1.155216E-01  1.740319E-01 -1.740306E-01 -2.344836E-02
        13  26  1.759258E+05  2.107872E-02  2.107873E-02 -5.201899E-01  5.201912E-01  5.930821E-02
        13  27  1.759258E+05 -4.273111E-02 -4.273111E-02 -1.214409E+00  1.214410E+00  1.368378E-01
        14   1  1.759263E+05  1.171393E-01  1.171393E-01  6.551173E-01 -6.551158E-01  7.810243E-02
        14   2  1.759264E+05  4.229488E-01  4.229488E-01 -1.952161E+00  1.952163E+00 -1.846421E-01
        14   3  1.759265E+05  6.081782E-01  6.081782E-01 -4.559472E+00  4.559474E+00 -4.268489E-01
        14   4  1.759258E+05  1.888161E-01  1.624792E-01  3.260965E-01  4.937065E-07 -4.584069E-10
        14   5  1.759260E+05  5.948809E-02  1.217410E-01 -9.030348E-01  4.947589E-07  4.607431E-10
        14   6  1.759262E+05 -1.564290E-01 -1.253974E-02 -2.132163E+00  4.984678E-07 -9.196275E-11
        14   7  1.759263E+05  1.171393E-01  1.171393E-01  6.551172E-01  6.551168E-01 -7.810243E-02
        14   8  1.759264E+05  4.229488E-01  4.229488E-01 -1.952161E+00 -1.952162E+00  1.846421E-01
        14   9  1.759265E+05  6.081782E-01  6.081782E-01 -4.559472E+00 -4.559473E+00  4.268489E-01
        14  10  1.759258E+05  1.624792E-01  1.888161E-01  9.677353E-07 -3.260951E-01  3.400066E-10
        14  11  1.759260E+05  1.217410E-01  5.948809E-02  9.698196E-07  9.030363E-01 -3.629916E-10
        14  12  1.759262E+05 -1.253974E-02 -1.564290E-01  9.670275E-07  2.132164E+00  1.622332E-10
        14  13  1.759254E+05  1.508992E-01  1.508992E-01  9.331581E-07  4.686916E-07 -1.704583E-11
        14  14  1.759256E+05 -4.487715E-02 -4.487715E-02  9.328826E-07  4.673222E-07  3.497959E-11
        14  15  1.759258E+05 -3.220549E-01 -3.220549E-01  9.450034E-07  4.703348E-07  2.235673E-11
        14  16  1.759258E+05  1.624792E-01  1.888161E-01  9.001278E-07  3.260960E-01  5.212849E-10
        14  17  1.759260E+05  1.217410E-01  5.948809E-02  9.080300E-07 -9.030353E-01 -2.662825E-10
        14  18  1.759262E+05 -1.253974E-02 -1.564290E-01  9.183479E-07 -2.132163E+00  1.341394E-10
        14  19  1.759263E+05  1.171393E-01  1.171393E-01 -6.551153E-01 -6.551159E-01 -7.810243E-02
        14  20  1.759264E+05  4.229488E-01  4.229488E-01  1.952163E+00  1.952163E+00  1.846421E-01
        14  21  1.759265E+05  6.081782E-01  6.081782E-01  4.559474E+00  4.559474E+00  4.268489E-01
        14  22  1.759258E+05  1.888161E-01  1.624792E-01 -3.260946E-01  4.372388E-07 -5.184690E-10
        14  23  1.759260E+05  5.948809E-02  1.217410E-01  9.030367E-01  4.394428E-07  2.978543E-10
        14  24  1.759262E+05 -1.564290E-01 -1.253974E-02  2.132165E+00  4.404902E-07 -1.193175E-10
        14  25  1.759263E+05  1.171393E-01  1.171393E-01 -6.551154E-01  6.551168E-01  7.810243E-02
        14  26  1.759264E+05  4.229488E-01  4.229488E-01  1.952163E+00 -1.952162E+00 -1.846421E-01
        14  27  1.759265E+05  6.081782E-01  6.081782E-01  4.559474E+00 -4.559473E+00 -4.268489E-01
        15   1  1.759248E+05  5.309595E-02  5.309595E-02 -2.461834E+00  2.461836E+00 -2.471489E-01
        15   2  1.759244E+05 -8.973695E-01 -8.973695E-01  7.323864E+00 -7.323863E+00  5.538396E-01
        15   3  1.759240E+05 -1.437135E+00 -1.437135E+00  1.710920E+01 -1.710920E+01  1.284380E+00
        15   4  1.759264E+05 -1.398287E-01 -5.650362E-02 -1.212263E+00  5.004971E-07 -2.724799E-10
        15   5  1.759259E+05  2.361662E-01  4.930478E-02  3.402327E+00  4.951017E-07  2.018116E-10
        15   6  1.759254E+05  9.058866E-01  4.722049E-01  8.016956E+00  4.945385E-07  3.223689E-11
        15   7  1.759248E+05  5.309595E-02  5.309595E-02 -2.461834E+00 -2.461835E+00  2.471489E-01
        15   8  1.759244E+05 -8.973695E-01 -8.973695E-01  7.323864E+00  7.323864E+00 -5.538396E-01
        15   9  1.759240E+05 -1.437135E+00 -1.437135E+00  1.710920E+01  1.710920E+01 -1.284380E+00
        15  10  1.759264E+05 -5.650362E-02 -1.398287E-01  9.624586E-07  1.212264E+00  2.033878E-10
        15  11  1.759259E+05  4.930478E-02  2.361662E-01  9.611351E-07 -3.402326E+00 -3.482894E-10
        15  12  1.759254E+05  4.722049E-01  9.058866E-01  9.639425E-07 -8.016954E+00  6.998423E-11
        15  13  1.759279E+05  1.405677E-02  1.405677E-02  9.448369E-07  4.761841E-07 -2.186235E-11
        15  14  1.759274E+05  5.926006E-01  5.926006E-01  9.453347E-07  4.741540E-07 -3.913110E-11
        15  15  1.759269E+05  1.446965E+00  1.446965E+00  9.467666E-07  4.770813E-07  6.832583E-11
        15  16  1.759264E+05 -5.650362E-02 -1.398287E-01  9.278205E-07 -1.212263E+00  2.041088E-10
        15  17  1.759259E+05  4.930478E-02  2.361662E-01  9.297400E-07  3.402327E+00 -1.443801E-10
        15  18  1.759254E+05  4.722049E-01  9.058866E-01  9.343214E-07  8.016955E+00  3.975065E-10
        15  19  1.759248E+05  5.309595E-02  5.309595E-02  2.461836E+00  2.461836E+00  2.471489E-01
        15  20  1.759244E+05 -8.973695E-01 -8.973695E-01 -7.323862E+00 -7.323863E+00 -5.538396E-01
        15  21  1.759240E+05 -1.437135E+00 -1.437135E+00 -1.710920E+01 -1.710920E+01 -1.284380E+00
        15  22  1.759264E+05 -1.398287E-01 -5.650362E-02  1.212265E+00  4.509088E-07 -2.477637E-10
        15  23  1.759259E+05  2.361662E-01  4.930478E-02 -3.402326E+00  4.517877E-07  9.612257E-11
        15  24  1.759254E+05  9.058866E-01  4.722049E-01 -8.016954E+00  4.592475E-07 -2.262312E-10
        15  25  1.759248E+05  5.309595E-02  5.309595E-02  2.461836E+00 -2.461835E+00 -2.471489E-01
        15  26  1.759244E+05 -8.973695E-01 -8.973695E-01 -7.323862E+00  7.323864E+00  5.538396E-01
        15  27  1.759240E+05 -1.437135E+00 -1.437135E+00 -1.710920E+01  1.710920E+01  1.284380E+00
        16   1  1.759302E+05  5.249824E-01  5.249824E-01  9.225990E+00 -9.225989E+00  7.495734E-01
        16   2  1.759316E+05  3.431881E+00  3.431881E+00 -2.744678E+01  2.744679E+01 -1.570594E+00
        16   3  1.759332E+05  4.462363E+00  4.462363E+00 -6.412323E+01  6.412323E+01 -3.576147E+00
        16   4  1.759244E+05  9.548405E-01  7.019122E-01  4.485309E+00  4.900506E-07 -5.579594E-11
        16   5  1.759260E+05  1.835943E-02  5.464619E-01 -1.279645E+01  4.971109E-07  1.231346E-10
        16   6  1.759277E+05 -2.277877E+00 -1.080188E+00 -3.007777E+01  5.033294E-07  1.498835E-10
        16   7  1.759302E+05  5.249824E-01  5.249824E-01  9.225990E+00  9.225990E+00 -7.495734E-01
        16   8  1.759316E+05  3.431881E+00  3.431881E+00 -2.744678E+01 -2.744678E+01  1.570594E+00
        16   9  1.759332E+05  4.462363E+00  4.462363E+00 -6.412323E+01 -6.412323E+01  3.576147E+00
        16  10  1.759244E+05  7.019122E-01  9.548405E-01  9.582629E-07 -4.485307E+00  1.819898E-10
        16  11  1.759260E+05  5.464619E-01  1.835943E-02  9.619962E-07  1.279645E+01 -1.155517E-10
        16  12  1.759277E+05 -1.080188E+00 -2.277877E+00  9.739014E-07  3.007777E+01  1.383782E-10
        16  13  1.759186E+05  3.330010E-01  3.330010E-01  9.497241E-07  4.825112E-07  6.383758E-11
        16  14  1.759203E+05 -1.190518E+00 -1.190518E+00  9.533482E-07  4.843021E-07 -3.175443E-11
        16  15  1.759221E+05 -3.995517E+00 -3.995517E+00  9.553581E-07  4.870202E-07  3.966286E-11
        16  16  1.759244E+05  7.019122E-01  9.548405E-01  9.404707E-07  4.485308E+00  3.877219E-10
        16  17  1.759260E+05  5.464619E-01  1.835943E-02  9.418170E-07 -1.279645E+01 -3.951318E-10
        16  18  1.759277E+05 -1.080188E+00 -2.277877E+00  9.424463E-07 -3.007777E+01 -6.106652E-10
        16  19  1.759302E+05  5.249824E-01  5.249824E-01 -9.225988E+00 -9.225989E+00 -7.495734E-01
        16  20  1.759316E+05  3.431881E+00  3.431881E+00  2.744679E+01  2.744679E+01  1.570594E+00
        16  21  1.759332E+05  4.462363E+00  4.462363E+00  6.412323E+01  6.412323E+01  3.576147E+00
        16  22  1.759244E+05  9.548405E-01  7.019122E-01 -4.485307E+00  4.709212E-07 -2.637258E-10
        16  23  1.759260E+05  1.835943E-02  5.464619E-01  1.279645E+01  4.713518E-07  2.171046E-10
        16  24  1.759277E+05 -2.277877E+00 -1.080188E+00  3.007777E+01  4.703874E-07  4.747809E-10
        16  25  1.759302E+05  5.249824E-01  5.249824E-01 -9.225988E+00  9.225990E+00  7.495734E-01
        16  26  1.759316E+05  3.431881E+00  3.431881E+00  2.744679E+01 -2.744678E+01 -1.570594E+00
        16  27  1.759332E+05  4.462363E+00  4.462363E+00  6.412323E+01 -6.412323E+01 -3.576147E+00
        17   1  1.759089E+05 -2.085520E+00 -2.085520E+00 -3.468645E+01  3.468645E+01 -2.168451E+00
        17   2  1.759067E+05 -9.898400E+00 -9.898400E+00  1.028670E+02 -1.028670E+02  3.925807E+00
        17   3  1.759060E+05 -1.322338E+01 -1.322338E+01  2.403839E+02 -2.403839E+02  9.178338E+00
        17   4  1.759306E+05 -2.638790E+00 -1.910010E+00 -1.672124E+01  5.028189E-07  1.186232E-10
        17   5  1.759272E+05 -3.725980E-01 -1.717185E+00  4.819796E+01  4.918071E-07  8.382064E-11
        17   6  1.759238E+05  4.926964E+00  1.718187E+00  1.131213E+02  4.774925E-07  1.717535E-11
        17   7  1.759089E+05 -2.085520E+00 -2.085520E+00 -3.468645E+01 -3.468645E+01  2.168451E+00
        17   8  1.759067E+05 -9.898400E+00 -9.898400E+00  1.028670E+02  1.028670E+02 -3.925807E+00
        17   9  1.759060E+05 -1.322338E+01 -1.322338E+01  2.403839E+02  2.403839E+02 -9.178338E+00
        17  10  1.759306E+05 -1.910010E+00 -2.638790E+00  9.704763E-07  1.672124E+01  1.066594E-10
        17  11  1.759272E+05 -1.717185E+00 -3.725980E-01  9.579642E-07 -4.819796E+01 -4.430748E-10
        17  12  1.759238E+05  1.718187E+00  4.926964E+00  9.424635E-07 -1.131213E+02 -6.998543E-10
        17  13  1.759522E+05 -1.477437E-01 -1.477437E-01  9.583057E-07  4.908773E-07  4.428790E-11
        17  14  1.759486E+05  3.655547E+00  3.655547E+00  9.572089E-07  4.937449E-07 -3.629324E-11
        17  15  1.759447E+05  1.026122E+01  1.026122E+01  9.608562E-07  4.946400E-07  1.215196E-11
        17  16  1.759306E+05 -1.910010E+00 -2.638790E+00  9.469946E-07 -1.672124E+01 -2.542119E-10
        17  17  1.759272E+05 -1.717185E+00 -3.725980E-01  9.638143E-07  4.819796E+01  9.620350E-10
        17  18  1.759238E+05  1.718187E+00  4.926964E+00  9.837832E-07  1.131213E+02  2.380292E-09
        17  19  1.759089E+05 -2.085520E+00 -2.085520E+00  3.468645E+01  3.468645E+01  2.168451E+00
        17  20  1.759067E+05 -9.898400E+00 -9.898400E+00 -1.028670E+02 -1.028670E+02 -3.925807E+00
        17  21  1.759060E+05 -1.322338E+01 -1.322338E+01 -2.403839E+02 -2.403839E+02 -9.178338E+00
        17  22  1.759306E+05 -2.638790E+00 -1.910010E+00  1.672124E+01  4.762540E-07  2.065508E-10
        17  23  1.759272E+05 -3.725980E-01 -1.717185E+00 -4.819796E+01  4.964909E-07 -7.623741E-10
        17  24  1.759238E+05  4.926964E+00  1.718187E+00 -1.131213E+02  5.130917E-07 -1.616771E-09
        17  25  1.759089E+05 -2.085520E+00 -2.085520E+00  3.468645E+01 -3.468645E+01 -2.168451E+00
        17  26  1.759067E+05 -9.898400E+00 -9.898400E+00 -1.028670E+02  1.028670E+02  3.925807E+00
        17  27  1.759060E+05 -1.322338E+01 -1.322338E+01 -2.403839E+02  2.403839E+02  9.178338E+00
        18   1  1.759849E+05  1.096043E+01  1.096043E+01  1.292251E+02 -1.292251E+02  5.690843E+00
        18   2  1.760061E+05  3.377301E+01  3.377301E+01 -3.846032E+02  3.846032E+02 -7.827628E+00
        18   3  1.760571E+05  2.125098E+01  2.125098E+01 -8.986155E+02  8.986155E+02 -1.636126E+01
        18   4  1.759028E+05  8.973330E+00  7.021675E+00  6.114540E+01  4.884033E-07  7.660269E-12
        18   5  1.759199E+05  9.199373E+00  1.155036E+01 -1.805348E+02  5.531478E-07 -5.610115E-10
        18   6  1.759426E+05 -1.852600E+01 -1.458175E+01 -4.221678E+02  6.167094E-07 -2.106903E-09
        18   7  1.759849E+05  1.096043E+01  1.096043E+01  1.292251E+02  1.292251E+02 -5.690843E+00
        18   8  1.760061E+05  3.377301E+01  3.377301E+01 -3.846032E+02 -3.846032E+02  7.827628E+00
        18   9  1.760571E+05  2.125098E+01  2.125098E+01 -8.986155E+02 -8.986155E+02  1.636126E+01
        18  10  1.759028E+05  7.021675E+00  8.973330E+00  9.529166E-07 -6.114540E+01 -3.619948E-10
        18  11  1.759199E+05  1.155036E+01  9.199373E+00  1.010175E-06  1.805348E+02  1.671486E-09
        18  12  1.759426E+05 -1.458175E+01 -1.852600E+01  1.074319E-06  4.221678E+02  4.976916E-09
        18  13  1.758219E+05 -9.772695E-01 -9.772695E-01  9.627012E-07  4.946721E-07  9.319154E-12
        18  14  1.758388E+05 -4.229854E+00 -4.229854E+00  9.608035E-07  5.028493E-07 -3.894072E-11
        18  15  1.758580E+05 -3.443102E+01 -3.443102E+01  9.675540E-07  5.066398E-07  5.552016E-11
        18  16  1.759028E+05  7.021675E+00  8.973330E+00  9.755932E-07  6.114540E+01  1.372743E-09
        18  17  1.759199E+05  1.155036E+01  9.199373E+00  9.147030E-07 -1.805348E+02 -3.058485E-09
        18  18  1.759426E+05 -1.458175E+01 -1.852600E+01  8.637667E-07 -4.221678E+02 -6.628163E-09
        18  19  1.759849E+05  1.096043E+01  1.096043E+01 -1.292251E+02 -1.292251E+02 -5.690843E+00
        18  20  1.760061E+05  3.377301E+01  3.377301E+01  3.846032E+02  3.846032E+02  7.827628E+00
        18  21  1.760571E+05  2.125098E+01  2.125098E+01  8.986155E+02  8.986155E+02  1.636126E+01
        18  22  1.759028E+05  8.973330E+00  7.021675E+00 -6.114540E+01  5.055709E-07 -9.515522E-10
        18  23  1.759199E+05  9.199373E+00  1.155036E+01  1.805348E+02  4.575965E-07  1.779197E-09
        18  24  1.759426E+05 -1.852600E+01 -1.458175E+01  4.221678E+02  4.013316E-07  3.980347E-09
        18  25  1.759849E+05  1.096043E+01  1.096043E+01 -1.292251E+02  1.292251E+02  5.690843E+00
        18  26  1.760061E+05  3.377301E+01  3.377301E+01  3.846032E+02 -3.846032E+02 -7.827628E+00
        18  27  1.760571E+05  2.125098E+01  2.125098E+01  8.986155E+02 -8.986155E+02 -1.636126E+01
        19   1  1.756669E+05 -4.994104E+01 -4.994104E+01 -4.896179E+02  4.896179E+02 -1.081706E+01
        19   2  1.757630E+05 -7.146471E+01 -7.146471E+01  1.442125E+03 -1.442125E+03  2.405003E+00
        19   3  1.762332E+05 -7.896160E+01 -7.896160E+01  3.373873E+03 -3.373873E+03 -1.759870E+00
        19   4  1.759592E+05 -2.565772E+01 -2.248014E+01 -2.328355E+02  5.665129E-07 -8.705645E-10
        19   5  1.759721E+05 -2.811286E+01 -3.299708E+01  6.825552E+02  3.405280E-07  4.004275E-09
        19   6  1.760297E+05 -5.696981E+01 -7.867142E+01  1.597983E+03  1.355747E-07  6.475070E-09
        19   7  1.756669E+05 -4.994104E+01 -4.994104E+01 -4.896179E+02 -4.896179E+02  1.081706E+01
        19   8  1.757630E+05 -7.146471E+01 -7.146471E+01  1.442125E+03  1.442125E+03 -2.405003E+00
        19   9  1.762332E+05 -7.896160E+01 -7.896160E+01  3.373873E+03  3.373873E+03  1.759870E+00
        19  10  1.759592E+05 -2.248014E+01 -2.565772E+01  1.026352E-06  2.328355E+02  2.490402E-09
        19  11  1.759721E+05 -3.299708E+01 -2.811286E+01  7.866379E-07 -6.825552E+02 -8.387247E-09
        19  12  1.760297E+05 -7.867142E+01 -5.696981E+01  5.905240E-07 -1.597983E+03 -1.642775E-08
        19  13  1.762601E+05  1.407022E+01  1.407022E+01  9.773324E-07  5.143612E-07  4.699384E-11
        19  14  1.762621E+05  1.408438E+01  1.408438E+01  9.593758E-07  5.090558E-07 -6.559973E-11
        19  15  1.762672E+05 -2.028286E+01 -2.028286E+01  9.861480E-07  5.256945E-07 -1.890203E-11
        19  16  1.759592E+05 -2.248014E+01 -2.565772E+01  9.167487E-07 -2.328355E+02 -3.790253E-09
        19  17  1.759721E+05 -3.299708E+01 -2.811286E+01  1.123108E-06  6.825552E+02  1.045971E-08
        19  18  1.760297E+05 -7.867142E+01 -5.696981E+01  1.371065E-06  1.597983E+03  2.692099E-08
        19  19  1.756669E+05 -4.994104E+01 -4.994104E+01  4.896179E+02  4.896179E+02  1.081706E+01
        19  20  1.757630E+05 -7.146471E+01 -7.146471E+01 -1.442125E+03 -1.442125E+03 -2.405003E+00
        19  21  1.762332E+05 -7.896160E+01 -7.896160E+01 -3.373873E+03 -3.373873E+03  1.759870E+00
        19  22  1.759592E+05 -2.565772E+01 -2.248014E+01  2.328355E+02  4.551005E-07  2.370264E-09
        19  23  1.759721E+05 -2.811286E+01 -3.299708E+01 -6.825552E+02  6.745440E-07 -6.321569E-09
        19  24  1.760297E+05 -5.696981E+01 -7.867142E+01 -1.597983E+03  9.135884E-07 -1.695139E-08
        19  25  1.756669E+05 -4.994104E+01 -4.994104E+01  4.896179E+02 -4.896179E+02 -1.081706E+01
        19  26  1.757630E+05 -7.146471E+01 -7.146471E+01 -1.442125E+03  1.442125E+03  2.405003E+00
        19  27  1.762332E+05 -7.896160E+01 -7.896160E+01 -3.373873E+03  3.373873E+03 -1.759870E+00
        20   1  1.768034E+05  2.105124E+02  2.105124E+02  1.785634E+03 -1.785634E+03  3.777148E+01
        20   2  1.780922E+05  3.586307E+02  3.586307E+02 -5.354316E+03  5.354317E+03  1.160220E+02
        20   3  1.847762E+05 -6.504459E+01 -6.504459E+01 -1.247767E+04  1.247767E+04  8.351235E+01
        20   4  1.755234E+05  1.075096E+02  8.879699E+01  8.047924E+02  2.780810E-07  1.431667E-09
        20   5  1.756605E+05  3.413342E+02  2.462769E+02 -2.529693E+03  1.185801E-06 -4.246724E-08
        20   6  1.764642E+05 -3.515351E+02 -6.811697E+02 -5.859233E+03  2.008555E-06 -1.250764E-07
        20   7  1.768034E+05  2.105124E+02  2.105124E+02  1.785634E+03  1.785634E+03 -3.777148E+01
        20   8  1.780922E+05  3.586307E+02  3.586307E+02 -5.354317E+03 -5.354317E+03 -1.160220E+02
        20   9  1.847762E+05 -6.504459E+01 -6.504459E+01 -1.247767E+04 -1.247767E+04 -8.351235E+01
        20  10  1.755234E+05  8.879699E+01  1.075096E+02  6.869672E-07 -8.047923E+02 -6.514251E-09
        20  11  1.756605E+05  2.462769E+02  3.413342E+02  1.679090E-06  2.529693E+03  5.912938E-08
        20  12  1.764642E+05 -6.811697E+02 -3.515351E+02  2.529052E-06  5.859233E+03  1.647668E-07
        20  13  1.743795E+05 -4.365715E+01 -4.365715E+01  8.641870E-07  4.630805E-07  1.292197E-11
        20  14  1.743713E+05  1.971122E+02  1.971122E+02  1.062592E-06  5.729647E-07  5.302498E-12
        20  15  1.744370E+05 -5.632486E+02 -5.632486E+02  1.134815E-06  6.106284E-07  4.870056E-11
        20  16  1.755234E+05  8.879699E+01  1.075096E+02  1.084102E-06  8.047923E+02  1.576215E-08
        20  17  1.756605E+05  2.462769E+02  3.413342E+02  4.626607E-07 -2.529693E+03 -1.310411E-08
        20  18  1.764642E+05 -6.811697E+02 -3.515351E+02 -3.130435E-07 -5.859233E+03 -5.188786E-09
        20  19  1.768034E+05  2.105124E+02  2.105124E+02 -1.785634E+03 -1.785634E+03 -3.777148E+01
        20  20  1.780922E+05  3.586307E+02  3.586307E+02  5.354317E+03  5.354317E+03 -1.160220E+02
        20  21  1.847762E+05 -6.504459E+01 -6.504459E+01  1.247767E+04  1.247767E+04 -8.351235E+01
        20  22  1.755234E+05  1.075096E+02  8.879699E+01 -8.047923E+02  6.674773E-07 -1.053175E-08
        20  23  1.756605E+05  3.413342E+02  2.462769E+02  2.529693E+03 -3.707148E-08 -3.624585E-09
        20  24  1.764642E+05 -3.515351E+02 -6.811697E+02  5.859233E+03 -8.184907E-07 -3.411154E-08
        20  25  1.768034E+05  2.105124E+02  2.105124E+02 -1.785634E+03  1.785634E+03  3.777148E+01
        20  26  1.780922E+05  3.586307E+02  3.586307E+02  5.354317E+03 -5.354317E+03  1.160220E+02
        20  27  1.847762E+05 -6.504459E+01 -6.504459E+01  1.247767E+04 -1.247767E+04  8.351235E+01
