
                        S T E P       1


                                INCREMENT     1


 displacements (vx,vy,vz) for set NALL and time  0.1000000E+01

         1 -1.346943E-06  6.114743E-06  0.000000E+00
         2 -3.484750E-06  4.992232E-06  0.000000E+00
         3 -3.484751E-06  4.822125E-06  1.292082E-06
         4 -1.346941E-06  5.906388E-06  1.582610E-06
         5  6.791298E-15  7.074657E-06  0.000000E+00
         6 -8.089082E-15  5.816430E-06  0.000000E+00
         7 -8.089085E-15  5.618237E-06  1.505400E-06
         8  6.791302E-15  6.833594E-06  1.831054E-06
         9 -2.402438E-06  6.003092E-06  0.000000E+00
        10 -3.484749E-06  4.951139E-06  6.518303E-07
        11 -2.402441E-06  5.798540E-06  1.553718E-06
        12 -1.346943E-06  6.067933E-06  7.988561E-07
        13 -7.335172E-07  6.897204E-06  0.000000E+00
        14 -1.772930E-06  5.684389E-06  0.000000E+00
        15 -1.772931E-06  5.490693E-06  1.471224E-06
        16 -7.335164E-07  6.662191E-06  1.785127E-06
        17  1.337220E-20  6.936491E-06  0.000000E+00
        18 -8.089620E-15  5.768269E-06  7.594076E-07
        19  0.000000E+00  6.700134E-06  1.795300E-06
        20  6.790098E-15  7.019984E-06  9.241958E-07
        21 -4.677153E-06  2.732410E-06  0.000000E+00
        22 -4.677153E-06  2.639309E-06  7.072044E-07
        23 -1.764486E-14  3.182993E-06  0.000000E+00
        24 -1.764486E-14  3.074537E-06  8.238242E-07
        25 -4.210637E-06  3.565686E-06  0.000000E+00
        26 -4.677152E-06  2.707023E-06  3.563885E-07
        27 -4.210638E-06  3.444191E-06  9.228670E-07
        28 -2.435743E-06  3.020424E-06  0.000000E+00
        29 -2.435743E-06  2.917504E-06  7.817455E-07
        30 -1.454071E-14  4.171167E-06  0.000000E+00
        31 -1.764488E-14  3.153500E-06  4.151687E-07
        32 -1.454070E-14  4.029041E-06  1.079577E-06
        33  1.346943E-06  6.114743E-06  0.000000E+00
        34  3.484750E-06  4.992232E-06  0.000000E+00
        35  3.484751E-06  4.822125E-06  1.292082E-06
        36  1.346941E-06  5.906388E-06  1.582610E-06
        37  7.335172E-07  6.897204E-06  0.000000E+00
        38  1.772930E-06  5.684389E-06  0.000000E+00
        39  1.772931E-06  5.490693E-06  1.471224E-06
        40  7.335164E-07  6.662191E-06  1.785127E-06
        41  2.402438E-06  6.003092E-06  0.000000E+00
        42  3.484749E-06  4.951139E-06  6.518303E-07
        43  2.402441E-06  5.798540E-06  1.553718E-06
        44  1.346943E-06  6.067933E-06  7.988561E-07
        45  4.677153E-06  2.732410E-06  0.000000E+00
        46  4.677153E-06  2.639309E-06  7.072044E-07
        47  2.435743E-06  3.020424E-06  0.000000E+00
        48  2.435743E-06  2.917504E-06  7.817455E-07
        49  4.210637E-06  3.565686E-06  0.000000E+00
        50  4.677152E-06  2.707023E-06  3.563885E-07
        51  4.210638E-06  3.444191E-06  9.228670E-07
        52 -3.484751E-06  4.323393E-06  2.496112E-06
        53 -1.346947E-06  5.295528E-06  3.057376E-06
        54 -8.089083E-15  5.037168E-06  2.908210E-06
        55  6.791268E-15  6.126837E-06  3.537333E-06
        56 -3.484750E-06  4.613723E-06  1.911068E-06
        57 -2.402436E-06  5.198835E-06  3.001547E-06
        58 -1.346943E-06  5.654419E-06  2.342131E-06
        59 -1.772931E-06  4.922823E-06  2.842193E-06
        60 -7.335191E-07  5.973152E-06  3.448602E-06
        61 -8.089620E-15  5.375167E-06  2.226468E-06
        62  4.080317E-20  6.007182E-06  3.468247E-06
        63  6.790100E-15  6.541589E-06  2.709608E-06
        64 -4.677154E-06  2.366337E-06  1.366206E-06
        65 -1.764484E-14  2.756554E-06  1.591498E-06
        66 -4.677153E-06  2.522545E-06  1.044873E-06
        67 -4.210638E-06  3.087966E-06  1.782839E-06
        68 -2.435744E-06  2.615773E-06  1.510218E-06
        69 -1.764487E-14  2.938596E-06  1.217208E-06
        70 -1.454071E-14  3.612327E-06  2.085580E-06
        71  3.484751E-06  4.323393E-06  2.496112E-06
        72  1.346947E-06  5.295528E-06  3.057376E-06
        73  1.772931E-06  4.922823E-06  2.842193E-06
        74  7.335191E-07  5.973152E-06  3.448602E-06
        75  3.484750E-06  4.613723E-06  1.911068E-06
        76  2.402436E-06  5.198835E-06  3.001547E-06
        77  1.346943E-06  5.654419E-06  2.342131E-06
        78  4.677154E-06  2.366337E-06  1.366206E-06
        79  2.435744E-06  2.615773E-06  1.510218E-06
        80  4.677153E-06  2.522545E-06  1.044873E-06
        81  4.210638E-06  3.087966E-06  1.782839E-06

 stresses (elem, integ.pnt.,sxx,syy,szz,sxy,sxz,syz) for set EALL and time  0.1000000E+01

         1   1 -2.955305E-02  5.536851E-01  1.679504E+00  2.933139E-02  1.643924E-03 -6.215665E-02
         1   2  4.510775E-02  1.794323E+00  2.470752E+00  5.554534E-02  3.097757E-03 -3.964441E-02
         1   3 -2.955273E-02  5.980231E-01  1.635167E+00  2.875715E-02  6.003594E-03 -2.276254E-01
         1   4  4.510792E-02  1.819816E+00  2.445262E+00  5.445469E-02  1.138405E-02 -1.347741E-01
         1   5 -8.958869E-02  5.827286E-01  1.798317E+00  3.190255E-02  1.714954E-03 -6.712768E-02
         1   6  8.038646E-02  1.932607E+00  2.687942E+00  4.210851E-02  2.285061E-03 -4.414864E-02
         1   7 -8.958869E-02  6.305946E-01  1.750452E+00  3.125990E-02  6.600757E-03 -2.457628E-01
         1   8  8.038708E-02  1.961134E+00  2.659419E+00  4.126480E-02  8.691176E-03 -1.505998E-01
         2   1 -1.436723E-02  2.331079E+00  2.829194E+00  1.533036E-02  8.639906E-04 -2.580668E-02
         2   2  2.142338E-02  2.065323E+00  4.053719E+00  1.194693E-02  6.689362E-04 -1.112547E-01
         2   3 -1.436784E-02  2.351543E+00  2.808731E+00  1.503238E-02  3.133337E-03 -1.021798E-01
         2   4  2.142300E-02  2.142892E+00  3.976149E+00  1.171378E-02  2.446323E-03 -4.007503E-01
         2   5  4.990219E-02  2.554761E+00  3.108349E+00  3.439390E-02  1.864134E-03 -2.879027E-02
         2   6  3.337555E-02  2.264103E+00  4.432068E+00  4.055972E-05 -1.891660E-05 -1.212842E-01
         2   7  4.990213E-02  2.577448E+00  3.085662E+00  3.370382E-02  7.100948E-03 -1.134642E-01
         2   8  3.337551E-02  2.348687E+00  4.347484E+00  3.340968E-05  2.827907E-05 -4.369566E-01
         3   1 -8.958869E-02  5.827286E-01  1.798317E+00 -3.190255E-02 -1.714954E-03 -6.712768E-02
         3   2  8.038646E-02  1.932607E+00  2.687942E+00 -4.210851E-02 -2.285061E-03 -4.414864E-02
         3   3 -8.958870E-02  6.305946E-01  1.750452E+00 -3.125990E-02 -6.600757E-03 -2.457628E-01
         3   4  8.038708E-02  1.961134E+00  2.659419E+00 -4.126479E-02 -8.691176E-03 -1.505998E-01
         3   5 -2.955305E-02  5.536851E-01  1.679504E+00 -2.933139E-02 -1.643924E-03 -6.215665E-02
         3   6  4.510775E-02  1.794323E+00  2.470752E+00 -5.554534E-02 -3.097757E-03 -3.964441E-02
         3   7 -2.955273E-02  5.980232E-01  1.635167E+00 -2.875715E-02 -6.003594E-03 -2.276254E-01
         3   8  4.510792E-02  1.819816E+00  2.445262E+00 -5.445469E-02 -1.138405E-02 -1.347741E-01
         4   1  4.990219E-02  2.554761E+00  3.108349E+00 -3.439390E-02 -1.864134E-03 -2.879027E-02
         4   2  3.337555E-02  2.264103E+00  4.432068E+00 -4.055960E-05  1.891660E-05 -1.212842E-01
         4   3  4.990213E-02  2.577448E+00  3.085662E+00 -3.370382E-02 -7.100948E-03 -1.134642E-01
         4   4  3.337551E-02  2.348687E+00  4.347484E+00 -3.340957E-05 -2.827905E-05 -4.369566E-01
         4   5 -1.436723E-02  2.331079E+00  2.829194E+00 -1.533036E-02 -8.639906E-04 -2.580668E-02
         4   6  2.142338E-02  2.065323E+00  4.053719E+00 -1.194693E-02 -6.689362E-04 -1.112547E-01
         4   7 -1.436784E-02  2.351543E+00  2.808731E+00 -1.503238E-02 -3.133337E-03 -1.021798E-01
         4   8  2.142300E-02  2.142892E+00  3.976149E+00 -1.171378E-02 -2.446323E-03 -4.007503E-01
         5   1 -2.955332E-02  6.601779E-01  1.573009E+00  2.790644E-02  9.179384E-03 -3.352834E-01
         5   2  4.510817E-02  1.859461E+00  2.405617E+00  5.285098E-02  1.736858E-02 -2.034396E-01
         5   3 -2.955359E-02  7.813075E-01  1.451878E+00  2.622443E-02  1.324230E-02 -4.564168E-01
         5   4  4.510947E-02  1.929101E+00  2.335977E+00  4.965230E-02  2.509003E-02 -2.730778E-01
         5   5 -8.958946E-02  6.977202E-01  1.683322E+00  3.037181E-02  9.913567E-03 -3.620311E-01
         5   6  8.038732E-02  2.005284E+00  2.615269E+00  4.008222E-02  1.310567E-02 -2.270667E-01
         5   7 -8.958950E-02  8.284879E-01  1.552554E+00  2.848447E-02  1.446536E-02 -4.928030E-01
         5   8  8.038808E-02  2.083211E+00  2.537341E+00  3.761054E-02  1.907591E-02 -3.049927E-01
         6   1 -1.436743E-02  2.377350E+00  2.782925E+00  1.458458E-02  4.802439E-03 -1.468790E-01
         6   2  2.142205E-02  2.254144E+00  3.864895E+00  1.136696E-02  3.738212E-03 -5.934495E-01
         6   3 -1.436704E-02  2.433262E+00  2.727014E+00  1.370653E-02  6.915676E-03 -2.027890E-01
         6   4  2.141993E-02  2.466064E+00  3.652968E+00  1.067854E-02  5.393003E-03 -8.053778E-01
         6   5  4.990262E-02  2.606240E+00  3.056872E+00  3.273941E-02  1.070228E-02 -1.633312E-01
         6   6  3.337465E-02  2.469968E+00  4.226200E+00  4.383921E-05 -7.989628E-06 -6.470274E-01
         6   7  4.990272E-02  2.668228E+00  2.994885E+00  3.071985E-02  1.558344E-02 -2.253179E-01
         6   8  3.337235E-02  2.701050E+00  3.995110E+00  2.792732E-05  3.806671E-05 -8.781189E-01
         7   1 -8.958946E-02  6.977202E-01  1.683322E+00 -3.037181E-02 -9.913567E-03 -3.620311E-01
         7   2  8.038732E-02  2.005284E+00  2.615269E+00 -4.008222E-02 -1.310567E-02 -2.270667E-01
         7   3 -8.958950E-02  8.284879E-01  1.552554E+00 -2.848446E-02 -1.446536E-02 -4.928030E-01
         7   4  8.038808E-02  2.083211E+00  2.537341E+00 -3.761054E-02 -1.907591E-02 -3.049927E-01
         7   5 -2.955332E-02  6.601779E-01  1.573009E+00 -2.790644E-02 -9.179384E-03 -3.352834E-01
         7   6  4.510817E-02  1.859461E+00  2.405617E+00 -5.285098E-02 -1.736858E-02 -2.034396E-01
         7   7 -2.955359E-02  7.813075E-01  1.451878E+00 -2.622443E-02 -1.324230E-02 -4.564168E-01
         7   8  4.510947E-02  1.929101E+00  2.335977E+00 -4.965230E-02 -2.509003E-02 -2.730778E-01
         8   1  4.990262E-02  2.606240E+00  3.056872E+00 -3.273941E-02 -1.070228E-02 -1.633312E-01
         8   2  3.337465E-02  2.469968E+00  4.226200E+00 -4.383910E-05  7.989664E-06 -6.470274E-01
         8   3  4.990272E-02  2.668228E+00  2.994885E+00 -3.071985E-02 -1.558344E-02 -2.253179E-01
         8   4  3.337235E-02  2.701050E+00  3.995110E+00 -2.792722E-05 -3.806666E-05 -8.781189E-01
         8   5 -1.436743E-02  2.377350E+00  2.782925E+00 -1.458458E-02 -4.802439E-03 -1.468790E-01
         8   6  2.142205E-02  2.254144E+00  3.864895E+00 -1.136695E-02 -3.738212E-03 -5.934495E-01
         8   7 -1.436704E-02  2.433262E+00  2.727014E+00 -1.370653E-02 -6.915676E-03 -2.027890E-01
         8   8  2.141993E-02  2.466064E+00  3.652968E+00 -1.067854E-02 -5.393003E-03 -8.053778E-01
