
                        S T E P       1


                                INCREMENT     1


 displacements (vx,vy,vz) for set NALL and time  0.1000000E+01

         1  0.000000E+00  0.000000E+00  0.000000E+00
         2  0.000000E+00  0.000000E+00  0.000000E+00
         3 -2.607090E-07  1.779824E-06  6.045739E-08
         4 -4.702205E-08  3.550867E-06 -5.673776E-07
         5  0.000000E+00  0.000000E+00  0.000000E+00
         6  0.000000E+00  0.000000E+00  0.000000E+00
         7 -5.889444E-16  1.866767E-06  2.301871E-08
         8 -3.811882E-17  3.537546E-06 -5.231695E-07
         9  0.000000E+00  0.000000E+00  0.000000E+00
        10 -1.538808E-07  9.855210E-07  8.979351E-08
        11 -1.555816E-07  2.653358E-06  8.304024E-08
        12 -6.427860E-09  2.218312E-06 -4.445269E-07
        13  0.000000E+00  0.000000E+00  0.000000E+00
        14  0.000000E+00  0.000000E+00  0.000000E+00
        15 -5.162632E-08  1.896654E-06 -4.532656E-08
        16 -1.741356E-08  3.533773E-06 -4.790201E-07
        17  0.000000E+00  0.000000E+00  0.000000E+00
        18 -2.991549E-16  1.037518E-06  7.107016E-08
        19 -2.476376E-16  2.692522E-06  9.954534E-08
        20 -4.202089E-16  2.219596E-06 -4.320358E-07
        21  0.000000E+00  0.000000E+00  0.000000E+00
        22 -4.272200E-08  1.621579E-07  5.356918E-08
        23  0.000000E+00  0.000000E+00  0.000000E+00
        24  6.921245E-16  1.362986E-07  1.021105E-07
        25  0.000000E+00  0.000000E+00  0.000000E+00
        26 -1.149009E-08  9.178928E-08  1.922839E-08
        27 -3.190770E-07  7.504458E-07  4.903134E-07
        28  0.000000E+00  0.000000E+00  0.000000E+00
        29  5.789530E-08  1.164456E-07 -3.586916E-07
        30  0.000000E+00  0.000000E+00  0.000000E+00
        31  3.021161E-16  6.940829E-08  4.478848E-08
        32 -4.943116E-16  7.948544E-07  4.014647E-07
        33  0.000000E+00  0.000000E+00  0.000000E+00
        34  0.000000E+00  0.000000E+00  0.000000E+00
        35  2.607090E-07  1.779824E-06  6.045739E-08
        36  4.702205E-08  3.550867E-06 -5.673776E-07
        37  0.000000E+00  0.000000E+00  0.000000E+00
        38  0.000000E+00  0.000000E+00  0.000000E+00
        39  5.162631E-08  1.896654E-06 -4.532656E-08
        40  1.741356E-08  3.533773E-06 -4.790201E-07
        41  0.000000E+00  0.000000E+00  0.000000E+00
        42  1.538808E-07  9.855210E-07  8.979351E-08
        43  1.555816E-07  2.653358E-06  8.304024E-08
        44  6.427860E-09  2.218312E-06 -4.445269E-07
        45  0.000000E+00  0.000000E+00  0.000000E+00
        46  4.272200E-08  1.621579E-07  5.356918E-08
        47  0.000000E+00  0.000000E+00  0.000000E+00
        48 -5.789530E-08  1.164456E-07 -3.586916E-07
        49  0.000000E+00  0.000000E+00  0.000000E+00
        50  1.149009E-08  9.178928E-08  1.922839E-08
        51  3.190770E-07  7.504458E-07  4.903134E-07
        52 -3.490808E-07  2.418910E-06  5.934637E-07
        53  0.000000E+00  0.000000E+00  0.000000E+00 L
        54 -2.157139E-15  2.518781E-06  5.264387E-07
        55  0.000000E+00  0.000000E+00  0.000000E+00 L
        56 -3.439048E-07  1.987703E-06  2.407609E-07
        57  1.490630E-07  3.112379E-06 -7.458231E-07
        58  4.565140E-08  3.009975E-06  7.326334E-08
        59 -2.002276E-07  2.536196E-06  7.654574E-07
        60  0.000000E+00  0.000000E+00  0.000000E+00 L
        61 -1.402384E-15  2.101727E-06  1.862562E-07
        62 -4.445130E-16  3.130186E-06 -6.934309E-07
        63  1.702785E-16  2.993086E-06  1.062901E-07
        64 -2.853339E-07 -4.298956E-08  4.685912E-07
        65  2.885632E-15  1.836551E-08  5.739331E-07
        66 -1.645842E-07  1.258030E-07  3.020219E-07
        67 -4.714927E-07  1.264203E-06  2.129862E-07
        68  1.081521E-07  2.115855E-08  2.035123E-07
        69  1.687539E-15  1.291892E-07  3.764657E-07
        70 -9.886978E-16  1.334401E-06  4.107357E-08
        71  3.490808E-07  2.418910E-06  5.934637E-07
        72  0.000000E+00  0.000000E+00  0.000000E+00 L
        73  2.002276E-07  2.536196E-06  7.654573E-07
        74  0.000000E+00  0.000000E+00  0.000000E+00 L
        75  3.439048E-07  1.987703E-06  2.407609E-07
        76 -1.490630E-07  3.112379E-06 -7.458231E-07
        77 -4.565140E-08  3.009975E-06  7.326334E-08
        78  2.853339E-07 -4.298956E-08  4.685912E-07
        79 -1.081521E-07  2.115855E-08  2.035123E-07
        80  1.645842E-07  1.258030E-07  3.020219E-07
        81  4.714927E-07  1.264203E-06  2.129862E-07

 stresses (elem, integ.pnt.,sxx,syy,szz,sxy,sxz,syz) for set EALL and time  0.1000000E+01

         1   1 -2.031909E-01 -1.344426E-01 -5.085317E-01  7.557599E-03 -1.751740E-02  1.311657E+00
         1   2  1.053990E-01  2.052198E-01  2.674729E-01  4.799280E-03 -6.905260E-02  1.223490E+00
         1   3  9.448400E-02  3.632912E-01  1.014493E-01  2.183822E-02 -3.428827E-02  6.208949E-01
         1   4  3.796268E-02  3.237416E-01  2.176246E-01  4.041970E-03 -2.553999E-02  9.047301E-01
         1   5 -1.899410E-01 -1.332705E-01 -4.948435E-01  3.400741E-04  1.884357E-03  1.317304E+00
         1   6  1.286888E-01  2.016408E-01  2.620767E-01  2.341468E-03 -8.824954E-03  1.249315E+00
         1   7  1.429325E-01  3.702535E-01  1.466105E-01  1.406887E-03  3.174121E-03  6.186560E-01
         1   8  1.528692E-01  3.433863E-01  2.577770E-01  6.960951E-03 -1.255878E-02  9.247699E-01
         2   1  3.206217E-01  4.333863E-01  8.011034E-01  3.704517E-03 -1.433720E-01  1.003662E+00
         2   2  2.526426E-01  3.182491E-01  6.346206E-01 -1.125873E-02 -1.296841E-01  7.012023E-01
         2   3  8.992102E-02  5.355634E-01  3.407700E-01  1.484702E-02 -5.499648E-02  7.253325E-01
         2   4  1.952072E-01  4.614815E-01  6.096249E-01 -3.069302E-02 -7.459275E-02  6.284271E-01
         2   5  3.183188E-01  4.086193E-01  7.104601E-01  2.446326E-03 -2.641450E-02  1.040950E+00
         2   6  2.614961E-01  3.115485E-01  5.626822E-01 -7.182550E-03 -9.283154E-03  6.909247E-01
         2   7  2.120948E-01  5.704500E-01  3.110598E-01  1.047531E-02 -4.158776E-02  7.676033E-01
         2   8  3.172624E-01  5.084085E-01  5.659241E-01 -2.486354E-02 -9.255359E-02  6.313530E-01
         3   1 -1.899410E-01 -1.332705E-01 -4.948435E-01 -3.400741E-04 -1.884357E-03  1.317304E+00
         3   2  1.286888E-01  2.016408E-01  2.620767E-01 -2.341468E-03  8.824953E-03  1.249315E+00
         3   3  1.429325E-01  3.702535E-01  1.466105E-01 -1.406887E-03 -3.174121E-03  6.186560E-01
         3   4  1.528692E-01  3.433863E-01  2.577770E-01 -6.960951E-03  1.255878E-02  9.247699E-01
         3   5 -2.031909E-01 -1.344426E-01 -5.085317E-01 -7.557599E-03  1.751740E-02  1.311657E+00
         3   6  1.053990E-01  2.052198E-01  2.674729E-01 -4.799280E-03  6.905260E-02  1.223490E+00
         3   7  9.448400E-02  3.632912E-01  1.014493E-01 -2.183822E-02  3.428826E-02  6.208949E-01
         3   8  3.796269E-02  3.237416E-01  2.176246E-01 -4.041970E-03  2.553999E-02  9.047301E-01
         4   1  3.183188E-01  4.086193E-01  7.104601E-01 -2.446326E-03  2.641449E-02  1.040950E+00
         4   2  2.614961E-01  3.115485E-01  5.626822E-01  7.182550E-03  9.283151E-03  6.909247E-01
         4   3  2.120948E-01  5.704500E-01  3.110598E-01 -1.047531E-02  4.158775E-02  7.676033E-01
         4   4  3.172624E-01  5.084085E-01  5.659241E-01  2.486354E-02  9.255359E-02  6.313530E-01
         4   5  3.206217E-01  4.333863E-01  8.011034E-01 -3.704517E-03  1.433720E-01  1.003662E+00
         4   6  2.526426E-01  3.182491E-01  6.346206E-01  1.125873E-02  1.296841E-01  7.012023E-01
         4   7  8.992102E-02  5.355634E-01  3.407700E-01 -1.484702E-02  5.499648E-02  7.253325E-01
         4   8  1.952072E-01  4.614815E-01  6.096249E-01  3.069302E-02  7.459275E-02  6.284271E-01
         5   1  1.435197E-01  2.606476E-01  2.865537E-01 -1.528394E-02  6.645544E-02  2.144966E-01
         5   2  1.994187E-02  5.790364E-01 -9.283001E-02  1.881916E-02  4.093978E-02  8.054195E-01
         5   3 -3.822532E-01 -6.523647E-01 -7.933585E-01 -4.169298E-02 -9.938959E-03 -1.065043E+00
         5   4 -9.280301E-03  6.319534E-01 -5.262779E-01  7.226988E-02  6.098836E-02  2.079775E-01
         5   5  1.786217E-01  2.529383E-01  3.093155E-01 -3.459348E-03  2.406397E-02  2.080490E-01
         5   6  1.309909E-01  5.919719E-01 -3.114314E-02  2.406430E-02 -1.226961E-02  8.206877E-01
         5   7 -3.990884E-01 -6.810437E-01 -8.224193E-01 -2.647402E-03  7.572128E-03 -1.074957E+00
         5   8 -1.037509E-02  6.124140E-01 -4.936786E-01  4.579349E-02  5.394866E-02  2.097090E-01
         6   1  7.358608E-02  7.564683E-01  2.309650E-01  1.992060E-02 -5.184331E-02  3.703921E-01
         6   2  9.531023E-02  4.554005E-01  5.437264E-01 -3.978170E-02 -4.770514E-02  5.943602E-01
         6   3  2.059200E-01  5.691501E-01  8.640835E-01 -1.003025E-02 -2.659980E-02  7.102109E-01
         6   4 -5.727815E-02  6.848315E-01  1.797607E-01 -5.499506E-02 -3.956601E-02  3.718021E-01
         6   5  2.234945E-01  8.125055E-01  2.278066E-01  2.030603E-02 -6.873823E-02  4.153948E-01
         6   6  3.095174E-01  5.211327E-01  5.254986E-01 -4.431008E-02 -8.267576E-02  6.055665E-01
         6   7  3.140487E-01  6.368726E-01  8.820597E-01  3.928549E-03  6.931592E-03  7.427281E-01
         6   8  2.843643E-01  7.283347E-01  1.857772E-01 -6.256730E-02 -4.831686E-02  3.907124E-01
         7   1  1.786217E-01  2.529383E-01  3.093155E-01  3.459348E-03 -2.406396E-02  2.080490E-01
         7   2  1.309909E-01  5.919719E-01 -3.114314E-02 -2.406430E-02  1.226961E-02  8.206877E-01
         7   3 -3.990884E-01 -6.810437E-01 -8.224193E-01  2.647402E-03 -7.572128E-03 -1.074957E+00
         7   4 -1.037509E-02  6.124140E-01 -4.936786E-01 -4.579349E-02 -5.394866E-02  2.097090E-01
         7   5  1.435198E-01  2.606476E-01  2.865537E-01  1.528394E-02 -6.645544E-02  2.144966E-01
         7   6  1.994187E-02  5.790364E-01 -9.283001E-02 -1.881916E-02 -4.093978E-02  8.054195E-01
         7   7 -3.822532E-01 -6.523647E-01 -7.933585E-01  4.169298E-02  9.938959E-03 -1.065043E+00
         7   8 -9.280302E-03  6.319534E-01 -5.262779E-01 -7.226988E-02 -6.098836E-02  2.079775E-01
         8   1  2.234945E-01  8.125055E-01  2.278066E-01 -2.030603E-02  6.873823E-02  4.153948E-01
         8   2  3.095174E-01  5.211327E-01  5.254986E-01  4.431008E-02  8.267576E-02  6.055665E-01
         8   3  3.140487E-01  6.368726E-01  8.820597E-01 -3.928549E-03 -6.931592E-03  7.427281E-01
         8   4  2.843643E-01  7.283347E-01  1.857772E-01  6.256730E-02  4.831685E-02  3.907124E-01
         8   5  7.358608E-02  7.564683E-01  2.309650E-01 -1.992060E-02  5.184331E-02  3.703921E-01
         8   6  9.531023E-02  4.554005E-01  5.437264E-01  3.978170E-02  4.770514E-02  5.943602E-01
         8   7  2.059201E-01  5.691501E-01  8.640835E-01  1.003025E-02  2.659980E-02  7.102109E-01
         8   8 -5.727815E-02  6.848315E-01  1.797607E-01  5.499506E-02  3.956601E-02  3.718021E-01
