
                        S T E P       1


                                INCREMENT     1


 displacements (vx,vy,vz) for set NFIXC and time  0.1000000E+01

        53 -7.030663E-03 -2.651159E-02  2.422908E-02
        55 -1.058415E-11 -1.308045E-02  1.237793E-02
        60 -2.128119E-03 -1.406562E-02  5.678644E-03
        72  7.030663E-03 -2.651159E-02  2.422908E-02
        74  2.128119E-03 -1.406561E-02  5.678644E-03

 forces (fx,fy,fz) for set NFIXC and time  0.1000000E+01

        53  7.394085E-14 -5.000002E+01  8.660253E+01
        55 -7.061018E-14 -5.000002E+01  8.660253E+01
        60  3.330669E-16 -5.000002E+01  8.660253E+01
        72  7.149836E-14 -5.000002E+01  8.660253E+01
        74 -2.930989E-14 -5.000002E+01  8.660253E+01

 stresses (elem, integ.pnt.,sxx,syy,szz,sxy,sxz,syz) for set EALL and time  0.1000000E+01

         1   1  1.160963E+03  1.154696E+03  3.384849E+03 -1.460092E+00 -4.330756E+02 -5.427612E+02
         1   2 -2.510560E+02 -3.491030E+02 -3.277779E+02 -5.396677E+01 -2.359530E+01  9.101393E+01
         1   3  8.556043E+02  6.875599E+02  3.484936E+03  6.952312E+01 -8.550448E+01 -4.874018E+02
         1   4 -2.956959E+02 -4.743946E+02  3.744605E+01 -3.488077E+01  3.941162E+01  5.508327E+02
         1   5  8.195105E+02  7.855708E+02  2.354213E+03 -1.068113E+02  1.274019E+02 -4.664148E+02
         1   6 -1.905168E+02 -2.587318E+02 -4.082119E+02  3.058669E+00  2.151521E+01 -1.353132E+02
         1   7  6.495461E+02  3.272495E+02  2.182131E+03 -3.840412E+02  8.310028E+02 -2.969267E+02
         1   8 -1.248472E+02 -2.812478E+02 -3.022363E+02  3.741300E+01  3.074783E+01  1.059734E+02
         2   1 -1.012854E+02 -7.416119E+01 -3.325095E+02 -2.084718E+01  2.406556E+02 -2.780868E+02
         2   2 -8.652201E+01 -1.495835E+01 -3.343002E+02  5.827700E+01  2.323580E+01 -2.256410E+02
         2   3 -3.903034E+02 -1.733246E+02 -1.126431E+03 -1.005771E+02  7.571235E+01 -1.218496E+03
         2   4  2.395244E+02  5.003309E+02  3.902316E+01  1.422061E+02  6.480434E+01  1.588901E+02
         2   5 -5.889100E+01 -7.704493E+01 -2.885727E+02  4.146211E+01  3.992388E+01 -3.857344E+02
         2   6 -1.339589E+02 -1.140539E+02 -3.130651E+02  6.051383E+00 -1.688389E+01 -2.243035E+02
         2   7 -1.439830E+02 -1.170522E+02 -7.358179E+02  1.299245E+02 -1.399267E+02 -9.337672E+02
         2   8 -2.883741E+01  4.372234E+01 -9.936391E+01 -2.997421E+00  5.409836E+01 -4.216012E+01
         3   1  8.195105E+02  7.855708E+02  2.354213E+03  1.068113E+02 -1.274019E+02 -4.664148E+02
         3   2 -1.905168E+02 -2.587318E+02 -4.082119E+02 -3.058667E+00 -2.151522E+01 -1.353132E+02
         3   3  6.495461E+02  3.272495E+02  2.182131E+03  3.840412E+02 -8.310028E+02 -2.969267E+02
         3   4 -1.248472E+02 -2.812477E+02 -3.022363E+02 -3.741300E+01 -3.074784E+01  1.059733E+02
         3   5  1.160963E+03  1.154696E+03  3.384849E+03  1.460092E+00  4.330755E+02 -5.427612E+02
         3   6 -2.510560E+02 -3.491030E+02 -3.277779E+02  5.396677E+01  2.359530E+01  9.101393E+01
         3   7  8.556044E+02  6.875599E+02  3.484935E+03 -6.952311E+01  8.550447E+01 -4.874018E+02
         3   8 -2.956959E+02 -4.743946E+02  3.744605E+01  3.488077E+01 -3.941162E+01  5.508327E+02
         4   1 -5.889100E+01 -7.704493E+01 -2.885727E+02 -4.146211E+01 -3.992388E+01 -3.857344E+02
         4   2 -1.339589E+02 -1.140540E+02 -3.130651E+02 -6.051382E+00  1.688389E+01 -2.243035E+02
         4   3 -1.439830E+02 -1.170522E+02 -7.358179E+02 -1.299245E+02  1.399267E+02 -9.337672E+02
         4   4 -2.883742E+01  4.372233E+01 -9.936391E+01  2.997425E+00 -5.409836E+01 -4.216012E+01
         4   5 -1.012855E+02 -7.416119E+01 -3.325095E+02  2.084718E+01 -2.406556E+02 -2.780868E+02
         4   6 -8.652200E+01 -1.495835E+01 -3.343002E+02 -5.827700E+01 -2.323580E+01 -2.256410E+02
         4   7 -3.903034E+02 -1.733246E+02 -1.126431E+03  1.005771E+02 -7.571235E+01 -1.218496E+03
         4   8  2.395244E+02  5.003309E+02  3.902316E+01 -1.422061E+02 -6.480434E+01  1.588900E+02
         5   1  1.155259E+03  3.407334E+02  4.768613E+03 -3.970236E+01  6.647083E+02 -3.684154E+02
         5   2 -2.960422E+02 -1.455164E+01 -1.157563E+03  1.500020E+02  5.293663E+01  5.701365E+02
         5   3 -1.242385E+03 -2.129935E+03  4.396097E+03 -1.125724E+03  8.868124E+02 -1.967125E+03
         5   4 -7.302758E+02 -7.027068E+02 -4.176943E+03 -2.626161E+02 -7.656097E+02 -1.757716E+03
         5   5  8.877696E+02  1.872363E+01  2.084119E+03 -2.869632E+01  4.041102E+02 -2.346361E+02
         5   6 -3.374762E+02 -1.098532E+02 -9.868626E+02  8.372648E+01 -4.452114E+01 -1.719030E+01
         5   7 -4.136746E+02 -1.228566E+03  1.746127E+03  6.204340E+02 -2.218729E+03 -1.092937E+03
         5   8 -1.340957E+03 -9.988929E+02 -2.639117E+03 -2.853102E+02  9.399290E+01 -1.287846E+03
         6   1 -2.049210E+02 -1.936645E+02 -1.054886E+03  2.668388E+01 -1.174954E+02 -1.447000E+03
         6   2  1.448376E+02  3.734720E+02  2.795104E+02 -6.493751E+01  1.811788E+01  2.669542E+02
         6   3  1.252982E+03 -1.159918E+03  1.768558E+03  3.800508E+02  2.427136E+02  6.845274E+02
         6   4 -8.636789E+02 -4.353443E+02 -5.979156E+02 -2.499539E+02 -2.275869E+01 -6.493053E+02
         6   5 -3.150979E+02 -2.596607E+02 -6.782142E+02  9.224327E+00 -1.942410E+02 -1.077649E+03
         6   6  8.417897E+01  2.161593E+01  4.753223E+01 -4.890577E+01  2.705317E+02  2.688299E+01
         6   7 -8.872911E+01 -9.599029E+02  9.224521E+02 -5.578726E+02  8.133071E+02 -7.441148E+01
         6   8  4.064082E+01 -1.343908E+02 -3.464152E+02  3.346631E+02 -4.340367E+02 -2.636845E+02
         7   1  8.877696E+02  1.872363E+01  2.084119E+03  2.869632E+01 -4.041102E+02 -2.346361E+02
         7   2 -3.374762E+02 -1.098532E+02 -9.868626E+02 -8.372648E+01  4.452113E+01 -1.719030E+01
         7   3 -4.136746E+02 -1.228566E+03  1.746126E+03 -6.204340E+02  2.218729E+03 -1.092937E+03
         7   4 -1.340957E+03 -9.988929E+02 -2.639117E+03  2.853102E+02 -9.399293E+01 -1.287846E+03
         7   5  1.155259E+03  3.407334E+02  4.768613E+03  3.970236E+01 -6.647083E+02 -3.684154E+02
         7   6 -2.960422E+02 -1.455165E+01 -1.157563E+03 -1.500020E+02 -5.293663E+01  5.701365E+02
         7   7 -1.242385E+03 -2.129935E+03  4.396097E+03  1.125724E+03 -8.868124E+02 -1.967125E+03
         7   8 -7.302758E+02 -7.027068E+02 -4.176943E+03  2.626161E+02  7.656097E+02 -1.757716E+03
         8   1 -3.150979E+02 -2.596607E+02 -6.782142E+02 -9.224332E+00  1.942410E+02 -1.077649E+03
         8   2  8.417896E+01  2.161591E+01  4.753223E+01  4.890577E+01 -2.705317E+02  2.688299E+01
         8   3 -8.872912E+01 -9.599029E+02  9.224521E+02  5.578726E+02 -8.133071E+02 -7.441149E+01
         8   4  4.064083E+01 -1.343908E+02 -3.464152E+02 -3.346631E+02  4.340367E+02 -2.636845E+02
         8   5 -2.049210E+02 -1.936645E+02 -1.054885E+03 -2.668389E+01  1.174954E+02 -1.447000E+03
         8   6  1.448376E+02  3.734720E+02  2.795103E+02  6.493751E+01 -1.811788E+01  2.669542E+02
         8   7  1.252982E+03 -1.159918E+03  1.768558E+03 -3.800508E+02 -2.427136E+02  6.845274E+02
         8   8 -8.636788E+02 -4.353443E+02 -5.979156E+02  2.499539E+02  2.275869E+01 -6.493053E+02
