
                        S T E P       1


                                INCREMENT     1


 displacements (vx,vy,vz) for set NALL and time  0.1000000E+01

         1  0.000000E+00  0.000000E+00  0.000000E+00
         2  8.467691E-05  2.446058E-05 -5.949278E-02
         3  1.340112E-04 -2.090576E-12 -6.024761E-02
         4  0.000000E+00  0.000000E+00  0.000000E+00
         5  6.366552E-05  4.129604E-05 -2.268515E-02
         6  1.370411E-04  2.494506E-05 -6.013384E-02
         7  7.355303E-05 -7.068035E-13 -2.313774E-02
         8  0.000000E+00  0.000000E+00  0.000000E+00
         9  8.467692E-05 -2.446058E-05 -5.949278E-02
        10  0.000000E+00  0.000000E+00  0.000000E+00
        11  1.370411E-04 -2.494507E-05 -6.013384E-02
        12  6.366553E-05 -4.129604E-05 -2.268515E-02
        13  0.000000E+00  0.000000E+00  0.000000E+00
        14  1.215530E-04 -2.936178E-05 -1.401765E-01
        15  4.551436E-04 -4.930977E-12 -1.406333E-01
        16  1.333941E-04  2.511394E-05 -9.927958E-02
        17  1.860294E-04 -1.626840E-05 -1.404531E-01
        18  2.593631E-04 -3.385135E-12 -9.995572E-02
        19  1.215530E-04  2.936177E-05 -1.401765E-01
        20  1.860294E-04  1.626839E-05 -1.404531E-01
        21  1.333941E-04 -2.511395E-05 -9.927958E-02

 temperatures for set NALL and time  0.1000000E+01

         1  2.730000E+02
         2  2.730000E+02
         3  2.730000E+02
         4  2.730000E+02
         5  2.730000E+02
         6  2.730000E+02
         7  2.730000E+02
         8  2.730000E+02
         9  2.730000E+02
        10  2.730000E+02
        11  2.730000E+02
        12  2.730000E+02
        13  2.730000E+02
        14  2.730000E+02
        15  2.730000E+02
        16  2.730000E+02
        17  2.730000E+02
        18  2.730000E+02
        19  2.730000E+02
        20  2.730000E+02
        21  2.730000E+02

 forces (fx,fy,fz) for set NALL and time  0.1000000E+01

         1 -1.261245E-01 -6.890807E-02 -2.042546E-02
         2 -2.083333E-05 -6.413616E-13  2.083333E-03
         3 -4.166667E-05  2.990775E-12  4.166667E-03
         4 -2.032419E-01  6.834403E-10 -3.606621E-02
         5 -1.951815E-12 -1.038610E-12 -1.835687E-11
         6  8.333333E-05  7.605704E-13 -8.333333E-03
         7 -3.087778E-12 -7.782852E-13 -1.759565E-12
         8 -2.725045E-01  5.645817E-03  6.345856E-02
         9 -2.083333E-05  6.857302E-13  2.083333E-03
        10 -1.261245E-01  6.890807E-02 -2.042546E-02
        11  8.333333E-05 -2.201366E-12 -8.333333E-03
        12 -1.034242E-13 -1.228472E-14 -8.233081E-12
        13 -2.725045E-01 -5.645818E-03  6.345856E-02
        14 -2.083333E-05  2.156221E-12  2.083333E-03
        15  9.999583E-01  1.996615E-12  4.166667E-03
        16  8.333334E-05  3.070231E-13 -8.333333E-03
        17  8.333334E-05 -1.127086E-12 -8.333333E-03
        18  1.666667E-04 -4.365307E-13 -1.666667E-02
        19 -2.083333E-05  2.691047E-12  2.083333E-03
        20  8.333333E-05 -2.689232E-12 -8.333333E-03
        21  8.333333E-05  1.220947E-12 -8.333333E-03

 stresses (elem, integ.pnt.,sxx,syy,szz,sxy,sxz,syz) for set EALL and time  0.1000000E+01

         1   1 -5.338500E+02 -2.337376E+02 -2.299264E+02  1.207134E+01 -3.562658E+00  7.443670E+00 _shell_0000000001   
         1   2 -4.811054E+01  1.492814E+00  2.750388E+01  4.927532E+00 -1.023780E+00 -5.226615E-02 _shell_0000000001   
         1   3 -5.378954E+02 -2.430682E+02 -2.326749E+02  8.028830E-01 -3.350734E+00 -6.986979E+00 _shell_0000000001   
         1   4 -2.621059E+01 -1.871573E+01  2.896193E+01 -5.819987E+00 -6.628773E+00 -8.508940E-02 _shell_0000000001   
         1   5  6.724053E+02  2.599040E+02  2.299457E+02  1.846620E+01 -2.748680E+00  7.476742E+00 _shell_0000000001   
         1   6  1.096802E+02  3.906404E+00 -2.763568E+01  1.248534E+01 -2.653897E+00  1.557270E-02 _shell_0000000001   
         1   7  6.806462E+02  2.600729E+02  2.326994E+02  3.959176E+00 -4.396203E+00 -6.944771E+00 _shell_0000000001   
         1   8  1.199167E+02 -4.929196E+00 -2.839389E+01 -1.256954E+00  2.546543E+00 -3.607005E-02 _shell_0000000001   
         2   1 -5.378954E+02 -2.430682E+02 -2.326749E+02 -8.028830E-01 -3.350734E+00  6.986979E+00 _shell_0000000002   
         2   2 -2.621059E+01 -1.871573E+01  2.896193E+01  5.819987E+00 -6.628773E+00  8.508940E-02 _shell_0000000002   
         2   3 -5.338500E+02 -2.337376E+02 -2.299264E+02 -1.207134E+01 -3.562658E+00 -7.443670E+00 _shell_0000000002   
         2   4 -4.811054E+01  1.492814E+00  2.750388E+01 -4.927531E+00 -1.023780E+00  5.226617E-02 _shell_0000000002   
         2   5  6.806462E+02  2.600729E+02  2.326994E+02 -3.959176E+00 -4.396203E+00  6.944770E+00 _shell_0000000002   
         2   6  1.199167E+02 -4.929196E+00 -2.839389E+01  1.256953E+00  2.546543E+00  3.607005E-02 _shell_0000000002   
         2   7  6.724053E+02  2.599040E+02  2.299457E+02 -1.846620E+01 -2.748680E+00 -7.476743E+00 _shell_0000000002   
         2   8  1.096802E+02  3.906404E+00 -2.763568E+01 -1.248534E+01 -2.653897E+00 -1.557268E-02 _shell_0000000002   
         3   1 -1.396267E+01  1.730324E+01  3.691138E+01  1.232175E+01 -2.073623E+00 -9.221011E-01 _shell_0000000003   
         3   2 -1.831595E+01 -6.624187E+00 -9.856659E+00 -5.651076E+00 -2.624741E+00  3.049028E-01 _shell_0000000003   
         3   3  1.791281E+01  2.395813E+00  3.581609E+01  9.526711E+00  5.648685E-01  1.235759E+00 _shell_0000000003   
         3   4  9.860323E+01  3.280708E+01 -9.276782E+00  6.150264E+01  7.804464E+00 -4.242544E-01 _shell_0000000003   
         3   5  5.625366E+01 -1.213186E+01 -3.654555E+01  8.652200E+00 -8.057978E-01 -8.873032E-01 _shell_0000000003   
         3   6 -5.875063E+00  1.767960E+00  9.764398E+00 -8.526864E+00  1.397708E+00  1.835018E-01 _shell_0000000003   
         3   7  8.329005E+01 -1.754035E+01 -3.685191E+01  9.316021E+00 -3.341718E+00  1.287950E+00 _shell_0000000003   
         3   8  1.064939E+02  2.593374E+01  1.012959E+01  5.745808E+01 -8.488727E+00 -5.515328E-01 _shell_0000000003   
         4   1  1.791281E+01  2.395813E+00  3.581609E+01 -9.526711E+00  5.648684E-01 -1.235759E+00 _shell_0000000004   
         4   2  9.860323E+01  3.280708E+01 -9.276782E+00 -6.150264E+01  7.804464E+00  4.242544E-01 _shell_0000000004   
         4   3 -1.396267E+01  1.730324E+01  3.691138E+01 -1.232176E+01 -2.073623E+00  9.221012E-01 _shell_0000000004   
         4   4 -1.831595E+01 -6.624187E+00 -9.856660E+00  5.651076E+00 -2.624741E+00 -3.049029E-01 _shell_0000000004   
         4   5  8.329005E+01 -1.754035E+01 -3.685191E+01 -9.316021E+00 -3.341719E+00 -1.287951E+00 _shell_0000000004   
         4   6  1.064939E+02  2.593374E+01  1.012959E+01 -5.745808E+01 -8.488727E+00  5.515328E-01 _shell_0000000004   
         4   7  5.625366E+01 -1.213187E+01 -3.654555E+01 -8.652201E+00 -8.057978E-01  8.873033E-01 _shell_0000000004   
         4   8 -5.875063E+00  1.767960E+00  9.764398E+00  8.526865E+00  1.397708E+00 -1.835018E-01 _shell_0000000004   
