
                        S T E P       1


                                INCREMENT     1


 displacements (vx,vy,vz) for set NALL and time  0.1000000E+01

         1  0.000000E+00  0.000000E+00  0.000000E+00
         2  4.512980E-04 -5.471445E-04 -1.483703E-02
         3  6.344588E-04  2.758166E-12 -1.267649E-02
         4  0.000000E+00  0.000000E+00  0.000000E+00
         5  2.725616E-04 -4.220142E-04 -5.920958E-03
         6  6.204460E-04 -2.556595E-04 -1.320726E-02
         7  4.196115E-04  2.706681E-12 -4.911832E-03
         8  0.000000E+00  0.000000E+00  0.000000E+00
         9  4.512980E-04  5.471445E-04 -1.483703E-02
        10  0.000000E+00  0.000000E+00  0.000000E+00
        11  6.204460E-04  2.556595E-04 -1.320726E-02
        12  2.725616E-04  4.220142E-04 -5.920958E-03
        13  0.000000E+00  0.000000E+00  0.000000E+00
        14  8.098262E-04 -6.164805E-04 -3.299412E-02
        15  1.319463E-03  1.056201E-12 -2.842720E-02
        16  6.673395E-04 -5.729362E-04 -2.378175E-02
        17  9.715459E-04 -3.247436E-04 -2.996384E-02
        18  9.362394E-04  2.185026E-12 -2.069484E-02
        19  8.098262E-04  6.164805E-04 -3.299412E-02
        20  9.715459E-04  3.247436E-04 -2.996384E-02
        21  6.673395E-04  5.729362E-04 -2.378175E-02

 temperatures for set NALL and time  0.1000000E+01

         1  3.730000E+02
         2  3.730000E+02
         3  3.730000E+02
         4  3.730000E+02
         5  3.730000E+02
         6  3.730000E+02
         7  3.730000E+02
         8  3.730000E+02
         9  3.730000E+02
        10  3.730000E+02
        11  3.730000E+02
        12  3.730000E+02
        13  3.730000E+02
        14  3.730000E+02
        15  3.730000E+02
        16  3.730000E+02
        17  3.730000E+02
        18  3.730000E+02
        19  3.730000E+02
        20  3.730000E+02
        21  3.730000E+02

 forces (fx,fy,fz) for set NALL and time  0.1000000E+01

         1  2.022806E-01  4.628380E-01  1.573039E-03
         2  4.836542E-05 -1.221534E-05  2.087646E-03
         3  1.006076E-04 -7.306175E-13  4.175643E-03
         4 -3.133217E-01 -1.643717E-09  5.572742E-03
         5 -4.793315E-07 -1.943222E-07 -1.247276E-07
         6 -1.975720E-04  4.657919E-05 -8.350230E-03
         7 -9.176174E-07  7.867199E-14 -2.357087E-07
         8 -5.450290E-01  1.287550E-01  2.069192E-02
         9  4.836542E-05  1.221534E-05  2.087646E-03
        10  2.022806E-01 -4.628380E-01  1.573039E-03
        11 -1.975720E-04 -4.657918E-05 -8.350230E-03
        12 -4.793315E-07  1.943221E-07 -1.247276E-07
        13 -5.450290E-01 -1.287550E-01  2.069192E-02
        14  4.717262E-05 -7.689116E-06  2.087954E-03
        15  1.000104E+00 -8.058149E-13  4.174425E-03
        16 -2.036164E-04  6.708752E-05 -8.349924E-03
        17 -1.960936E-04  5.995577E-05 -8.350609E-03
        18 -3.804734E-04  1.830673E-12 -1.670192E-02
        19  4.717262E-05  7.689116E-06  2.087954E-03
        20 -1.960936E-04 -5.995577E-05 -8.350609E-03
        21 -2.036164E-04 -6.708751E-05 -8.349924E-03

 stresses (elem, integ.pnt.,sxx,syy,szz,sxy,sxz,syz) for set EALL and time  0.1000000E+01

         1   1 -9.195112E+01 -1.932284E+02 -4.975814E+01 -8.867530E+01 -1.775129E+00  1.772057E+00 _shell_0000000001   
         1   2  6.149370E+01  3.070850E+00  7.437705E+00  2.479903E+01 -1.700355E+00 -7.452425E-01 _shell_0000000001   
         1   3 -8.283245E+00 -1.728367E+02 -4.321196E+01 -1.852795E+01 -1.939896E+00 -6.864234E-01 _shell_0000000001   
         1   4  3.837614E+01 -3.038716E+01  6.295811E+00  7.920125E+00 -5.180198E+00  1.704285E+00 _shell_0000000001   
         1   5  1.624708E+02 -1.003264E+02  4.964185E+01 -1.019465E+02 -4.970445E+00  1.398828E+00 _shell_0000000001   
         1   6  3.150838E+01 -5.266378E-03 -7.032017E+00  1.113920E+00 -4.016528E+00 -4.051841E-02 _shell_0000000001   
         1   7  2.178293E+02 -9.458290E+01  4.319121E+01 -2.706900E+01 -5.380583E+00 -8.955517E-01 _shell_0000000001   
         1   8  2.313740E+01 -3.629830E+01 -5.493678E+00 -1.170150E+01  3.172426E+00  2.224752E+00 _shell_0000000001   
         2   1 -8.283246E+00 -1.728367E+02 -4.321196E+01  1.852795E+01 -1.939897E+00  6.864234E-01 _shell_0000000002   
         2   2  3.837614E+01 -3.038716E+01  6.295811E+00 -7.920125E+00 -5.180198E+00 -1.704285E+00 _shell_0000000002   
         2   3 -9.195112E+01 -1.932284E+02 -4.975814E+01  8.867531E+01 -1.775129E+00 -1.772057E+00 _shell_0000000002   
         2   4  6.149370E+01  3.070851E+00  7.437705E+00 -2.479903E+01 -1.700355E+00  7.452425E-01 _shell_0000000002   
         2   5  2.178293E+02 -9.458290E+01  4.319121E+01  2.706900E+01 -5.380583E+00  8.955517E-01 _shell_0000000002   
         2   6  2.313740E+01 -3.629830E+01 -5.493679E+00  1.170150E+01  3.172426E+00 -2.224752E+00 _shell_0000000002   
         2   7  1.624708E+02 -1.003264E+02  4.964185E+01  1.019465E+02 -4.970445E+00 -1.398828E+00 _shell_0000000002   
         2   8  3.150838E+01 -5.264699E-03 -7.032017E+00 -1.113921E+00 -4.016528E+00  4.051839E-02 _shell_0000000002   
         3   1  4.697417E+01  5.983443E+00  6.793976E+00  2.494208E+01 -3.433878E+00 -7.097089E-01 _shell_0000000003   
         3   2  5.144785E+00  8.339295E+00 -1.703907E+00  8.249446E+00 -1.673210E+00  1.308110E-01 _shell_0000000003   
         3   3  6.124790E+01 -2.306885E+01  5.752560E+00  1.627985E+01 -3.157967E-01 -2.725453E+00 _shell_0000000003   
         3   4  1.166970E+02  1.027727E+01 -1.476427E+00  7.714067E+01  6.284416E+00  8.108004E-01 _shell_0000000003   
         3   5  9.350048E+00  7.108185E+00 -6.461903E+00  8.250998E+00  4.238431E-01 -2.398509E-01 _shell_0000000003   
         3   6 -2.249126E+01 -9.513557E+00  1.596302E+00 -1.745464E+01  2.593875E+00  7.893556E-01 _shell_0000000003   
         3   7  2.532783E+01 -7.844682E+00 -6.787945E+00 -5.119234E+00 -2.356385E+00 -2.216795E+00 _shell_0000000003   
         3   8  8.125727E+01  6.811022E+01  2.339929E+00  5.313540E+01 -9.087649E+00  1.457302E+00 _shell_0000000003   
         4   1  6.124790E+01 -2.306885E+01  5.752560E+00 -1.627985E+01 -3.157967E-01  2.725453E+00 _shell_0000000004   
         4   2  1.166970E+02  1.027727E+01 -1.476427E+00 -7.714067E+01  6.284416E+00 -8.108004E-01 _shell_0000000004   
         4   3  4.697417E+01  5.983442E+00  6.793976E+00 -2.494208E+01 -3.433878E+00  7.097088E-01 _shell_0000000004   
         4   4  5.144784E+00  8.339295E+00 -1.703907E+00 -8.249445E+00 -1.673210E+00 -1.308110E-01 _shell_0000000004   
         4   5  2.532783E+01 -7.844681E+00 -6.787945E+00  5.119233E+00 -2.356385E+00  2.216795E+00 _shell_0000000004   
         4   6  8.125727E+01  6.811022E+01  2.339929E+00 -5.313540E+01 -9.087650E+00 -1.457302E+00 _shell_0000000004   
         4   7  9.350049E+00  7.108185E+00 -6.461903E+00 -8.250998E+00  4.238430E-01  2.398509E-01 _shell_0000000004   
         4   8 -2.249126E+01 -9.513557E+00  1.596302E+00  1.745464E+01  2.593875E+00 -7.893556E-01 _shell_0000000004   
