
                        S T E P       1


                                INCREMENT     1


 displacements (vx,vy,vz) for set NALL and time  0.1000000E+01

         1 -5.391284E-12 -2.786533E-03  3.621648E-05
         2 -6.617445E-24  0.000000E+00  0.000000E+00
         3  7.566056E-20  0.000000E+00  0.000000E+00
         4 -5.391284E-12 -2.786533E-03 -3.621648E-05
         5 -2.551837E-06 -1.393465E-03 -7.693726E-05
         6  1.323489E-23  0.000000E+00  0.000000E+00
         7 -2.551837E-06 -1.393465E-03  7.693726E-05
         8 -5.465142E-12 -4.096789E-03  7.921128E-18
         9 -3.783855E-20  0.000000E+00  0.000000E+00
        10  6.617445E-24  0.000000E+00  0.000000E+00
        11  2.551833E-06 -1.393465E-03 -7.693726E-05
        12  2.551833E-06 -1.393465E-03  7.693726E-05
        13 -1.323489E-23  0.000000E+00  0.000000E+00

 stresses (elem, integ.pnt.,sxx,syy,szz,sxy,sxz,syz) for set EALL and time  0.1000000E+01

         1   1 -1.012936E+00  3.488764E+00  4.719914E+00 -6.997217E-01 -9.615594E-01 -3.752297E-01
         1   2 -1.206658E+01 -1.926718E+00 -1.177923E+00 -1.288932E+00 -1.694082E+00 -8.712450E-02
         1   3 -1.012936E+00  3.488764E+00  4.719914E+00 -6.997217E-01  9.615594E-01  3.752297E-01
         1   4 -1.206658E+01 -1.926718E+00 -1.177923E+00 -1.288932E+00  1.694082E+00  8.712450E-02
         1   5 -1.387810E+01 -3.736322E+00 -6.225506E+00 -1.285291E+00 -3.028943E-01 -3.263379E-01
         1   6 -2.822351E+00  1.680298E+00  1.323080E+00 -6.961100E-01 -9.978896E-01 -1.525356E-02
         1   7 -1.387810E+01 -3.736322E+00 -6.225506E+00 -1.285291E+00  3.028943E-01  3.263379E-01
         1   8 -2.822351E+00  1.680298E+00  1.323080E+00 -6.961100E-01  9.978896E-01  1.525356E-02
         2   1 -1.206658E+01 -1.926718E+00 -1.177923E+00  1.288932E+00  1.694082E+00 -8.712450E-02
         2   2 -1.012937E+00  3.488764E+00  4.719914E+00  6.997218E-01  9.615594E-01 -3.752297E-01
         2   3 -1.206658E+01 -1.926718E+00 -1.177923E+00  1.288932E+00 -1.694082E+00  8.712450E-02
         2   4 -1.012937E+00  3.488764E+00  4.719914E+00  6.997218E-01 -9.615594E-01  3.752297E-01
         2   5 -2.822351E+00  1.680298E+00  1.323080E+00  6.961100E-01  9.978896E-01 -1.525356E-02
         2   6 -1.387810E+01 -3.736322E+00 -6.225506E+00  1.285291E+00  3.028943E-01 -3.263379E-01
         2   7 -2.822351E+00  1.680298E+00  1.323080E+00  6.961100E-01 -9.978896E-01  1.525356E-02
         2   8 -1.387810E+01 -3.736322E+00 -6.225506E+00  1.285291E+00 -3.028943E-01  3.263379E-01
