
                        S T E P       1


                                INCREMENT     1


 displacements (vx,vy,vz) for set NPART and time  0.1000000E+01

       123 -1.189587E-15  4.992317E-15 -3.743094E-01
       127 -1.979319E-15  4.996004E-15 -5.088049E-01
       128 -1.425509E-15  5.004677E-15 -4.469436E-01
       169 -1.044195E-15  4.186321E-15 -4.477351E-01
       171 -1.117596E-15  4.623905E-15 -4.151480E-01
       172 -1.400356E-15  4.598752E-15 -4.959114E-01
       173 -1.849649E-15  4.114764E-15 -6.090898E-01
       174 -1.386044E-15  4.180684E-15 -5.348412E-01
       175 -1.902992E-15  4.584440E-15 -5.646002E-01
       227 -2.750784E-15  3.523169E-15 -8.368688E-01
       231 -3.210052E-15  3.433831E-15 -8.369195E-01
       232 -2.800386E-15  3.479396E-15 -8.441441E-01
       273 -2.685677E-15  3.644220E-15 -8.369195E-01
       275 -2.747068E-15  3.486035E-15 -8.451595E-01
       276 -2.799481E-15  3.508155E-15 -8.525424E-01
       277 -3.545450E-15  3.550328E-15 -8.368688E-01
       278 -2.866956E-15  3.608409E-15 -8.441441E-01
       279 -3.340339E-15  3.574506E-15 -8.451595E-01

 stresses (elem, integ.pnt.,sxx,syy,szz,sxy,sxz,syz) for set EPART and time  0.1000000E+01

        71   1 -3.345931E+00 -2.899858E-01 -9.282765E-04  2.701624E-01  3.677202E-02  3.109540E-02 OR1_shell_0000000071
        71   2 -3.617200E+00 -3.185655E-01 -9.232139E-04  1.998838E-01 -1.807926E-02 -1.864198E-02 OR1_shell_0000000071
        71   3 -3.999130E+00 -3.157330E-01 -9.490212E-04  2.352726E-01 -2.220531E-02  6.461543E-03 OR1_shell_0000000071
        71   4 -2.265928E+00 -1.963839E-01 -7.900371E-04  1.829592E-01  3.677202E-02  3.109540E-02 OR1_shell_0000000071
        71   5 -2.449637E+00 -2.157386E-01 -7.866085E-04  1.353651E-01 -1.807926E-02 -1.864197E-02 OR1_shell_0000000071
        71   6 -2.708287E+00 -2.138204E-01 -8.040858E-04  1.593311E-01 -2.220531E-02  6.461546E-03 OR1_shell_0000000071
        71   7 -1.865075E+00 -1.116344E-01 -6.888386E-04 -1.191219E-01 -3.109540E-02  3.677202E-02 OR2_shell_0000000071
        71   8 -2.055730E+00 -1.212780E-01 -6.866064E-04 -8.813417E-02  1.864197E-02 -1.807926E-02 OR2_shell_0000000071
        71   9 -1.989021E+00 -1.298181E-01 -6.979856E-04 -1.037381E-01 -6.461548E-03 -2.220531E-02 OR2_shell_0000000071
        71  10 -4.997455E-01 -2.991235E-02 -5.505992E-04 -3.191862E-02 -3.109540E-02  3.677202E-02 OR2_shell_0000000071
        71  11 -5.508312E-01 -3.249634E-02 -5.500010E-04 -2.361548E-02  1.864197E-02 -1.807926E-02 OR2_shell_0000000071
        71  12 -5.329566E-01 -3.478466E-02 -5.530501E-04 -2.779653E-02 -6.461549E-03 -2.220531E-02 OR2_shell_0000000071
        71  13  4.997455E-01  2.991235E-02 -4.494008E-04  3.191862E-02 -3.109540E-02  3.677202E-02 OR2_shell_0000000071
        71  14  5.508312E-01  3.249634E-02 -4.499989E-04  2.361548E-02  1.864197E-02 -1.807926E-02 OR2_shell_0000000071
        71  15  5.329566E-01  3.478466E-02 -4.469499E-04  2.779653E-02 -6.461549E-03 -2.220531E-02 OR2_shell_0000000071
        71  16  1.865075E+00  1.116344E-01 -3.111613E-04  1.191219E-01 -3.109540E-02  3.677202E-02 OR2_shell_0000000071
        71  17  2.055730E+00  1.212780E-01 -3.133935E-04  8.813417E-02  1.864197E-02 -1.807926E-02 OR2_shell_0000000071
        71  18  1.989021E+00  1.298181E-01 -3.020144E-04  1.037381E-01 -6.461548E-03 -2.220531E-02 OR2_shell_0000000071
        71  19  2.265928E+00  1.963839E-01 -2.099630E-04 -1.829592E-01  3.677202E-02  3.109540E-02 OR1_shell_0000000071
        71  20  2.449637E+00  2.157386E-01 -2.133914E-04 -1.353651E-01 -1.807926E-02 -1.864197E-02 OR1_shell_0000000071
        71  21  2.708287E+00  2.138204E-01 -1.959143E-04 -1.593311E-01 -2.220531E-02  6.461546E-03 OR1_shell_0000000071
        71  22  3.345931E+00  2.899858E-01 -7.172345E-05 -2.701624E-01  3.677202E-02  3.109540E-02 OR1_shell_0000000071
        71  23  3.617200E+00  3.185655E-01 -7.678604E-05 -1.998838E-01 -1.807926E-02 -1.864198E-02 OR1_shell_0000000071
        71  24  3.999130E+00  3.157330E-01 -5.097882E-05 -2.352726E-01 -2.220531E-02  6.461543E-03 OR1_shell_0000000071
        72   1 -4.269178E+00 -3.532642E-01 -9.540836E-04  1.955389E-01 -4.933294E-02  3.278155E-03 OR1_shell_0000000072
        72   2 -4.204387E+00 -3.469046E-01 -9.282764E-04  1.574093E-01  4.288749E-03 -2.666966E-02 OR1_shell_0000000072
        72   3 -4.597057E+00 -3.632664E-01 -9.485261E-04  1.588591E-01 -1.719141E-02 -1.694031E-02 OR1_shell_0000000072
        72   4 -2.891168E+00 -2.392373E-01 -8.075141E-04  1.324227E-01 -4.933295E-02  3.278159E-03 OR1_shell_0000000072
        72   5 -2.847291E+00 -2.349304E-01 -7.900369E-04  1.066006E-01  4.288748E-03 -2.666966E-02 OR1_shell_0000000072
        72   6 -3.113215E+00 -2.460109E-01 -8.037504E-04  1.075824E-01 -1.719141E-02 -1.694031E-02 OR1_shell_0000000072
        72   7 -2.249471E+00 -1.404803E-01 -7.002177E-04 -8.621837E-02 -3.278160E-03 -4.933295E-02 OR2_shell_0000000072
        72   8 -2.207564E+00 -1.382315E-01 -6.888386E-04 -6.940600E-02  2.666965E-02  4.288748E-03 OR2_shell_0000000072
        72   9 -2.288951E+00 -1.492660E-01 -6.977673E-04 -7.004525E-02  1.694030E-02 -1.719141E-02 OR2_shell_0000000072
        72  10 -6.027439E-01 -3.764157E-02 -5.536482E-04 -2.310214E-02 -3.278161E-03 -4.933295E-02 OR2_shell_0000000072
        72  11 -5.915150E-01 -3.703902E-02 -5.505992E-04 -1.859728E-02  2.666965E-02  4.288747E-03 OR2_shell_0000000072
        72  12 -6.133226E-01 -3.999571E-02 -5.529916E-04 -1.876857E-02  1.694030E-02 -1.719141E-02 OR2_shell_0000000072
        72  13  6.027439E-01  3.764157E-02 -4.463518E-04  2.310214E-02 -3.278161E-03 -4.933295E-02 OR2_shell_0000000072
        72  14  5.915150E-01  3.703902E-02 -4.494008E-04  1.859728E-02  2.666965E-02  4.288747E-03 OR2_shell_0000000072
        72  15  6.133226E-01  3.999571E-02 -4.470084E-04  1.876857E-02  1.694030E-02 -1.719141E-02 OR2_shell_0000000072
        72  16  2.249471E+00  1.404803E-01 -2.997823E-04  8.621837E-02 -3.278160E-03 -4.933295E-02 OR2_shell_0000000072
        72  17  2.207564E+00  1.382315E-01 -3.111614E-04  6.940600E-02  2.666965E-02  4.288748E-03 OR2_shell_0000000072
        72  18  2.288951E+00  1.492660E-01 -3.022327E-04  7.004525E-02  1.694030E-02 -1.719141E-02 OR2_shell_0000000072
        72  19  2.891168E+00  2.392373E-01 -1.924860E-04 -1.324227E-01 -4.933295E-02  3.278159E-03 OR1_shell_0000000072
        72  20  2.847291E+00  2.349304E-01 -2.099631E-04 -1.066006E-01  4.288748E-03 -2.666966E-02 OR1_shell_0000000072
        72  21  3.113215E+00  2.460109E-01 -1.962496E-04 -1.075824E-01 -1.719141E-02 -1.694031E-02 OR1_shell_0000000072
        72  22  4.269178E+00  3.532642E-01 -4.591640E-05 -1.955389E-01 -4.933294E-02  3.278155E-03 OR1_shell_0000000072
        72  23  4.204387E+00  3.469046E-01 -7.172357E-05 -1.574093E-01  4.288749E-03 -2.666966E-02 OR1_shell_0000000072
        72  24  4.597057E+00  3.632664E-01 -5.147396E-05 -1.588591E-01 -1.719141E-02 -1.694031E-02 OR1_shell_0000000072
       121   1 -6.607660E+00 -4.281748E-01 -9.480618E-04  7.114308E-03  2.208890E-02  1.934878E-02 OR1_shell_0000000121
       121   2 -6.628735E+00 -4.375192E-01 -9.480917E-04 -9.122021E-03  1.495610E-02 -8.276988E-03 OR1_shell_0000000121
       121   3 -6.775014E+00 -4.348858E-01 -9.480918E-04 -1.148357E-02 -1.159715E-02  9.466430E-03 OR1_shell_0000000121
       121   4 -4.474833E+00 -2.899681E-01 -8.034360E-04  4.817945E-03  2.208890E-02  1.934878E-02 OR1_shell_0000000121
       121   5 -4.489105E+00 -2.962963E-01 -8.034562E-04 -6.177607E-03  1.495610E-02 -8.276988E-03 OR1_shell_0000000121
       121   6 -4.588169E+00 -2.945129E-01 -8.034562E-04 -7.776890E-03 -1.159715E-02  9.466430E-03 OR1_shell_0000000121
       121   7 -2.558857E+00 -2.035595E-01 -6.975626E-04 -3.136890E-03 -1.934878E-02  2.208890E-02 OR2_shell_0000000121
       121   8 -2.629102E+00 -2.051419E-01 -6.975758E-04  4.022145E-03  8.276988E-03  1.495610E-02 OR2_shell_0000000121
       121   9 -2.591503E+00 -2.082317E-01 -6.975758E-04  5.063415E-03 -9.466430E-03 -1.159715E-02 OR2_shell_0000000121
       121  10 -6.856436E-01 -5.454360E-02 -5.529368E-04 -8.405272E-04 -1.934878E-02  2.208890E-02 OR2_shell_0000000121
       121  11 -7.044657E-01 -5.496760E-02 -5.529402E-04  1.077731E-03  8.276988E-03  1.495610E-02 OR2_shell_0000000121
       121  12 -6.943910E-01 -5.579550E-02 -5.529403E-04  1.356738E-03 -9.466430E-03 -1.159715E-02 OR2_shell_0000000121
       121  13  6.856436E-01  5.454360E-02 -4.470633E-04  8.405272E-04 -1.934878E-02  2.208890E-02 OR2_shell_0000000121
       121  14  7.044657E-01  5.496760E-02 -4.470597E-04 -1.077731E-03  8.276988E-03  1.495610E-02 OR2_shell_0000000121
       121  15  6.943910E-01  5.579550E-02 -4.470598E-04 -1.356738E-03 -9.466430E-03 -1.159715E-02 OR2_shell_0000000121
       121  16  2.558857E+00  2.035595E-01 -3.024375E-04  3.136890E-03 -1.934878E-02  2.208890E-02 OR2_shell_0000000121
       121  17  2.629102E+00  2.051419E-01 -3.024243E-04 -4.022145E-03  8.276988E-03  1.495610E-02 OR2_shell_0000000121
       121  18  2.591503E+00  2.082317E-01 -3.024243E-04 -5.063415E-03 -9.466430E-03 -1.159715E-02 OR2_shell_0000000121
       121  19  4.474833E+00  2.899681E-01 -1.965640E-04 -4.817945E-03  2.208890E-02  1.934878E-02 OR1_shell_0000000121
       121  20  4.489105E+00  2.962963E-01 -1.965437E-04  6.177607E-03  1.495610E-02 -8.276988E-03 OR1_shell_0000000121
       121  21  4.588169E+00  2.945129E-01 -1.965437E-04  7.776890E-03 -1.159715E-02  9.466430E-03 OR1_shell_0000000121
       121  22  6.607660E+00  4.281748E-01 -5.193817E-05 -7.114308E-03  2.208890E-02  1.934878E-02 OR1_shell_0000000121
       121  23  6.628735E+00  4.375192E-01 -5.190808E-05  9.122021E-03  1.495610E-02 -8.276988E-03 OR1_shell_0000000121
       121  24  6.775014E+00  4.348858E-01 -5.190826E-05  1.148357E-02 -1.159715E-02  9.466430E-03 OR1_shell_0000000121
       122   1 -6.628735E+00 -4.375192E-01 -9.480918E-04 -9.122023E-03 -1.495610E-02  8.276988E-03 OR1_shell_0000000122
       122   2 -6.775014E+00 -4.348858E-01 -9.480918E-04 -1.148357E-02  1.159715E-02 -9.466431E-03 OR1_shell_0000000122
       122   3 -6.607660E+00 -4.281748E-01 -9.480617E-04  7.114307E-03 -2.208890E-02 -1.934878E-02 OR1_shell_0000000122
       122   4 -4.489105E+00 -2.962963E-01 -8.034564E-04 -6.177608E-03 -1.495610E-02  8.276988E-03 OR1_shell_0000000122
       122   5 -4.588169E+00 -2.945129E-01 -8.034564E-04 -7.776890E-03  1.159715E-02 -9.466431E-03 OR1_shell_0000000122
       122   6 -4.474833E+00 -2.899681E-01 -8.034360E-04  4.817944E-03 -2.208890E-02 -1.934878E-02 OR1_shell_0000000122
       122   7 -2.629102E+00 -2.051419E-01 -6.975758E-04  4.022146E-03 -8.276988E-03 -1.495610E-02 OR2_shell_0000000122
       122   8 -2.591503E+00 -2.082317E-01 -6.975759E-04  5.063414E-03  9.466431E-03  1.159715E-02 OR2_shell_0000000122
       122   9 -2.558857E+00 -2.035595E-01 -6.975625E-04 -3.136890E-03  1.934878E-02 -2.208890E-02 OR2_shell_0000000122
       122  10 -7.044657E-01 -5.496760E-02 -5.529403E-04  1.077731E-03 -8.276988E-03 -1.495610E-02 OR2_shell_0000000122
       122  11 -6.943910E-01 -5.579550E-02 -5.529404E-04  1.356738E-03  9.466431E-03  1.159715E-02 OR2_shell_0000000122
       122  12 -6.856436E-01 -5.454360E-02 -5.529367E-04 -8.405271E-04  1.934878E-02 -2.208890E-02 OR2_shell_0000000122
       122  13  7.044657E-01  5.496760E-02 -4.470598E-04 -1.077731E-03 -8.276988E-03 -1.495610E-02 OR2_shell_0000000122
       122  14  6.943910E-01  5.579550E-02 -4.470598E-04 -1.356738E-03  9.466431E-03  1.159715E-02 OR2_shell_0000000122
       122  15  6.856436E-01  5.454360E-02 -4.470633E-04  8.405271E-04  1.934878E-02 -2.208890E-02 OR2_shell_0000000122
       122  16  2.629102E+00  2.051419E-01 -3.024243E-04 -4.022146E-03 -8.276988E-03 -1.495610E-02 OR2_shell_0000000122
       122  17  2.591503E+00  2.082317E-01 -3.024243E-04 -5.063414E-03  9.466431E-03  1.159715E-02 OR2_shell_0000000122
       122  18  2.558857E+00  2.035595E-01 -3.024374E-04  3.136890E-03  1.934878E-02 -2.208890E-02 OR2_shell_0000000122
       122  19  4.489105E+00  2.962963E-01 -1.965438E-04  6.177608E-03 -1.495610E-02  8.276988E-03 OR1_shell_0000000122
       122  20  4.588169E+00  2.945129E-01 -1.965438E-04  7.776890E-03  1.159715E-02 -9.466431E-03 OR1_shell_0000000122
       122  21  4.474833E+00  2.899681E-01 -1.965639E-04 -4.817944E-03 -2.208890E-02 -1.934878E-02 OR1_shell_0000000122
       122  22  6.628735E+00  4.375192E-01 -5.190839E-05  9.122023E-03 -1.495610E-02  8.276988E-03 OR1_shell_0000000122
       122  23  6.775014E+00  4.348858E-01 -5.190824E-05  1.148357E-02  1.159715E-02 -9.466431E-03 OR1_shell_0000000122
       122  24  6.607660E+00  4.281748E-01 -5.193812E-05 -7.114307E-03 -2.208890E-02 -1.934878E-02 OR1_shell_0000000122
