
                        S T E P       1


                                INCREMENT     1


 displacements (vx,vy,vz) for set NALL and time  0.1000000E+01

         1  3.138574E-07  2.283920E-08  2.192834E-08
         2  0.000000E+00  0.000000E+00  0.000000E+00
         3  0.000000E+00  0.000000E+00  0.000000E+00
         4  3.138574E-07  2.283920E-08 -2.192834E-08
         5  1.575329E-07 -9.256509E-07  4.670523E-08
         6  0.000000E+00  0.000000E+00  0.000000E+00
         7  1.575329E-07 -9.256509E-07 -4.670523E-08
         8  3.176247E-07  1.449469E-08 -8.219444E-22
         9  0.000000E+00  0.000000E+00  0.000000E+00
        10  0.000000E+00  0.000000E+00  0.000000E+00
        11  9.450519E-07  7.524903E-09 -2.577369E-09
        12  9.450519E-07  7.524903E-09  2.577369E-09
        13  0.000000E+00  0.000000E+00  0.000000E+00
        14  0.000000E+00  0.000000E+00  0.000000E+00
        15  0.000000E+00  0.000000E+00  0.000000E+00
        16  0.000000E+00  0.000000E+00  0.000000E+00

 stresses (elem, integ.pnt.,sxx,syy,szz,sxy,sxz,syz) for set EALL and time  0.1000000E+01

         1   1  1.137231E-01  2.666216E-02  2.806045E-02 -2.687566E-03 -4.792258E-03 -9.223077E-04
         1   2  1.062989E-01  1.512920E-02  1.683342E-02  1.155857E-03  1.767044E-03 -8.764290E-04
         1   3  1.110436E-01  1.812904E-02  3.163049E-02 -2.603964E-03  8.326342E-03 -8.296378E-04
         1   4  1.144082E-01  2.703055E-02  2.837649E-02 -2.756699E-03 -1.129113E-17  6.614232E-17
         1   5  1.068748E-01  1.524281E-02  1.704026E-02  1.125601E-03 -3.220284E-17  3.340533E-18
         1   6  1.115103E-01  1.798787E-02  3.172813E-02 -2.595345E-03 -4.008643E-17 -2.396825E-17
         1   7  1.137231E-01  2.666216E-02  2.806045E-02 -2.687566E-03  4.792258E-03  9.223077E-04
         1   8  1.062989E-01  1.512920E-02  1.683342E-02  1.155857E-03 -1.767044E-03  8.764290E-04
         1   9  1.110436E-01  1.812904E-02  3.163049E-02 -2.603964E-03 -8.326342E-03  8.296378E-04
         1  10  7.128699E-02  8.435269E-03  9.740239E-03 -2.543884E-03 -4.719832E-03 -9.196894E-04
         1  11  6.525112E-02 -2.469681E-03 -7.817715E-04  1.240474E-03  1.843306E-03 -8.810906E-04
         1  12  7.138403E-02  1.158097E-03  1.472016E-02 -2.578412E-03  8.406441E-03 -8.415792E-04
         1  13  7.196525E-02  8.800750E-03  1.005336E-02 -2.609376E-03 -2.311663E-17  8.871668E-17
         1  14  6.582019E-02 -2.358985E-03 -5.778434E-04  1.213858E-03 -3.647871E-17  1.868109E-17
         1  15  7.184391E-02  1.014006E-03  1.481489E-02 -2.566152E-03 -2.258200E-17 -3.172461E-17
         1  16  7.128699E-02  8.435269E-03  9.740239E-03 -2.543884E-03  4.719832E-03  9.196894E-04
         1  17  6.525112E-02 -2.469681E-03 -7.817715E-04  1.240474E-03 -1.843306E-03  8.810906E-04
         1  18  7.138403E-02  1.158097E-03  1.472016E-02 -2.578412E-03 -8.406441E-03  8.415792E-04
         1  19  2.885086E-02 -9.791621E-03 -8.579975E-03 -2.400202E-03 -4.647406E-03 -9.170711E-04
         1  20  2.420333E-02 -2.006857E-02 -1.839696E-02  1.325091E-03  1.919569E-03 -8.857522E-04
         1  21  3.172450E-02 -1.581285E-02 -2.190170E-03 -2.552860E-03  8.486540E-03 -8.535207E-04
         1  22  2.952232E-02 -9.429056E-03 -8.269770E-03 -2.462054E-03 -3.240330E-17  8.525013E-17
         1  23  2.476559E-02 -1.996079E-02 -1.819595E-02  1.302115E-03 -3.748085E-17  1.403025E-17
         1  24  3.217757E-02 -1.595986E-02 -2.098353E-03 -2.536960E-03 -5.478505E-18 -6.458922E-17
         1  25  2.885086E-02 -9.791621E-03 -8.579975E-03 -2.400202E-03  4.647406E-03  9.170711E-04
         1  26  2.420333E-02 -2.006857E-02 -1.839696E-02  1.325091E-03 -1.919569E-03  8.857522E-04
         1  27  3.172450E-02 -1.581285E-02 -2.190170E-03 -2.552860E-03 -8.486540E-03  8.535207E-04
         2   1  4.974400E-03  2.546056E-02  1.034670E-02  1.680278E-01 -7.353538E-05 -1.463609E-03
         2   2 -1.153537E-02 -1.721162E-02 -7.562558E-03 -4.337988E-02  2.961867E-04  3.233317E-04
         2   3 -4.249149E-02 -6.828843E-02 -3.904317E-02  1.352329E-02  1.504826E-03  2.110272E-03
         2   4  5.126823E-03  2.438862E-02  1.007084E-02  1.681771E-01  2.699154E-17  1.595114E-17
         2   5 -1.163774E-02 -1.839276E-02 -7.947608E-03 -4.335746E-02 -8.551809E-18  2.926316E-17
         2   6 -4.284864E-02 -6.957877E-02 -3.953741E-02  1.341883E-02  2.552676E-22  1.563353E-17
         2   7  4.974400E-03  2.546056E-02  1.034670E-02  1.680278E-01  7.353538E-05  1.463609E-03
         2   8 -1.153537E-02 -1.721162E-02 -7.562558E-03 -4.337988E-02 -2.961867E-04 -3.233317E-04
         2   9 -4.249149E-02 -6.828843E-02 -3.904317E-02  1.352329E-02 -1.504826E-03 -2.110272E-03
         2  10 -6.149933E-03 -5.120619E-04 -7.618017E-04  1.681353E-01 -5.212159E-05 -1.488409E-03
         2  11 -2.536200E-03  3.770343E-03  1.452724E-03 -4.342338E-02  3.103211E-04  3.277910E-04
         2  12 -1.343172E-02 -4.148176E-04 -1.005091E-02  1.332870E-02  1.511681E-03  2.143993E-03
         2  13 -6.007026E-03 -1.606208E-03 -1.047174E-03  1.682809E-01  4.008444E-19  8.351355E-18
         2  14 -2.648079E-03  2.567002E-03  1.058158E-03 -4.340460E-02 -3.474190E-18  2.284933E-17
         2  15 -1.379839E-02 -1.727355E-03 -1.055468E-02  1.322060E-02  9.762289E-18  2.378441E-17
         2  16 -6.149933E-03 -5.120619E-04 -7.618017E-04  1.681353E-01  5.212159E-05  1.488409E-03
         2  17 -2.536200E-03  3.770343E-03  1.452724E-03 -4.342338E-02 -3.103211E-04 -3.277910E-04
         2  18 -1.343172E-02 -4.148176E-04 -1.005091E-02  1.332870E-02 -1.511681E-03 -2.143993E-03
         2  19 -1.727427E-02 -2.648468E-02 -1.187030E-02  1.682428E-01 -3.070781E-05 -1.513209E-03
         2  20  6.462974E-03  2.475231E-02  1.046800E-02 -4.346688E-02  3.244554E-04  3.322503E-04
         2  21  1.562804E-02  6.745885E-02  1.894133E-02  1.313411E-02  1.518536E-03  2.177713E-03
         2  22 -1.714088E-02 -2.760103E-02 -1.216519E-02  1.683848E-01 -9.888020E-18  6.647660E-18
         2  23  6.341580E-03  2.352677E-02  1.006392E-02 -4.345174E-02 -1.175872E-17  1.650232E-17
         2  24  1.525186E-02  6.612411E-02  1.842806E-02  1.302238E-02 -2.137685E-18  9.219597E-18
         2  25 -1.727427E-02 -2.648468E-02 -1.187030E-02  1.682428E-01  3.070781E-05  1.513209E-03
         2  26  6.462974E-03  2.475231E-02  1.046800E-02 -4.346688E-02 -3.244554E-04 -3.322503E-04
         2  27  1.562804E-02  6.745885E-02  1.894133E-02  1.313411E-02 -1.518536E-03 -2.177713E-03
