
                        S T E P       1


                                INCREMENT     1


 displacements (vx,vy,vz) for set NALL and time  0.1000000E+01

         1  0.000000E+00  0.000000E+00  0.000000E+00
         2  9.616926E-05  6.996485E-07 -1.599443E-02
         3  9.548261E-05  5.143575E-13 -1.600608E-02
         4  0.000000E+00  0.000000E+00  0.000000E+00
         5  5.589718E-05  3.045880E-06 -4.384691E-03
         6  9.579195E-05  3.472815E-07 -1.601219E-02
         7  5.611999E-05 -3.096969E-12 -4.429907E-03
         8  0.000000E+00  0.000000E+00  0.000000E+00
         9  9.616926E-05 -6.996468E-07 -1.599443E-02
        10  0.000000E+00  0.000000E+00  0.000000E+00
        11  9.579195E-05 -3.472803E-07 -1.601219E-02
        12  5.589718E-05 -3.045886E-06 -4.384691E-03
        13  0.000000E+00  0.000000E+00  0.000000E+00
        14  1.169741E-04 -2.130954E-06 -4.960385E-02
        15  1.157281E-04  8.814853E-13 -4.957348E-02
        16  1.145635E-04  1.498830E-06 -3.201212E-02
        17  1.164514E-04 -1.072609E-06 -4.958447E-02
        18  1.148955E-04  2.029801E-12 -3.203364E-02
        19  1.169741E-04  2.130955E-06 -4.960385E-02
        20  1.164514E-04  1.072611E-06 -4.958447E-02
        21  1.145635E-04 -1.498826E-06 -3.201212E-02

 forces (fx,fy,fz) for set NALL and time  0.1000000E+01

         1  4.290553E-05  1.987640E-04 -1.220370E-01
         2  3.694685E-14 -1.193094E-13  2.083333E-04
         3 -9.238027E-14 -8.490027E-13  4.166667E-04
         4 -8.082259E-05  1.943626E-09 -2.304389E-01
         5  2.428247E-15  1.325556E-13 -4.787349E-13
         6  1.462697E-15 -4.609070E-13 -8.333335E-04
         7  2.493492E-14 -2.378999E-13 -1.121919E-12
         8 -2.494222E-06 -3.769020E-04  2.397565E-01
         9  7.811297E-15 -5.790027E-13  2.083333E-04
        10  4.290547E-05 -1.987621E-04 -1.220370E-01
        11 -5.165768E-14  3.564152E-13 -8.333333E-04
        12  1.114994E-15 -3.826377E-14 -1.939356E-13
        13 -2.494192E-06  3.768981E-04  2.397564E-01
        14 -3.679793E-14 -1.372746E-14  2.083333E-04
        15  1.188889E-13 -1.282001E-13  4.166667E-04
        16 -5.216856E-15 -2.353359E-13 -8.333335E-04
        17 -1.128654E-15 -1.112118E-12 -8.333335E-04
        18  1.036367E-14 -8.093245E-13 -1.666667E-03
        19  9.384854E-16  3.918094E-13  2.083333E-04
        20  7.430623E-14 -2.478811E-13 -8.333333E-04
        21  6.227701E-14  1.774065E-13 -8.333333E-04

 stresses (elem, integ.pnt.,sxx,syy,szz,sxy,sxz,syz) for set EALL and time  0.1000000E+01

         1   1 -4.365744E+02 -1.138162E+02 -1.460370E+02 -9.350144E+00 -7.660134E-01  2.364488E+01 _shell_0000000001   
         1   2 -2.438275E+02  2.661641E-01 -1.445278E+00  7.383931E+00 -4.198373E+00  1.807739E+00 _shell_0000000001   
         1   3 -4.378894E+02 -1.143625E+02 -1.461927E+02 -4.546756E+00 -5.169865E+00 -2.099880E+01 _shell_0000000001   
         1   4 -2.388768E+02  2.108271E+00  1.051336E+00  3.495860E+00 -1.411098E+00 -3.492771E+00 _shell_0000000001   
         1   5 -3.138244E+01 -8.224851E+00 -1.060086E+01 -6.913568E-01 -2.462168E-01  3.471075E+01 _shell_0000000001   
         1   6 -1.744805E+01  7.466696E-02 -1.524667E-02  5.074038E-01 -5.367947E+00  1.632055E+00 _shell_0000000001   
         1   7 -3.136490E+01 -8.143203E+00 -1.032482E+01 -3.464279E-01 -6.019265E+00 -3.200202E+01 _shell_0000000001   
         1   8 -1.716662E+01  1.277617E-01 -3.973349E-02  2.314365E-01 -8.740837E-01 -3.243892E+00 _shell_0000000001   
         1   9  1.326047E+02  3.452910E+01  4.426597E+01  2.828384E+00 -5.142110E-02  2.140195E+01 _shell_0000000001   
         1  10  7.412010E+01 -4.479765E-02  5.072439E-01 -2.246117E+00 -3.230639E+00  7.374925E-01 _shell_0000000001   
         1  11  1.331056E+02  3.480163E+01  4.456390E+01  1.368812E+00 -3.440148E+00 -2.003228E+01 _shell_0000000001   
         1  12  7.255609E+01 -6.712084E-01 -4.259204E-01 -1.062106E+00 -3.600941E-01 -1.545081E+00 _shell_0000000001   
         1  13  3.351609E+02  8.730405E+01  1.119658E+02  7.170691E+00 -1.154660E-01  2.692447E+01 _shell_0000000001   
         1  14  1.872648E+02 -1.734355E-01  1.198872E+00 -5.637486E+00 -4.139369E+00  6.107722E-01 _shell_0000000001   
         1  15  3.363399E+02  8.789564E+01  1.124848E+02  3.481541E+00 -4.191638E+00 -2.554431E+01 _shell_0000000001   
         1  16  1.833780E+02 -1.689255E+00 -9.897452E-01 -2.647771E+00 -4.183763E-01 -1.459520E+00 _shell_0000000001   
         2   1 -4.378894E+02 -1.143625E+02 -1.461927E+02  4.546787E+00 -5.169859E+00  2.099879E+01 _shell_0000000002   
         2   2 -2.388768E+02  2.108271E+00  1.051333E+00 -3.495901E+00 -1.411093E+00  3.492774E+00 _shell_0000000002   
         2   3 -4.365744E+02 -1.138161E+02 -1.460369E+02  9.350179E+00 -7.660011E-01 -2.364488E+01 _shell_0000000002   
         2   4 -2.438275E+02  2.661512E-01 -1.445294E+00 -7.383966E+00 -4.198384E+00 -1.807741E+00 _shell_0000000002   
         2   5 -3.136490E+01 -8.143203E+00 -1.032482E+01  3.464302E-01 -6.019259E+00  3.200201E+01 _shell_0000000002   
         2   6 -1.716662E+01  1.277617E-01 -3.973361E-02 -2.314392E-01 -8.740802E-01  3.243895E+00 _shell_0000000002   
         2   7 -3.138244E+01 -8.224848E+00 -1.060086E+01  6.913594E-01 -2.462024E-01 -3.471075E+01 _shell_0000000002   
         2   8 -1.744806E+01  7.466607E-02 -1.524764E-02 -5.074062E-01 -5.367963E+00 -1.632057E+00 _shell_0000000002   
         2   9  1.331056E+02  3.480163E+01  4.456390E+01 -1.368822E+00 -3.440145E+00  2.003228E+01 _shell_0000000002   
         2  10  7.255609E+01 -6.712083E-01 -4.259194E-01  1.062119E+00 -3.600928E-01  1.545082E+00 _shell_0000000002   
         2  11  1.326047E+02  3.452909E+01  4.426596E+01 -2.828395E+00 -5.141307E-02 -2.140195E+01 _shell_0000000002   
         2  12  7.412011E+01 -4.479369E-02  5.072491E-01  2.246128E+00 -3.230648E+00 -7.374934E-01 _shell_0000000002   
         2  13  3.363399E+02  8.789563E+01  1.124848E+02 -3.481565E+00 -4.191634E+00  2.554430E+01 _shell_0000000002   
         2  14  1.833780E+02 -1.689255E+00 -9.897427E-01  2.647802E+00 -4.183756E-01  1.459521E+00 _shell_0000000002   
         2  15  3.351608E+02  8.730402E+01  1.119658E+02 -7.170718E+00 -1.154569E-01 -2.692447E+01 _shell_0000000002   
         2  16  1.872648E+02 -1.734255E-01  1.198885E+00  5.637513E+00 -4.139381E+00 -6.107731E-01 _shell_0000000002   
         3   1 -1.023877E+02  3.207616E+01  4.379103E+01 -3.414363E+00 -1.152280E+00 -8.704219E+00 _shell_0000000003   
         3   2 -1.117826E+01 -8.310814E+00 -1.161922E+01  8.405522E+00 -2.454331E+00  2.327171E+00 _shell_0000000003   
         3   3 -1.086294E+02  2.885143E+01  4.112401E+01 -6.119280E-01 -1.913064E+00  9.893808E+00 _shell_0000000003   
         3   4 -3.943806E+00 -6.620962E+00 -1.088015E+01  7.655167E+00  1.605715E+00 -2.656156E+00 _shell_0000000003   
         3   5 -7.380676E+00  2.277284E+00  3.151044E+00 -2.673274E-01 -1.816928E+00 -1.163997E+01 _shell_0000000003   
         3   6 -8.307518E-01 -6.140531E-01 -7.768345E-01  5.990374E-01 -3.686156E+00  2.994327E+00 _shell_0000000003   
         3   7 -7.791409E+00  2.094794E+00  3.079495E+00 -6.989776E-02 -3.758673E+00  1.287145E+01 _shell_0000000003   
         3   8 -2.941970E-01 -5.021304E-01 -7.470066E-01  5.454367E-01  1.842367E+00 -3.573489E+00 _shell_0000000003   
         3   9  3.109446E+01 -9.766430E+00 -1.329618E+01  1.034223E+00 -9.917083E-01 -6.896164E+00 _shell_0000000003   
         3  10  3.387867E+00  2.526198E+00  3.589714E+00 -2.555543E+00 -2.133924E+00  1.784604E+00 _shell_0000000003   
         3  11  3.301860E+01 -8.746190E+00 -1.238400E+01  1.798377E-01 -2.390356E+00  7.523999E+00 _shell_0000000003   
         3  12  1.199755E+00  2.002545E+00  3.342973E+00 -2.326915E+00  1.172324E+00 -2.079267E+00 _shell_0000000003   
         3  13  7.862479E+01 -2.466020E+01 -3.360643E+01  2.651430E+00 -8.868122E-01 -8.368469E+00 _shell_0000000003   
         3  14  8.604767E+00  6.418331E+00  9.036976E+00 -6.452475E+00 -2.312616E+00  2.236327E+00 _shell_0000000003   
         3  15  8.345134E+01 -2.212445E+01 -3.140212E+01  4.956304E-01 -2.863683E+00  9.008391E+00 _shell_0000000003   
         3  16  3.054624E+00  5.100106E+00  8.430005E+00 -5.874382E+00  1.740127E+00 -2.419788E+00 _shell_0000000003   
         4   1 -1.086294E+02  2.885143E+01  4.112401E+01  6.119073E-01 -1.913061E+00 -9.893810E+00 _shell_0000000004   
         4   2 -3.943812E+00 -6.620962E+00 -1.088015E+01 -7.655154E+00  1.605712E+00  2.656156E+00 _shell_0000000004   
         4   3 -1.023876E+02  3.207616E+01  4.379105E+01  3.414350E+00 -1.152284E+00  8.704221E+00 _shell_0000000004   
         4   4 -1.117828E+01 -8.310815E+00 -1.161922E+01 -8.405512E+00 -2.454329E+00 -2.327171E+00 _shell_0000000004   
         4   5 -7.791408E+00  2.094793E+00  3.079496E+00  6.989633E-02 -3.758670E+00 -1.287145E+01 _shell_0000000004   
         4   6 -2.941975E-01 -5.021304E-01 -7.470068E-01 -5.454359E-01  1.842363E+00  3.573489E+00 _shell_0000000004   
         4   7 -7.380673E+00  2.277284E+00  3.151044E+00  2.673265E-01 -1.816930E+00  1.163997E+01 _shell_0000000004   
         4   8 -8.307537E-01 -6.140532E-01 -7.768347E-01 -5.990368E-01 -3.686154E+00 -2.994327E+00 _shell_0000000004   
         4   9  3.301859E+01 -8.746189E+00 -1.238400E+01 -1.798314E-01 -2.390354E+00 -7.524000E+00 _shell_0000000004   
         4  10  1.199757E+00  2.002545E+00  3.342973E+00  2.326912E+00  1.172322E+00  2.079268E+00 _shell_0000000004   
         4  11  3.109445E+01 -9.766432E+00 -1.329618E+01 -1.034219E+00 -9.917088E-01  6.896166E+00 _shell_0000000004   
         4  12  3.387874E+00  2.526198E+00  3.589715E+00  2.555540E+00 -2.133922E+00 -1.784604E+00 _shell_0000000004   
         4  13  8.345133E+01 -2.212445E+01 -3.140212E+01 -4.956147E-01 -2.863681E+00 -9.008392E+00 _shell_0000000004   
         4  14  3.054628E+00  5.100106E+00  8.430005E+00  5.874372E+00  1.740125E+00  2.419788E+00 _shell_0000000004   
         4  15  7.862476E+01 -2.466021E+01 -3.360644E+01 -2.651420E+00 -8.868119E-01  8.368471E+00 _shell_0000000004   
         4  16  8.604786E+00  6.418332E+00  9.036979E+00  6.452467E+00 -2.312615E+00 -2.236328E+00 _shell_0000000004   
