
                        S T E P       1


                                INCREMENT     1


 displacements (vx,vy,vz) for set NALL and time  0.1000000E+01

         1  0.000000E+00  0.000000E+00  0.000000E+00
         2 -3.462266E-04  7.798027E-07 -1.789895E-02
         3 -3.733388E-04 -7.623676E-14 -1.844791E-02
         4  0.000000E+00  0.000000E+00  0.000000E+00
         5 -9.026150E-05  6.428396E-08 -6.652336E-03
         6 -3.685086E-04  2.177438E-07 -1.835233E-02
         7 -9.410911E-05 -4.887556E-15 -6.729145E-03
         8  0.000000E+00  0.000000E+00  0.000000E+00
         9 -3.462266E-04 -7.798028E-07 -1.789895E-02
        10  0.000000E+00  0.000000E+00  0.000000E+00
        11 -3.685086E-04 -2.177440E-07 -1.835233E-02
        12 -9.026150E-05 -6.428396E-08 -6.652336E-03
        13  0.000000E+00  0.000000E+00  0.000000E+00
        14 -9.834566E-04  1.034267E-06 -4.315144E-02
        15 -1.045336E-03 -2.806347E-13 -4.435881E-02
        16 -6.610808E-04  8.346604E-07 -3.045228E-02
        17 -1.024922E-03 -4.890012E-08 -4.395913E-02
        18 -7.013670E-04 -1.707623E-13 -3.125073E-02
        19 -9.834566E-04 -1.034267E-06 -4.315144E-02
        20 -1.024922E-03  4.889959E-08 -4.395913E-02
        21 -6.610808E-04 -8.346607E-07 -3.045228E-02

 forces (fx,fy,fz) for set NALL and time  0.1000000E+01

         1  6.734790E-04  4.241237E-04  5.414503E-03
         2  8.893452E-08 -2.188951E-07  4.504967E-09
         3  9.124990E-08  2.765630E-13  1.182639E-08
         4  5.095593E-03 -4.962848E-11  4.857400E-02
         5 -4.327271E-07 -1.598013E-07 -7.625057E-08
         6 -7.928737E-07 -6.938378E-08 -1.048938E-07
         7 -9.473388E-07  2.364123E-13 -1.555489E-07
         8 -3.221261E-03  3.691058E-04 -2.970149E-02
         9  8.893444E-08  2.188952E-07  4.504972E-09
        10  6.734790E-04 -4.241237E-04  5.414503E-03
        11 -7.928742E-07  6.938344E-08 -1.048938E-07
        12 -4.327269E-07  1.598011E-07 -7.625059E-08
        13 -3.221261E-03 -3.691057E-04 -2.970149E-02
        14  2.330757E-07 -1.005637E-07  3.416731E-08
        15  7.169795E-07  1.904858E-13  8.804551E-08
        16 -3.611828E-08 -6.558210E-07  6.168935E-09
        17  1.097886E-06 -9.848530E-08  1.570848E-07
        18 -2.070669E-07 -3.255758E-13 -3.311489E-09
        19  2.330760E-07  1.005640E-07  3.416735E-08
        20  1.097887E-06  9.848488E-08  1.570847E-07
        21 -3.611866E-08  6.558213E-07  6.168965E-09

 stresses (elem, integ.pnt.,sxx,syy,szz,sxy,sxz,syz) for set EALL and time  0.1000000E+01

         1   1 -1.798642E+02 -7.234134E+01 -6.801971E+01  3.665475E+00  4.852211E+00  7.421457E-01 _shell_0000000001   
         1   2 -4.131386E+01  4.010851E-01  4.621622E+00  1.283750E+01  4.642406E-02 -2.353900E+00 _shell_0000000001   
         1   3 -1.840814E+02 -7.644010E+01 -6.896451E+01 -4.253381E+00  5.625495E-01  6.404999E+00 _shell_0000000001   
         1   4 -5.601364E+01 -1.592302E+01 -2.864504E+00 -2.097290E+01  5.501694E+00  4.911374E+00 _shell_0000000001   
         1   5  1.806775E+02  7.225682E+01  6.746654E+01 -4.231087E+00 -1.304382E+00 -1.964961E-01 _shell_0000000001   
         1   6  4.129620E+01 -5.431055E-01 -4.148094E+00 -1.306663E+01 -4.049581E+00 -9.932040E-01 _shell_0000000001   
         1   7  1.833013E+02  7.607286E+01  6.862093E+01  5.352367E+00 -4.133886E+00  7.214349E+00 _shell_0000000001   
         1   8  5.607527E+01  1.580852E+01  2.722970E+00  2.137360E+01 -1.484894E+00  2.589054E+00 _shell_0000000001   
         2   1 -1.840814E+02 -7.644010E+01 -6.896451E+01  4.253381E+00  5.625498E-01 -6.404999E+00 _shell_0000000002   
         2   2 -5.601364E+01 -1.592302E+01 -2.864504E+00  2.097290E+01  5.501694E+00 -4.911374E+00 _shell_0000000002   
         2   3 -1.798642E+02 -7.234134E+01 -6.801971E+01 -3.665475E+00  4.852211E+00 -7.421457E-01 _shell_0000000002   
         2   4 -4.131386E+01  4.010852E-01  4.621622E+00 -1.283750E+01  4.642399E-02  2.353900E+00 _shell_0000000002   
         2   5  1.833013E+02  7.607286E+01  6.862093E+01 -5.352367E+00 -4.133885E+00 -7.214349E+00 _shell_0000000002   
         2   6  5.607527E+01  1.580852E+01  2.722970E+00 -2.137360E+01 -1.484894E+00 -2.589054E+00 _shell_0000000002   
         2   7  1.806775E+02  7.225682E+01  6.746654E+01  4.231087E+00 -1.304382E+00  1.964962E-01 _shell_0000000002   
         2   8  4.129620E+01 -5.431056E-01 -4.148094E+00  1.306663E+01 -4.049581E+00  9.932040E-01 _shell_0000000002   
         3   1 -8.465967E+00  1.558319E+01  1.476779E+01  1.181461E+01 -3.286811E-01  8.179708E-01 _shell_0000000003   
         3   2  9.338770E+00  5.759288E+00 -3.962701E+00 -7.874684E+00 -6.852925E-02 -4.112965E-01 _shell_0000000003   
         3   3  8.407780E+00  1.624077E+01  2.250065E+01 -1.858747E+01  4.429139E-01 -3.603062E+00 _shell_0000000003   
         3   4 -9.303205E+00  8.346852E+00 -6.052398E+00  2.397936E+00  5.968737E-02  1.079671E+00 _shell_0000000003   
         3   5  8.567316E+00 -1.569615E+01 -1.463713E+01 -1.147993E+01 -1.756025E+00  2.361447E+00 _shell_0000000003   
         3   6 -9.102687E+00 -5.618440E+00  3.880991E+00  7.923485E+00  9.948845E-01 -1.286914E+00 _shell_0000000003   
         3   7 -8.496220E+00 -1.652949E+01 -2.291102E+01  1.804682E+01  1.626962E+00 -5.943934E+00 _shell_0000000003   
         3   8  9.069487E+00 -7.959848E+00  6.156762E+00 -2.054380E+00 -9.847908E-01  1.522505E+00 _shell_0000000003   
         4   1  8.407780E+00  1.624077E+01  2.250065E+01  1.858747E+01  4.429139E-01  3.603062E+00 _shell_0000000004   
         4   2 -9.303205E+00  8.346852E+00 -6.052398E+00 -2.397937E+00  5.968737E-02 -1.079671E+00 _shell_0000000004   
         4   3 -8.465967E+00  1.558319E+01  1.476779E+01 -1.181461E+01 -3.286811E-01 -8.179708E-01 _shell_0000000004   
         4   4  9.338770E+00  5.759288E+00 -3.962701E+00  7.874684E+00 -6.852926E-02  4.112965E-01 _shell_0000000004   
         4   5 -8.496220E+00 -1.652949E+01 -2.291102E+01 -1.804682E+01  1.626962E+00  5.943934E+00 _shell_0000000004   
         4   6  9.069487E+00 -7.959848E+00  6.156762E+00  2.054380E+00 -9.847908E-01 -1.522505E+00 _shell_0000000004   
         4   7  8.567316E+00 -1.569615E+01 -1.463713E+01  1.147993E+01 -1.756025E+00 -2.361447E+00 _shell_0000000004   
         4   8 -9.102687E+00 -5.618440E+00  3.880991E+00 -7.923485E+00  9.948845E-01  1.286914E+00 _shell_0000000004   
