
                        S T E P       1


                                INCREMENT     1


 displacements (vx,vy,vz) for set NALL and time  0.1000000E+01

         1  0.000000E+00  0.000000E+00  0.000000E+00
         2  4.510056E-04 -5.471369E-04 -1.483740E-02
         3  6.342461E-04  2.758196E-12 -1.267692E-02
         4  0.000000E+00  0.000000E+00  0.000000E+00
         5  2.724653E-04 -4.220146E-04 -5.921208E-03
         6  6.202137E-04 -2.556576E-04 -1.320768E-02
         7  4.195484E-04  2.706686E-12 -4.912082E-03
         8  0.000000E+00  0.000000E+00  0.000000E+00
         9  4.510056E-04  5.471369E-04 -1.483740E-02
        10  0.000000E+00  0.000000E+00  0.000000E+00
        11  6.202137E-04  2.556576E-04 -1.320768E-02
        12  2.724653E-04  4.220146E-04 -5.921208E-03
        13  0.000000E+00  0.000000E+00  0.000000E+00
        14  8.091717E-04 -6.164598E-04 -3.299365E-02
        15  1.315990E-03  1.056229E-12 -2.842714E-02
        16  6.668643E-04 -5.729215E-04 -2.378190E-02
        17  9.709998E-04 -3.247400E-04 -2.996363E-02
        18  9.358769E-04  2.185064E-12 -2.069517E-02
        19  8.091718E-04  6.164598E-04 -3.299365E-02
        20  9.709998E-04  3.247400E-04 -2.996363E-02
        21  6.668643E-04  5.729215E-04 -2.378190E-02

 temperatures for set NALL and time  0.1000000E+01

         1  3.730000E+02
         2  3.730000E+02
         3  3.730000E+02
         4  3.730000E+02
         5  3.730000E+02
         6  3.730000E+02
         7  3.730000E+02
         8  3.730000E+02
         9  3.730000E+02
        10  3.730000E+02
        11  3.730000E+02
        12  3.730000E+02
        13  3.730000E+02
        14  3.730000E+02
        15  3.730000E+02
        16  3.730000E+02
        17  3.730000E+02
        18  3.730000E+02
        19  3.730000E+02
        20  3.730000E+02
        21  3.730000E+02

 forces (fx,fy,fz) for set NALL and time  0.1000000E+01

         1  2.022852E-01  4.628383E-01  1.573028E-03
         2  5.023874E-05 -1.700931E-05  2.087490E-03
         3  1.040535E-04 -1.059971E-12  4.175439E-03
         4 -3.133272E-01 -1.643653E-09  5.575950E-03
         5 -7.785448E-06 -3.462549E-06  1.638830E-07
         6 -2.037893E-04  4.873831E-05 -8.349840E-03
         7 -1.504259E-05  3.781892E-13  3.760988E-07
         8 -5.450326E-01  1.287514E-01  2.069029E-02
         9  5.023874E-05  1.700931E-05  2.087490E-03
        10  2.022852E-01 -4.628383E-01  1.573028E-03
        11 -2.037893E-04 -4.873831E-05 -8.349840E-03
        12 -7.785447E-06  3.462549E-06  1.638830E-07
        13 -5.450326E-01 -1.287515E-01  2.069029E-02
        14  5.059037E-05 -1.060639E-05  2.087735E-03
        15  1.000107E+00 -1.329231E-12  4.174270E-03
        16 -2.020444E-04  6.028315E-05 -8.350036E-03
        17 -1.848761E-04  6.100992E-05 -8.350954E-03
        18 -3.783424E-04  2.329507E-12 -1.670180E-02
        19  5.059036E-05  1.060638E-05  2.087735E-03
        20 -1.848761E-04 -6.100991E-05 -8.350954E-03
        21 -2.020444E-04 -6.028315E-05 -8.350036E-03

 stresses (elem, integ.pnt.,sxx,syy,szz,sxy,sxz,syz) for set EALL and time  0.1000000E+01

         1   1 -9.195845E+01 -1.932294E+02 -4.975617E+01 -8.867503E+01 -1.774547E+00  1.772001E+00 _shell_0000000001   
         1   2  6.149100E+01  3.072210E+00  7.438775E+00  2.479892E+01 -1.700176E+00 -7.451530E-01 _shell_0000000001   
         1   3 -8.287001E+00 -1.728366E+02 -4.321042E+01 -1.852819E+01 -1.939576E+00 -6.856797E-01 _shell_0000000001   
         1   4  3.837483E+01 -3.038700E+01  6.296896E+00  7.920089E+00 -5.180064E+00  1.703883E+00 _shell_0000000001   
         1   5  1.624753E+02 -1.003253E+02  4.964058E+01 -1.019462E+02 -4.970855E+00  1.398726E+00 _shell_0000000001   
         1   6  3.151245E+01 -4.256581E-03 -7.030595E+00  1.113103E+00 -4.016710E+00 -4.036674E-02 _shell_0000000001   
         1   7  2.178376E+02 -9.457960E+01  4.319030E+01 -2.706963E+01 -5.381055E+00 -8.948436E-01 _shell_0000000001   
         1   8  2.314219E+01 -3.629609E+01 -5.492549E+00 -1.170223E+01  3.172286E+00  2.224379E+00 _shell_0000000001   
         2   1 -8.287002E+00 -1.728366E+02 -4.321042E+01  1.852820E+01 -1.939577E+00  6.856796E-01 _shell_0000000002   
         2   2  3.837483E+01 -3.038700E+01  6.296896E+00 -7.920089E+00 -5.180064E+00 -1.703883E+00 _shell_0000000002   
         2   3 -9.195845E+01 -1.932294E+02 -4.975617E+01  8.867504E+01 -1.774547E+00 -1.772001E+00 _shell_0000000002   
         2   4  6.149101E+01  3.072211E+00  7.438775E+00 -2.479892E+01 -1.700176E+00  7.451530E-01 _shell_0000000002   
         2   5  2.178376E+02 -9.457960E+01  4.319030E+01  2.706963E+01 -5.381056E+00  8.948436E-01 _shell_0000000002   
         2   6  2.314219E+01 -3.629609E+01 -5.492550E+00  1.170223E+01  3.172286E+00 -2.224379E+00 _shell_0000000002   
         2   7  1.624753E+02 -1.003253E+02  4.964058E+01  1.019462E+02 -4.970855E+00 -1.398727E+00 _shell_0000000002   
         2   8  3.151245E+01 -4.254902E-03 -7.030594E+00 -1.113104E+00 -4.016710E+00  4.036672E-02 _shell_0000000002   
         3   1  4.697255E+01  5.984077E+00  6.794896E+00  2.494185E+01 -3.433908E+00 -7.097488E-01 _shell_0000000003   
         3   2  5.144801E+00  8.340028E+00 -1.702194E+00  8.249229E+00 -1.673194E+00  1.308359E-01 _shell_0000000003   
         3   3  6.124675E+01 -2.306902E+01  5.753278E+00  1.627965E+01 -3.158416E-01 -2.725127E+00 _shell_0000000003   
         3   4  1.166969E+02  1.028137E+01 -1.475105E+00  7.714061E+01  6.284595E+00  8.106988E-01 _shell_0000000003   
         3   5  9.354539E+00  7.108459E+00 -6.460012E+00  8.250631E+00  4.238684E-01 -2.399204E-01 _shell_0000000003   
         3   6 -2.248764E+01 -9.511972E+00  1.598034E+00 -1.745447E+01  2.593664E+00  7.893212E-01 _shell_0000000003   
         3   7  2.533156E+01 -7.845066E+00 -6.786215E+00 -5.119497E+00 -2.356360E+00 -2.216461E+00 _shell_0000000003   
         3   8  8.125971E+01  6.810815E+01  2.341157E+00  5.313573E+01 -9.087664E+00  1.457126E+00 _shell_0000000003   
         4   1  6.124676E+01 -2.306902E+01  5.753278E+00 -1.627965E+01 -3.158415E-01  2.725127E+00 _shell_0000000004   
         4   2  1.166969E+02  1.028137E+01 -1.475105E+00 -7.714061E+01  6.284595E+00 -8.106988E-01 _shell_0000000004   
         4   3  4.697255E+01  5.984076E+00  6.794896E+00 -2.494185E+01 -3.433908E+00  7.097488E-01 _shell_0000000004   
         4   4  5.144801E+00  8.340028E+00 -1.702194E+00 -8.249228E+00 -1.673194E+00 -1.308359E-01 _shell_0000000004   
         4   5  2.533156E+01 -7.845065E+00 -6.786215E+00  5.119496E+00 -2.356360E+00  2.216461E+00 _shell_0000000004   
         4   6  8.125971E+01  6.810814E+01  2.341157E+00 -5.313573E+01 -9.087664E+00 -1.457125E+00 _shell_0000000004   
         4   7  9.354539E+00  7.108459E+00 -6.460012E+00 -8.250631E+00  4.238684E-01  2.399204E-01 _shell_0000000004   
         4   8 -2.248764E+01 -9.511972E+00  1.598034E+00  1.745447E+01  2.593664E+00 -7.893212E-01 _shell_0000000004   
