
                        S T E P       1


                                INCREMENT     1


 displacements (vx,vy,vz) for set NALL and time  0.1000000E+01

         1  2.264067E-07  1.196996E-09 -1.922402E-08
         2  0.000000E+00  0.000000E+00  0.000000E+00
         3  0.000000E+00  0.000000E+00  0.000000E+00
         4  3.271071E-07  3.578431E-08 -4.845122E-08
         5  1.186629E-07 -9.519753E-07  4.168004E-08
         6  0.000000E+00  0.000000E+00  0.000000E+00
         7  1.607731E-07 -9.135940E-07 -5.034252E-08
         8  3.034616E-07  1.462239E-08 -3.096223E-08
         9  0.000000E+00  0.000000E+00  0.000000E+00
        10  0.000000E+00  0.000000E+00  0.000000E+00
        11  9.069958E-07 -3.471980E-09 -1.498262E-08
        12  9.507063E-07  1.635791E-08 -1.020826E-08
        13  0.000000E+00  0.000000E+00  0.000000E+00
        14 -6.060800E-19  1.947902E-06 -1.060760E-07
        15  1.188135E-07  1.459822E-06 -8.435423E-08

 stresses (elem, integ.pnt.,sxx,syy,szz,sxy,sxz,syz) for set EALL and time  0.1000000E+01

         1   1 -9.059962E-02 -2.873648E-02 -2.472654E-02 -3.844350E-04 -6.923220E-04  9.421854E-04
         1   2 -7.837535E-02 -5.667014E-03  5.804250E-03 -2.994021E-04 -1.784374E-04  2.700823E-03
         1   3 -8.735965E-02 -1.305144E-02 -3.907886E-03  5.753298E-04  2.770022E-04  2.167914E-03
         1   4 -5.133008E-02 -1.359948E-02 -1.353950E-02  2.407308E-04 -3.182155E-04  9.864669E-04
         1   5 -4.435315E-02  4.064695E-03  4.221038E-03 -1.365195E-04 -8.028882E-05  2.827412E-03
         1   6 -5.137058E-02 -1.510786E-03 -1.428159E-03  2.759291E-04  1.525399E-04  2.268585E-03
         1   7 -1.206051E-02  1.537507E-03 -2.352466E-03  8.658972E-04  5.589131E-05  1.030748E-03
         1   8 -1.033093E-02  1.379641E-02  2.637830E-03  2.636319E-05  1.785990E-05  2.954001E-03
         1   9 -1.538148E-02  1.002987E-02  1.051571E-03 -2.347182E-05  2.807751E-05  2.369255E-03
         1  10 -9.150280E-02 -2.906030E-02 -2.509464E-02 -4.505371E-04 -7.088181E-05 -4.530030E-05
         1  11 -7.922704E-02 -5.851181E-03  5.493495E-03 -3.910522E-04 -3.284405E-05 -1.279065E-04
         1  12 -8.824101E-02 -1.328535E-02 -4.242465E-03  4.848050E-04 -5.325798E-05 -9.731758E-05
         1  13 -5.224650E-02 -1.392898E-02 -1.391328E-02  1.814497E-04 -1.135894E-06 -1.019857E-06
         1  14 -4.520874E-02  3.878857E-03  3.908611E-03 -2.267599E-04  1.417493E-06 -1.317468E-06
         1  15 -5.224649E-02 -1.742364E-03 -1.760407E-03  1.814027E-04 -1.133790E-06  3.352895E-06
         1  16 -1.299017E-02  1.202341E-03 -2.731912E-03  8.134372E-04  6.861010E-05  4.326059E-05
         1  17 -1.119041E-02  1.360890E-02  2.323733E-03 -6.246750E-05  3.567909E-05  1.252715E-04
         1  18 -1.625195E-02  9.800622E-03  7.216532E-04 -1.219999E-04  5.099047E-05  1.040233E-04
         1  19 -9.240599E-02 -2.938412E-02 -2.546274E-02 -5.166391E-04  5.505584E-04 -1.032786E-03
         1  20 -8.007872E-02 -6.035347E-03  5.182740E-03 -4.827023E-04  1.127493E-04 -2.956636E-03
         1  21 -8.912236E-02 -1.351926E-02 -4.577042E-03  3.942802E-04 -3.835182E-04 -2.362549E-03
         1  22 -5.316292E-02 -1.425847E-02 -1.428705E-02  1.221687E-04  3.159438E-04 -9.885066E-04
         1  23 -4.606432E-02  3.693020E-03  3.596186E-03 -3.170003E-04  8.312381E-05 -2.830047E-03
         1  24 -5.312241E-02 -1.973941E-03 -2.092655E-03  8.687631E-05 -1.548075E-04 -2.261879E-03
         1  25 -1.391982E-02  8.671746E-04 -3.111358E-03  7.609772E-04  8.132888E-05 -9.442272E-04
         1  26 -1.204989E-02  1.342139E-02  2.009636E-03 -1.512982E-04  5.349829E-05 -2.703458E-03
         1  27 -1.712243E-02  9.571374E-03  3.917357E-04 -2.205279E-04  7.390343E-05 -2.161208E-03
         2   1  9.898438E-02  3.077351E-02  2.862759E-02 -3.016871E-03  3.366866E-04 -6.896488E-04
         2   2  9.170821E-02  1.509956E-02  1.359701E-02  1.091707E-03  5.080349E-03 -7.399543E-04
         2   3  9.885493E-02  1.806907E-02  2.799319E-02 -2.584013E-03  1.061562E-02 -7.992040E-04
         2   4  1.109820E-01  2.589616E-02  2.910802E-02 -2.539662E-03  1.202559E-03  1.000152E-04
         2   5  1.035271E-01  1.452503E-02  1.603945E-02  1.220012E-03  1.009206E-03  7.639746E-05
         2   6  1.092498E-01  1.889157E-02  3.115228E-02 -2.663712E-03  1.607464E-03  4.542990E-05
         2   7  1.182183E-01  2.701323E-02  2.995838E-02 -2.763778E-03  1.789672E-03  8.558268E-04
         2   8  1.087950E-01  1.576901E-02  1.706214E-02  1.100632E-03 -3.340698E-03  8.575302E-04
         2   9  1.113039E-01  1.735667E-02  3.110196E-02 -2.537461E-03 -7.679456E-03  8.534773E-04
         2  10  5.599586E-02  1.235366E-02  1.021657E-02 -2.791437E-03  5.017569E-04 -9.257383E-04
         2  11  5.010764E-02 -2.710773E-03 -4.170230E-03  1.211661E-03  5.016838E-03 -8.737580E-04
         2  12  5.864243E-02  8.683832E-04  1.087001E-02 -2.569538E-03  1.033057E-02 -8.722318E-04
         2  13  6.841474E-02  7.655402E-03  1.087270E-02 -2.407441E-03  1.299739E-03  4.537781E-06
         2  14  6.232305E-02 -3.116883E-03 -1.562895E-03  1.288263E-03  9.004115E-04  2.355008E-05
         2  15  6.940899E-02  1.848632E-03  1.418319E-02 -2.659430E-03  1.299739E-03 -6.297266E-06
         2  16  7.599291E-02  8.917544E-03  1.186474E-02 -2.665114E-03  1.819030E-03  9.009616E-04
         2  17  6.790807E-02 -1.738507E-03 -4.093297E-04  1.176836E-03 -3.494708E-03  8.856391E-04
         2  18  7.175549E-02  4.374596E-04  1.425294E-02 -2.483717E-03 -8.009791E-03  8.230507E-04
         2  19  1.300737E-02 -6.066187E-03 -8.194458E-03 -2.566003E-03  6.668271E-04 -1.161828E-03
         2  20  8.507086E-03 -2.052110E-02 -2.193747E-02  1.331615E-03  4.953327E-03 -1.007562E-03
         2  21  1.842994E-02 -1.633231E-02 -6.253176E-03 -2.555063E-03  1.004553E-02 -9.452595E-04
         2  22  2.584749E-02 -1.058536E-02 -7.362626E-03 -2.275219E-03  1.396919E-03 -9.093960E-05
         2  23  2.111899E-02 -2.075879E-02 -1.916524E-02  1.356514E-03  7.916168E-04 -2.929730E-05
         2  24  2.956824E-02 -1.519431E-02 -2.785899E-03 -2.655149E-03  9.920134E-04 -5.802442E-05
         2  25  3.376753E-02 -9.178150E-03 -6.228902E-03 -2.566449E-03  1.848388E-03  9.460963E-04
         2  26  2.702112E-02 -1.924602E-02 -1.788080E-02  1.253040E-03 -3.648717E-03  9.137481E-04
         2  27  3.220710E-02 -1.648176E-02 -2.596085E-03 -2.429973E-03 -8.340124E-03  7.926241E-04
         3   1  4.531695E-03  2.072504E-02  8.620359E-03  1.659680E-01 -8.212551E-05 -1.904747E-03
         3   2 -1.316543E-02 -2.161413E-02 -8.886511E-03 -4.308068E-02  3.582285E-04 -1.493902E-04
         3   3 -3.378292E-02 -6.677835E-02 -3.289227E-02  1.125747E-02  1.796133E-03  1.188890E-03
         3   4  6.176021E-03  2.523162E-02  1.025474E-02  1.683265E-01  2.900291E-05 -8.294187E-04
         3   5 -1.322038E-02 -1.926626E-02 -9.134225E-03 -4.254548E-02 -1.089706E-05 -5.579531E-04
         3   6 -4.355575E-02 -7.002578E-02 -3.845865E-02  1.339384E-02  9.536381E-05 -7.035481E-04
         3   7  3.946631E-03  2.908570E-02  1.053126E-02  1.681296E-01  1.403719E-04 -3.282389E-05
         3   8 -1.040053E-02 -1.467867E-02 -7.847586E-03 -4.412071E-02 -3.789497E-04 -1.245249E-03
         3   9 -4.370529E-02 -6.814126E-02 -3.959845E-02  1.386464E-02 -1.603502E-03 -2.874719E-03
         3  10 -6.079340E-03 -4.114176E-03 -1.910547E-03  1.659741E-01 -5.448665E-05 -2.235380E-03
         3  11 -3.857153E-03 -1.953500E-04  7.223035E-04 -4.307693E-02  3.283002E-04 -6.082377E-04
         3  12 -4.619174E-03  8.345522E-04 -3.292729E-03  1.125879E-02  1.594085E-03  7.730499E-04
         3  13 -4.757008E-03 -3.589373E-04 -5.981357E-04  1.683805E-01 -6.253366E-06 -1.022072E-03
         3  14 -3.977204E-03  2.000506E-03  4.095933E-04 -4.260837E-02 -7.314411E-06 -8.991480E-04
         3  15 -1.420022E-02 -1.965553E-03 -8.667125E-03  1.321397E-02  2.323343E-05 -1.022065E-03
         3  16 -7.275027E-03  2.821644E-03 -6.102213E-04  1.683279E-01  4.222056E-05 -8.745527E-05
         3  17 -1.189095E-03  6.513930E-03  1.664601E-03 -4.415384E-02 -3.418561E-04 -1.468750E-03
         3  18 -1.412460E-02  4.441318E-04 -9.581584E-03  1.359999E-02 -1.545715E-03 -3.095872E-03
         3  19 -1.669038E-02 -2.895338E-02 -1.244145E-02  1.659802E-01 -2.684778E-05 -2.566013E-03
         3  20  5.451126E-03  2.122344E-02  1.033112E-02 -4.307318E-02  2.983718E-04 -1.067085E-03
         3  21  2.454456E-02  6.844750E-02  2.630681E-02  1.126012E-02  1.392038E-03  3.572094E-04
         3  22 -1.569004E-02 -2.594949E-02 -1.145101E-02  1.684345E-01 -4.150964E-05 -1.214725E-03
         3  23  5.265972E-03  2.326728E-02  9.953411E-03 -4.267126E-02 -3.731761E-06 -1.240343E-03
         3  24  1.515531E-02  6.609472E-02  2.112439E-02  1.303411E-02 -4.889695E-05 -1.340582E-03
         3  25 -1.849669E-02 -2.344241E-02 -1.175171E-02  1.685263E-01 -5.593082E-05 -1.420866E-04
         3  26  8.022342E-03  2.770654E-02  1.117679E-02 -4.418696E-02 -3.047624E-04 -1.692251E-03
         3  27  1.545608E-02  6.902958E-02  2.043528E-02  1.333533E-02 -1.487927E-03 -3.317024E-03
