
                        S T E P       1


                                INCREMENT     1


 stresses (elem, integ.pnt.,sxx,syy,szz,sxy,sxz,syz) for set EALL and time  0.1000000E+01

         1   1 -1.355184E+02 -4.481659E+01  4.685125E+02 -4.481104E+01 -1.600000E+01 -2.223355E-01
         1   2  5.046812E+02  1.683272E+02  1.748512E+03  1.683216E+02 -1.600000E+01 -2.223355E-01
         1   3 -1.355184E+02 -4.481659E+01  4.685125E+02  4.481103E+01 -1.600000E+01  2.223357E-01
         1   4  5.046812E+02  1.683272E+02  1.748512E+03 -1.683216E+02 -1.600000E+01  2.223358E-01
         1   5  1.355184E+02  4.481659E+01 -4.685125E+02 -4.481103E+01 -1.600000E+01  2.223356E-01
         1   6 -5.046812E+02 -1.683272E+02 -1.748512E+03  1.683216E+02 -1.600000E+01  2.223356E-01
         1   7  1.355184E+02  4.481659E+01 -4.685125E+02  4.481104E+01 -1.600000E+01 -2.223356E-01
         1   8 -5.046812E+02 -1.683272E+02 -1.748512E+03 -1.683216E+02 -1.600000E+01 -2.223357E-01
         1   9 -2.173543E+02 -7.190796E+01  7.511945E+02 -7.185752E+01 -1.789073E+01 -5.717199E-01
         1  10 -2.173128E+02 -7.186643E+01  7.512914E+02 -4.481104E+01 -1.672624E+01 -3.565300E-01
         1  11 -2.172864E+02 -7.184000E+01  7.513531E+02 -2.611391E-07 -1.598521E+01  1.453731E-07
         1  12 -2.173128E+02 -7.186643E+01  7.512914E+02  4.481103E+01 -1.672624E+01  3.565303E-01
         1  13 -2.173543E+02 -7.190796E+01  7.511945E+02  7.185752E+01 -1.789073E+01  5.717202E-01
         1  14 -1.355443E+02 -4.484249E+01  4.684521E+02 -7.185752E+01 -1.716448E+01 -3.565300E-01
         1  15 -1.355019E+02 -4.480011E+01  4.685510E+02  1.561383E-08 -1.525896E+01  1.124408E-07
         1  16 -1.355443E+02 -4.484249E+01  4.684521E+02  7.185752E+01 -1.716449E+01  3.565302E-01
         1  17 -1.860782E-07 -5.526771E-07  1.939171E-06 -7.185752E+01 -1.670233E+01  4.769598E-08
         1  18 -1.155167E-07 -3.444725E-07  1.209343E-06 -4.481103E+01 -1.553784E+01  4.665860E-08
         1  19  1.985171E-09  7.204664E-10  3.456567E-10  2.622360E-07 -1.479681E+01  4.682605E-08
         1  20  1.168318E-07  3.447528E-07 -1.209866E-06  4.481104E+01 -1.553785E+01  4.936873E-08
         1  21  1.847038E-07  5.517686E-07 -1.940967E-06  7.185752E+01 -1.670233E+01  5.204813E-08
         1  22  1.355443E+02  4.484249E+01 -4.684521E+02 -7.185752E+01 -1.716448E+01  3.565301E-01
         1  23  1.355019E+02  4.480011E+01 -4.685510E+02  2.441127E-07 -1.525896E+01 -3.256565E-08
         1  24  1.355443E+02  4.484249E+01 -4.684521E+02  7.185752E+01 -1.716449E+01 -3.565301E-01
         1  25  2.173543E+02  7.190796E+01 -7.511945E+02 -7.185752E+01 -1.789073E+01  5.717200E-01
         1  26  2.173128E+02  7.186643E+01 -7.512914E+02 -4.481104E+01 -1.672624E+01  3.565300E-01
         1  27  2.172864E+02  7.184000E+01 -7.513531E+02  1.051458E-07 -1.598521E+01 -8.715741E-08
         1  28  2.173128E+02  7.186643E+01 -7.512914E+02  4.481103E+01 -1.672624E+01 -3.565302E-01
         1  29  2.173543E+02  7.190796E+01 -7.511945E+02  7.185752E+01 -1.789073E+01 -5.717202E-01
         1  30  8.092488E+02  2.698825E+02  2.803761E+03  2.699151E+02 -1.650946E+01 -5.717199E-01
         1  31  8.092903E+02  2.699240E+02  2.803858E+03  1.683216E+02 -1.672624E+01 -3.565299E-01
         1  32  8.093167E+02  2.699504E+02  2.803919E+03  6.665870E-07 -1.686420E+01  2.020697E-07
         1  33  8.092903E+02  2.699240E+02  2.803858E+03 -1.683216E+02 -1.672624E+01  3.565303E-01
         1  34  8.092488E+02  2.698825E+02  2.803761E+03 -2.699151E+02 -1.650946E+01  5.717203E-01
         1  35  5.046553E+02  1.683013E+02  1.748452E+03  2.699151E+02 -1.578322E+01 -3.565300E-01
         1  36  5.046977E+02  1.683437E+02  1.748551E+03  4.641500E-07 -1.613795E+01  1.432229E-07
         1  37  5.046553E+02  1.683013E+02  1.748452E+03 -2.699151E+02 -1.578322E+01  3.565303E-01
         1  38  6.840907E-07  2.057075E-06  7.134564E-06  2.699151E+02 -1.532106E+01  5.256813E-08
         1  39  4.257463E-07  1.282659E-06  4.448911E-06  1.683216E+02 -1.553784E+01  4.763834E-08
         1  40 -1.310264E-09 -6.503247E-12 -3.643648E-10  7.194603E-08 -1.567580E+01  4.136855E-08
         1  41 -4.294063E-07 -1.283141E-06 -4.450161E-06 -1.683216E+02 -1.553785E+01  3.746144E-08
         1  42 -6.883106E-07 -2.057833E-06 -7.136174E-06 -2.699151E+02 -1.532106E+01  3.626177E-08
         1  43 -5.046553E+02 -1.683013E+02 -1.748452E+03  2.699151E+02 -1.578322E+01  3.565301E-01
         1  44 -5.046977E+02 -1.683437E+02 -1.748551E+03 -3.911414E-07 -1.613795E+01 -6.590841E-08
         1  45 -5.046553E+02 -1.683013E+02 -1.748452E+03 -2.699151E+02 -1.578322E+01 -3.565302E-01
         1  46 -8.092488E+02 -2.698825E+02 -2.803761E+03  2.699151E+02 -1.650946E+01  5.717200E-01
         1  47 -8.092903E+02 -2.699240E+02 -2.803858E+03  1.683216E+02 -1.672624E+01  3.565300E-01
         1  48 -8.093167E+02 -2.699504E+02 -2.803919E+03 -7.049344E-07 -1.686420E+01 -1.332831E-07
         1  49 -8.092903E+02 -2.699240E+02 -2.803858E+03 -1.683216E+02 -1.672624E+01 -3.565303E-01
         1  50 -8.092488E+02 -2.698825E+02 -2.803761E+03 -2.699151E+02 -1.650946E+01 -5.717203E-01

 volume (element, volume) for set EALL and time  0.1000000E+01

         1  6.250000E-01

 total volume for set EALL and time  0.1000000E+01

        6.250000E-01
