
                        S T E P       1


                                INCREMENT     1


 displacements (vx,vy,vz) for set NALL and time  0.1000000E+01

         1  9.043046E-01 -3.099131E-10 -2.587947E-14
         2  8.362840E-01 -2.874812E-10 -2.592631E-14
         3  7.686064E-01 -2.650955E-10 -2.552125E-14
         4  7.016151E-01 -2.428214E-10 -2.477836E-14
         5  6.356526E-01 -2.207934E-10 -2.424276E-14
         6  5.710616E-01 -1.991523E-10 -2.254360E-14
         7  5.081854E-01 -1.779958E-10 -2.140562E-14
         8  4.473668E-01 -1.574184E-10 -2.013277E-14
         9  3.889487E-01 -1.375290E-10 -1.885991E-14
        10  3.332738E-01 -1.184373E-10 -1.714384E-14
        11  2.806858E-01 -1.002592E-10 -1.572050E-14
        12  2.315277E-01 -8.310778E-11 -1.417269E-14
        13  1.861401E-01 -6.712370E-11 -1.273829E-14
        14  1.448655E-01 -5.246164E-11 -1.122540E-14
        15  1.080555E-01 -3.928431E-11 -9.691033E-15
        16  7.605498E-02 -2.775073E-11 -8.075138E-15
        17  4.917421E-02 -1.800292E-11 -6.416417E-15
        18  2.774850E-02 -1.019113E-11 -4.826868E-15
        19  1.224274E-02 -4.510455E-12 -3.215527E-15
        20  3.031209E-03 -1.120665E-12 -1.608685E-15
        21  0.000000E+00  3.388132E-21  2.465190E-32

 stresses (elem, integ.pnt.,sxx,syy,szz,sxy,sxz,syz) for set EALL and time  0.1000000E+01

         1   1  1.354647E-08  1.587892E-08 -7.363582E-08 -2.542473E+01 -1.414745E+02  2.567854E-08
         1   2  1.684583E+01 -9.111873E+00 -4.313623E+02 -1.797800E+01 -1.515761E+02 -6.919018E+01
         1   3  2.433727E+01 -1.237247E+01 -6.088398E+02 -3.924298E-08 -1.616778E+02 -7.403262E-08
         1   4  1.684583E+01 -9.111873E+00 -4.313623E+02  1.797800E+01 -1.515761E+02  6.919018E+01
         1   5  3.780983E-09  2.875983E-08  8.192294E-08  2.542473E+01 -1.414745E+02  3.254127E-08
         1   6 -1.684583E+01  9.111873E+00  4.313623E+02  1.797800E+01 -1.515761E+02 -6.919018E+01
         1   7 -2.433727E+01  1.237247E+01  6.088398E+02 -2.732254E-08 -1.616778E+02  9.045183E-08
         1   8 -1.684583E+01  9.111873E+00  4.313623E+02 -1.797800E+01 -1.515761E+02  6.919018E+01
         1   9 -1.406442E-08 -7.055688E-09 -3.155311E-07  2.880518E+00 -1.433553E+02  4.408271E-08
         1  10 -1.893231E+00 -6.148122E+00 -1.608708E+03  2.036834E+00 -1.515761E+02 -7.730233E+01
         1  11 -2.163766E+00 -8.181090E+00 -2.273858E+03  1.773513E-08 -1.597970E+02 -9.878514E-08
         1  12 -1.893231E+00 -6.148122E+00 -1.608708E+03 -2.036834E+00 -1.515761E+02  7.730233E+01
         1  13  2.615480E-08 -2.334676E-09  3.270361E-07 -2.880518E+00 -1.433553E+02  2.002338E-08
         1  14  1.893231E+00  6.148122E+00  1.608708E+03 -2.036834E+00 -1.515761E+02 -7.730233E+01
         1  15  2.163766E+00  8.181090E+00  2.273858E+03  1.579078E-08 -1.597970E+02  1.441690E-07
         1  16  1.893231E+00  6.148122E+00  1.608708E+03  2.036834E+00 -1.515761E+02  7.730233E+01
         2   1  5.406368E-09 -6.475464E-09 -6.803018E-07  3.389841E+00 -1.425357E+02  4.646894E-08
         2   2 -2.437989E+00  9.193048E+00 -2.470026E+03  2.396980E+00 -1.515761E+02 -6.509280E+01
         2   3 -3.611484E+00  1.283729E+01 -3.493527E+03 -2.318866E-08 -1.606166E+02  6.145396E-08
         2   4 -2.437989E+00  9.193048E+00 -2.470026E+03 -2.396980E+00 -1.515761E+02  6.509280E+01
         2   5 -4.716526E-08 -2.785484E-08  6.894384E-07 -3.389841E+00 -1.425357E+02  7.305943E-08
         2   6  2.437989E+00 -9.193048E+00  2.470026E+03 -2.396980E+00 -1.515761E+02 -6.509280E+01
         2   7  3.611484E+00 -1.283729E+01  3.493527E+03  7.565832E-09 -1.606166E+02  6.222535E-08
         2   8  2.437989E+00 -9.193048E+00  2.470026E+03  2.396980E+00 -1.515761E+02  6.509280E+01
         2   9 -9.134801E-09  1.058252E-08 -1.370966E-06  1.978960E+00 -1.419365E+02  7.938125E-08
         2  10 -1.298542E+00 -4.035671E+00 -3.647372E+03  1.399336E+00 -1.515761E+02 -7.476584E+01
         2  11 -2.000063E+00 -5.870947E+00 -5.158545E+03  2.136234E-08 -1.612158E+02  6.447987E-08
         2  12 -1.298542E+00 -4.035671E+00 -3.647372E+03 -1.399336E+00 -1.515761E+02  7.476584E+01
         2  13  4.346904E-08  2.330710E-08  1.413943E-06 -1.978960E+00 -1.419365E+02  5.982137E-08
         2  14  1.298542E+00  4.035671E+00  3.647372E+03 -1.399336E+00 -1.515761E+02 -7.476584E+01
         2  15  2.000063E+00  5.870947E+00  5.158545E+03  1.490978E-08 -1.612158E+02  6.430686E-08
         2  16  1.298542E+00  4.035671E+00  3.647372E+03  1.399336E+00 -1.515761E+02  7.476584E+01
         3   1 -6.178987E-11  5.282851E-09 -1.786765E-06 -3.351655E+00 -1.421642E+02  3.888920E-08
         3   2  2.129746E+00  2.521780E+00 -4.509435E+03 -2.369978E+00 -1.515761E+02 -6.821986E+01
         3   3  3.073224E+00  3.627643E+00 -6.377161E+03  3.670210E-09 -1.609880E+02  1.172185E-07
         3   4  2.129746E+00  2.521780E+00 -4.509435E+03  2.369978E+00 -1.515761E+02  6.821986E+01
         3   5 -9.699688E-09  3.319602E-09  1.855745E-06  3.351655E+00 -1.421642E+02  5.309670E-08
         3   6 -2.129746E+00 -2.521780E+00  4.509435E+03  2.369978E+00 -1.515761E+02 -6.821986E+01
         3   7 -3.073224E+00 -3.627643E+00  6.377161E+03  1.738688E-08 -1.609880E+02 -4.780021E-08
         3   8 -2.129746E+00 -2.521780E+00  4.509435E+03 -2.369978E+00 -1.515761E+02  6.821986E+01
         3   9 -1.588507E-08  1.311018E-08 -2.228998E-06  1.743177E+00 -1.423887E+02  5.069981E-08
         3  10 -4.857840E-01 -2.982361E+00 -5.686781E+03  1.232612E+00 -1.515761E+02 -7.381341E+01
         3  11 -6.256945E-01 -4.156388E+00 -8.042179E+03 -1.268508E-08 -1.607635E+02  1.083039E-07
         3  12 -4.857839E-01 -2.982361E+00 -5.686781E+03 -1.232612E+00 -1.515761E+02  7.381341E+01
         3  13  3.121463E-08  2.022615E-08  2.287098E-06 -1.743177E+00 -1.423887E+02  3.602334E-08
         3  14  4.857840E-01  2.982361E+00  5.686781E+03 -1.232612E+00 -1.515761E+02 -7.381341E+01
         3  15  6.256945E-01  4.156388E+00  8.042179E+03 -2.502539E-08 -1.607635E+02 -3.314872E-08
         3  16  4.857840E-01  2.982361E+00  5.686781E+03  1.232612E+00 -1.515761E+02  7.381341E+01
         4   1  1.226029E-08 -6.093034E-09 -2.609015E-06 -9.496671E-01 -1.422112E+02  4.781544E-08
         4   2  5.555934E-01  3.053267E+00 -6.548562E+03 -6.715160E-01 -1.515761E+02 -6.865614E+01
         4   3  7.307946E-01  4.263038E+00 -9.261193E+03 -1.260233E-08 -1.609410E+02 -3.336935E-08
         4   4  5.555934E-01  3.053267E+00 -6.548562E+03  6.715160E-01 -1.515761E+02  6.865614E+01
         4   5 -3.161495E-08 -1.790977E-08  2.647053E-06  9.496671E-01 -1.422112E+02  5.600439E-08
         4   6 -5.555934E-01 -3.053267E+00  6.548562E+03  6.715160E-01 -1.515761E+02 -6.865614E+01
         4   7 -7.307945E-01 -4.263038E+00  9.261193E+03  5.380175E-09 -1.609410E+02  1.316048E-07
         4   8 -5.555934E-01 -3.053267E+00  6.548562E+03 -6.715160E-01 -1.515761E+02  6.865614E+01
         4   9 -4.032771E-08 -8.183195E-10 -3.133247E-06  3.489926E-01 -1.420101E+02  5.180936E-08
         4  10 -2.430108E+00 -2.845389E+00 -7.725908E+03  2.467750E-01 -1.515761E+02 -7.326820E+01
         4  11 -3.491625E+00 -4.078921E+00 -1.092621E+04  1.496404E-08 -1.611422E+02 -4.913678E-08
         4  12 -2.430108E+00 -2.845389E+00 -7.725908E+03 -2.467750E-01 -1.515761E+02  7.326820E+01
         4  13  2.346306E-09  1.608920E-08  3.177469E-06 -3.489926E-01 -1.420101E+02  4.620124E-08
         4  14  2.430108E+00  2.845389E+00  7.725908E+03 -2.467750E-01 -1.515761E+02 -7.326820E+01
         4  15  3.491625E+00  4.078921E+00  1.092621E+04 -1.953534E-10 -1.611422E+02  1.367033E-07
         4  16  2.430108E+00  2.845389E+00  7.725908E+03  2.467750E-01 -1.515761E+02  7.326820E+01
         5   1  6.018131E-09 -6.898875E-10 -3.535143E-06 -1.105432E+00 -1.424994E+02  5.759325E-08
         5   2  6.617571E-01  1.926521E+00 -8.587938E+03 -7.816586E-01 -1.515761E+02 -6.962502E+01
         5   3  1.066813E+00  2.855459E+00 -1.214487E+04 -2.083304E-08 -1.606529E+02 -5.762495E-08
         5   4  6.617571E-01  1.926521E+00 -8.587938E+03  7.816586E-01 -1.515761E+02  6.962502E+01
         5   5 -5.292282E-08 -1.018985E-08  3.587252E-06  1.105432E+00 -1.424994E+02  5.609881E-08
         5   6 -6.617571E-01 -1.926521E+00  8.587938E+03  7.816586E-01 -1.515761E+02 -6.962502E+01
         5   7 -1.066813E+00 -2.855459E+00  1.214487E+04 -2.024838E-10 -1.606529E+02  1.590170E-07
         5   8 -6.617571E-01 -1.926521E+00  8.587938E+03 -7.816586E-01 -1.515761E+02  6.962502E+01
         5   9 -2.154857E-08 -3.920267E-09 -4.086367E-06  3.929045E+00 -1.429789E+02  5.127869E-08
         5  10  6.027335E+00  2.191467E-01 -9.765284E+03  2.778255E+00 -1.515761E+02 -7.150212E+01
         5  11  8.654885E+00  4.408674E-01 -1.380989E+04  1.437522E-08 -1.601734E+02 -7.838652E-08
         5  12  6.027335E+00  2.191467E-01 -9.765284E+03 -2.778255E+00 -1.515761E+02  7.150212E+01
         5  13  3.829989E-08  1.622001E-08  4.151013E-06 -3.929045E+00 -1.429789E+02  5.176407E-08
         5  14 -6.027335E+00 -2.191467E-01  9.765284E+03 -2.778255E+00 -1.515761E+02 -7.150212E+01
         5  15 -8.654885E+00 -4.408674E-01  1.380989E+04  3.963658E-09 -1.601734E+02  1.687044E-07
         5  16 -6.027335E+00 -2.191467E-01  9.765284E+03  2.778255E+00 -1.515761E+02  7.150212E+01
         6   1  1.007523E-08  1.360977E-08 -4.519523E-06 -9.053821E-01 -1.412611E+02  6.395032E-08
         6   2  5.783049E-01  1.910837E+00 -1.062674E+04 -6.402018E-01 -1.515761E+02 -6.989456E+01
         6   3  4.359271E-01  2.320412E+00 -1.502937E+04 -1.793481E-08 -1.618912E+02 -6.205334E-08
         6   4  5.783049E-01  1.910837E+00 -1.062674E+04  6.402018E-01 -1.515761E+02  6.989456E+01
         6   5 -2.563016E-08 -1.044172E-08  4.578209E-06  9.053821E-01 -1.412611E+02  6.594340E-08
         6   6 -5.783049E-01 -1.910837E+00  1.062674E+04  6.402018E-01 -1.515761E+02 -6.989456E+01
         6   7 -4.359271E-01 -2.320412E+00  1.502937E+04 -2.610082E-09 -1.618912E+02  1.807640E-07
         6   8 -5.783048E-01 -1.910837E+00  1.062674E+04 -6.402018E-01 -1.515761E+02  6.989456E+01
         6   9 -1.477128E-08 -6.149826E-09 -5.248048E-06 -1.072054E+01 -1.398627E+02  7.700639E-08
         6  10 -2.527736E+01 -9.280955E+00 -1.180408E+04 -7.580566E+00 -1.515761E+02 -7.440423E+01
         6  11 -3.612950E+01 -1.350717E+01 -1.669439E+04  4.210101E-09 -1.632896E+02 -6.816952E-08
         6  12 -2.527736E+01 -9.280955E+00 -1.180408E+04  7.580566E+00 -1.515761E+02  7.440422E+01
         6  13  1.962539E-08  2.232208E-08  5.311594E-06  1.072054E+01 -1.398627E+02  7.674747E-08
         6  14  2.527736E+01  9.280955E+00  1.180408E+04  7.580566E+00 -1.515761E+02 -7.440422E+01
         6  15  3.612950E+01  1.350717E+01  1.669439E+04  8.149941E-09 -1.632896E+02  1.988925E-07
         6  16  2.527736E+01  9.280955E+00  1.180408E+04 -7.580566E+00 -1.515761E+02  7.440423E+01
         7   1 -1.328560E-08 -4.077134E-09 -5.826443E-06 -3.378590E-01 -1.459850E+02  7.312055E-08
         7   2  1.776421E-01  7.910081E-01 -1.266716E+04 -2.389024E-01 -1.515761E+02 -7.141377E+01
         7   3  1.321629E+00  2.189059E+00 -1.791157E+04 -1.006213E-08 -1.571673E+02 -4.070512E-08
         7   4  1.776421E-01  7.910081E-01 -1.266716E+04  2.389024E-01 -1.515761E+02  7.141377E+01
         7   5 -1.528054E-08  3.812769E-09  5.878064E-06  3.378590E-01 -1.459850E+02  7.211727E-08
         7   6 -1.776421E-01 -7.910081E-01  1.266716E+04  2.389024E-01 -1.515761E+02 -7.141377E+01
         7   7 -1.321629E+00 -2.189059E+00  1.791157E+04  1.680630E-09 -1.571673E+02  1.724279E-07
         7   8 -1.776421E-01 -7.910081E-01  1.266716E+04 -2.389024E-01 -1.515761E+02  7.141377E+01
         7   9 -3.121936E-10  4.342501E-08 -6.589819E-06  4.401210E+01 -1.499044E+02  7.200144E-08
         7  10  9.324164E+01  2.843992E+01 -1.384450E+04  3.112125E+01 -1.515761E+02 -6.446566E+01
         7  11  1.329340E+02  4.129053E+01 -1.957659E+04  2.186939E-08 -1.532479E+02 -5.419726E-08
         7  12  9.324164E+01  2.843992E+01 -1.384450E+04 -3.112125E+01 -1.515761E+02  6.446566E+01
         7  13 -9.777760E-09 -4.906294E-08  6.646477E-06 -4.401210E+01 -1.499044E+02  7.081069E-08
         7  14 -9.324164E+01 -2.843992E+01  1.384450E+04 -3.112125E+01 -1.515761E+02 -6.446566E+01
         7  15 -1.329340E+02 -4.129053E+01  1.957659E+04 -1.292991E-08 -1.532479E+02  1.932377E-07
         7  16 -9.324164E+01 -2.843992E+01  1.384450E+04  3.112125E+01 -1.515761E+02  6.446566E+01
         8   1 -3.462998E-09 -1.316820E-09 -7.147203E-06 -1.785281E+00 -1.281390E+02  7.562178E-08
         8   2  8.478365E-01  2.621688E+00 -1.470331E+04 -1.262384E+00 -1.515761E+02 -6.779537E+01
         8   3 -1.458124E+00  1.050480E+00 -2.079982E+04 -3.022490E-09 -1.750133E+02 -6.653639E-08
         8   4  8.478366E-01  2.621688E+00 -1.470331E+04  1.262384E+00 -1.515761E+02  6.779537E+01
         8   5 -9.237029E-09 -2.504584E-09  7.206762E-06  1.785281E+00 -1.281390E+02  7.708443E-08
         8   6 -8.478365E-01 -2.621688E+00  1.470331E+04  1.262384E+00 -1.515761E+02 -6.779537E+01
         8   7  1.458124E+00 -1.050480E+00  2.079982E+04  1.119281E-09 -1.750133E+02  1.827100E-07
         8   8 -8.478365E-01 -2.621688E+00  1.470331E+04 -1.262384E+00 -1.515761E+02  6.779537E+01
         8   9 -6.157829E-08 -1.824246E-07 -7.883767E-06 -1.633906E+02 -1.184097E+02  8.134375E-08
         8  10 -3.530084E+02 -1.150549E+02 -1.588065E+04 -1.155346E+02 -1.515761E+02 -8.709627E+01
         8  11 -5.018864E+02 -1.653694E+02 -2.246483E+04 -6.051969E-08 -1.847426E+02 -7.527306E-08
         8  12 -3.530084E+02 -1.150549E+02 -1.588065E+04  1.155346E+02 -1.515761E+02  8.709627E+01
         8  13  6.087827E-08  1.872903E-07  7.951544E-06  1.633906E+02 -1.184097E+02  8.036205E-08
         8  14  3.530084E+02  1.150549E+02  1.588065E+04  1.155346E+02 -1.515761E+02 -8.709627E+01
         8  15  5.018864E+02  1.653694E+02  2.246483E+04  6.238917E-08 -1.847426E+02  1.851391E-07
         8  16  3.530084E+02  1.150549E+02  1.588065E+04 -1.155346E+02 -1.515761E+02  8.709627E+01
         9   1  6.075891E-09  6.021340E-09 -8.423579E-06  2.776590E+00 -1.954818E+02  5.024720E-08
         9   2  4.697956E-01  2.404129E-02 -1.674871E+04  1.963346E+00 -1.515761E+02 -8.396342E+01
         9   3  5.497001E+00  4.866609E+00 -2.367497E+04 -2.937197E-09 -1.076704E+02 -5.960763E-08
         9   4  4.697956E-01  2.404128E-02 -1.674871E+04 -1.963346E+00 -1.515761E+02  8.396342E+01
         9   5  8.689006E-10  3.374665E-09  8.491934E-06 -2.776590E+00 -1.954818E+02  5.126782E-08
         9   6 -4.697956E-01 -2.404129E-02  1.674871E+04 -1.963346E+00 -1.515761E+02 -8.396342E+01
         9   7 -5.497001E+00 -4.866609E+00  2.367497E+04 -1.779365E-09 -1.076704E+02  2.225381E-07
         9   8 -4.697956E-01 -2.404129E-02  1.674871E+04  1.963346E+00 -1.515761E+02  8.396342E+01
         9   9  2.234102E-07  6.960002E-07 -9.147589E-06  6.213646E+02 -2.131768E+02  4.420928E-08
         9  10  1.325460E+03  4.332651E+02 -1.792605E+04  4.393711E+02 -1.515761E+02 -4.801528E+01
         9  11  1.879315E+03  6.175620E+02 -2.533999E+04  2.313582E-07 -8.997550E+01 -6.166800E-08
         9  12  1.325460E+03  4.332651E+02 -1.792605E+04 -4.393711E+02 -1.515761E+02  4.801528E+01
         9  13 -2.242300E-07 -6.918974E-07  9.213042E-06 -6.213646E+02 -2.131768E+02  4.232198E-08
         9  14 -1.325460E+03 -4.332651E+02  1.792605E+04 -4.393711E+02 -1.515761E+02 -4.801528E+01
         9  15 -1.879315E+03 -6.175620E+02  2.533999E+04 -2.300883E-07 -8.997550E+01  2.362170E-07
         9  16 -1.325460E+03 -4.332651E+02  1.792605E+04  4.393711E+02 -1.515761E+02  4.801528E+01
        10   1 -2.334174E-09 -1.210671E-09 -9.671987E-06 -1.036942E+01  5.852231E+01  1.430577E-07
        10   2 -6.598234E+00 -7.431216E+00 -1.878499E+04 -7.332287E+00 -1.515761E+02 -2.283318E+01
        10   3 -8.063471E+00 -9.241485E+00 -2.656303E+04 -4.549827E-09 -3.616746E+02 -1.605585E-07
        10   4 -6.598234E+00 -7.431216E+00 -1.878499E+04  7.332287E+00 -1.515761E+02  2.283318E+01
        10   5  1.157715E-09  2.743844E-09  9.736304E-06  1.036942E+01  5.852231E+01  1.438562E-07
        10   6  6.598234E+00  7.431216E+00  1.878499E+04  7.332287E+00 -1.515761E+02 -2.283318E+01
        10   7  8.063471E+00  9.241485E+00  2.656303E+04  4.230346E-09 -3.616746E+02  1.343742E-07
        10   8  6.598234E+00  7.431216E+00  1.878499E+04 -7.332287E+00 -1.515761E+02  2.283318E+01
        10   9 -8.709662E-07 -2.607190E-06 -1.038793E-05 -2.347839E+03  5.388002E+01  1.414236E-07
        10  10 -4.978552E+03 -1.662359E+03 -1.996234E+04 -1.660173E+03 -1.515761E+02 -1.205097E+01
        10  11 -7.039468E+03 -2.349662E+03 -2.822805E+04 -8.696300E-07 -3.570323E+02 -1.599696E-07
        10  12 -4.978552E+03 -1.662359E+03 -1.996234E+04  1.660173E+03 -1.515761E+02  1.205097E+01
        10  13  8.698305E-07  2.607690E-06  1.045204E-05  2.347839E+03  5.388002E+01  1.400509E-07
        10  14  4.978552E+03  1.662359E+03  1.996234E+04  1.660173E+03 -1.515761E+02 -1.205097E+01
        10  15  7.039468E+03  2.349662E+03  2.822805E+04  8.697902E-07 -3.570323E+02  1.395632E-07
        10  16  4.978552E+03  1.662359E+03  1.996234E+04 -1.660173E+03 -1.515761E+02  1.205097E+01
