
                        S T E P       1


                                INCREMENT     1


 stresses (elem, integ.pnt.,sxx,syy,szz,sxy,sxz,syz) for set EALL and time  0.1000000E+01

         1   1 -4.754827E-10 -1.616093E-10  7.070582E-10  1.297384E+02 -1.436048E+03 -2.342332E-10
         1   2  2.594769E+02 -2.594769E+02  2.376658E-09  2.935686E-10 -1.023784E+03 -1.023784E+03
         1   3  4.805153E-10  1.029529E-09  1.959968E-09 -1.297384E+02  3.958690E-10 -1.436048E+03
         1   4 -2.594769E+02  2.594769E+02 -1.511293E-11  1.868164E-10  1.023784E+03 -1.023784E+03
         1   5 -6.037334E-10 -3.972463E-10 -1.222278E-09  1.297384E+02  1.436048E+03 -2.208092E-10
         1   6  2.594769E+02 -2.594769E+02 -1.283765E-09  1.601283E-10  1.023784E+03  1.023784E+03
         1   7  3.505116E-10  2.135523E-10 -1.358145E-09 -1.297384E+02  3.824473E-10  1.436048E+03
         1   8 -2.594769E+02  2.594769E+02 -9.935823E-10  1.868164E-10 -1.023784E+03  1.023784E+03
         1   9  3.131683E-10  6.163774E-11  3.172165E-09  1.073429E-01 -1.436048E+03 -1.632170E-10
         1  10  2.146858E-01 -2.146858E-01  6.864283E-09 -2.668805E-10 -1.023784E+03 -1.023784E+03
         1  11 -2.087946E-11 -3.467289E-10  6.955816E-09 -1.073429E-01  5.756920E-10 -1.436048E+03
         1  12 -2.146858E-01  2.146858E-01  3.019756E-09 -4.003208E-10  1.023784E+03 -1.023784E+03
         1  13  1.866591E-11 -2.661325E-10 -3.032455E-09  1.073429E-01  1.436048E+03 -2.704085E-10
         1  14  2.146858E-01 -2.146858E-01 -7.416501E-09 -4.003208E-10  1.023784E+03  1.023784E+03
         1  15  3.892890E-11 -1.588863E-10 -6.997189E-09 -1.073429E-01  6.462576E-10  1.436048E+03
         1  16 -2.146858E-01  2.146858E-01 -2.450321E-09 -2.401925E-10 -1.023784E+03  1.023784E+03
         2   1  7.795950E-11  1.373921E-10  7.190824E-09 -3.466365E+01 -1.443525E+03 -9.016295E-10
         2   2 -6.932730E+01  6.932730E+01  1.364210E-08  2.401925E-10 -1.018497E+03 -1.018497E+03
         2   3 -7.881341E-11 -1.216027E-10  1.177066E-08  3.466365E+01  6.883288E-10 -1.443525E+03
         2   4  6.932730E+01 -6.932730E+01  3.176878E-09  2.935686E-10  1.018497E+03 -1.018497E+03
         2   5  3.246470E-10  9.587406E-13 -6.925836E-09 -3.466365E+01  1.443525E+03 -7.350808E-10
         2   6 -6.932730E+01  6.932730E+01 -1.304497E-08  2.668805E-10  1.018497E+03  1.018497E+03
         2   7 -2.954074E-10 -3.860359E-10 -1.193218E-08  3.466365E+01  6.571689E-10  1.443525E+03
         2   8  6.932730E+01 -6.932730E+01 -3.779705E-09  2.135044E-10 -1.018497E+03  1.018497E+03
         2   9  1.328949E-10  1.350512E-10  1.641479E-08 -2.867999E-02 -1.443525E+03 -8.885842E-10
         2  10 -5.735998E-02  5.735998E-02  2.519266E-08 -1.601283E-10 -1.018497E+03 -1.018497E+03
         2  11 -2.521607E-12 -1.070973E-10  1.926739E-08  2.867999E-02  7.108410E-10 -1.443525E+03
         2  12  5.735998E-02 -5.735998E-02  2.053630E-09 -1.200962E-10  1.018497E+03 -1.018497E+03
         2  13 -7.079276E-11  2.228941E-11 -1.634128E-08 -2.867999E-02  1.443525E+03 -1.031060E-09
         2  14 -5.735998E-02  5.735998E-02 -2.508749E-08 -1.601283E-10  1.018497E+03  1.018497E+03
         2  15  1.114816E-10  2.884509E-10 -1.917228E-08  2.867999E-02  7.142597E-10  1.443525E+03
         2  16  5.735998E-02 -5.735998E-02 -2.006979E-09 -2.001604E-10 -1.018497E+03  1.018497E+03
         3   1 -6.637178E-11 -1.517606E-10  2.592931E-08  9.261470E+00 -1.441527E+03 -1.607040E-09
         3   2  1.852294E+01 -1.852294E+01  3.402022E-08  1.868164E-10 -1.019909E+03 -1.019909E+03
         3   3 -7.919264E-11 -2.039159E-10  2.237570E-08 -9.261470E+00  1.375913E-10 -1.441527E+03
         3   4 -1.852294E+01  1.852294E+01 -2.217776E-09  2.535365E-10  1.019909E+03 -1.019909E+03
         3   5 -1.402597E-10 -1.259516E-10 -2.583683E-08  9.261470E+00  1.441527E+03 -1.517893E-09
         3   6  1.852294E+01 -1.852294E+01 -3.404133E-08  2.535365E-10  1.019909E+03  1.019909E+03
         3   7  2.584193E-11  7.407708E-11 -2.219240E-08 -9.261470E+00  1.429258E-10  1.441527E+03
         3   8 -1.852294E+01  1.852294E+01  2.580910E-09  1.467843E-10 -1.019909E+03  1.019909E+03
         3   9  1.839778E-10 -1.985952E-11  4.318206E-08  7.662771E-03 -1.441527E+03 -1.761018E-09
         3  10  1.532554E-02 -1.532554E-02  4.715838E-08 -8.006416E-11 -1.019909E+03 -1.019909E+03
         3  11  9.069983E-11 -5.843682E-11  2.334586E-08 -7.662771E-03  3.674774E-11 -1.441527E+03
         3  12 -1.532554E-02  1.532554E-02 -1.394217E-08 -1.601283E-10  1.019909E+03 -1.019909E+03
         3  13  9.108644E-11  2.573008E-10 -4.294212E-08  7.662771E-03  1.441527E+03 -1.815140E-09
         3  14  1.532554E-02 -1.532554E-02 -4.670441E-08 -1.067522E-10  1.019909E+03  1.019909E+03
         3  15  3.442887E-12  7.800310E-11 -2.322509E-08 -7.662771E-03  6.369081E-12  1.441527E+03
         3  16 -1.532554E-02  1.532554E-02  1.381237E-08 -1.334403E-10 -1.019909E+03  1.019909E+03
         4   1  8.623012E-11  1.449030E-10  5.911048E-08 -2.474489E+00 -1.442061E+03 -2.423673E-09
         4   2 -4.948979E+00  4.948979E+00  5.604819E-08 -1.067522E-10 -1.019532E+03 -1.019532E+03
         4   3 -1.223534E-10 -3.945924E-11  2.033265E-08  2.474489E+00 -8.559352E-10 -1.442061E+03
         4   4  4.948979E+00 -4.948979E+00 -2.718756E-08  1.334403E-11  1.019532E+03 -1.019532E+03
         4   5 -1.279546E-10 -1.486865E-10 -5.880562E-08 -2.474489E+00  1.442061E+03 -2.401869E-09
         4   6 -4.948979E+00  4.948979E+00 -5.588246E-08  1.334403E-11  1.019532E+03  1.019532E+03
         4   7 -5.351768E-11 -1.692874E-10 -2.013190E-08  2.474489E+00 -7.860261E-10  1.442061E+03
         4   8  4.948979E+00 -4.948979E+00  2.750538E-08 -1.601283E-10 -1.019532E+03  1.019532E+03
         4   9  1.658878E-11  2.151459E-10  8.349021E-08 -2.047428E-03 -1.442061E+03 -2.217998E-09
         4  10 -4.094857E-03  4.094857E-03  6.781724E-08  4.003208E-11 -1.019532E+03 -1.019532E+03
         4  11  5.275487E-11 -7.133573E-11  1.247699E-08  2.047429E-03 -6.185270E-10 -1.442061E+03
         4  12  4.094857E-03 -4.094857E-03 -5.006247E-08  1.200962E-10  1.019532E+03 -1.019532E+03
         4  13  1.731232E-10 -1.708761E-11 -8.319327E-08 -2.047428E-03  1.442061E+03 -2.242891E-09
         4  14 -4.094857E-03  4.094857E-03 -6.752988E-08  8.006416E-11  1.019532E+03  1.019532E+03
         4  15  6.725330E-11  1.697765E-10 -1.223322E-08  2.047429E-03 -7.100623E-10  1.442061E+03
         4  16  4.094857E-03 -4.094857E-03  5.021354E-08  1.467843E-10 -1.019532E+03  1.019532E+03
         5   1 -7.967392E-11 -2.124801E-11  9.839463E-08  6.611366E-01 -1.441918E+03 -1.804591E-09
         5   2  1.322273E+00 -1.322273E+00  7.433814E-08  8.006416E-11 -1.019633E+03 -1.019633E+03
         5   3  1.242859E-10 -5.659742E-11  7.062833E-09 -6.611366E-01 -8.609155E-10 -1.441918E+03
         5   4 -1.322273E+00  1.322273E+00 -6.432779E-08  1.334403E-11  1.019633E+03 -1.019633E+03
         5   5  7.637781E-11 -9.404960E-12 -9.820829E-08  6.611366E-01  1.441918E+03 -1.779320E-09
         5   6  1.322273E+00 -1.322273E+00 -7.442331E-08  1.467843E-10  1.019633E+03  1.019633E+03
         5   7 -1.006393E-10  1.388716E-10 -6.834989E-09 -6.611366E-01 -7.568883E-10  1.441918E+03
         5   8 -1.322273E+00  1.322273E+00  6.492164E-08  2.401925E-10 -1.019633E+03  1.019633E+03
         5   9 -1.945957E-11 -4.058622E-11  1.165400E-07  5.473381E-04 -1.441918E+03 -1.688458E-09
         5  10  1.094676E-03 -1.094676E-03  8.160978E-08 -1.734723E-10 -1.019633E+03 -1.019633E+03
         5  11 -2.992797E-11 -6.159988E-11 -1.281379E-09 -5.473384E-04 -7.383684E-10 -1.441918E+03
         5  12 -1.094676E-03  1.094676E-03 -8.332467E-08 -1.734723E-10  1.019633E+03 -1.019633E+03
         5  13  8.650772E-11 -3.137038E-11 -1.162484E-07  5.473381E-04  1.441918E+03 -1.722423E-09
         5  14  1.094677E-03 -1.094676E-03 -8.104187E-08 -4.003208E-11  1.019633E+03  1.019633E+03
         5  15  3.006270E-11 -1.187399E-10  1.519992E-09 -5.473382E-04 -8.428519E-10  1.441918E+03
         5  16 -1.094677E-03  1.094676E-03  8.325339E-08 -6.672013E-11 -1.019633E+03  1.019633E+03
         6   1 -2.743298E-11  1.180689E-10  1.280445E-07 -1.766432E-01 -1.441956E+03 -1.341134E-09
         6   2 -3.532864E-01  3.532864E-01  8.557511E-08  6.672013E-11 -1.019606E+03 -1.019606E+03
         6   3 -4.434925E-11 -1.710016E-11 -6.838328E-09  1.766432E-01 -7.365786E-10 -1.441956E+03
         6   4  3.532864E-01 -3.532864E-01 -9.508567E-08  6.672013E-11  1.019606E+03 -1.019606E+03
         6   5  2.163561E-10  7.520189E-12 -1.276878E-07 -1.766432E-01  1.441956E+03 -1.279151E-09
         6   6 -3.532864E-01  3.532864E-01 -8.542717E-08  1.601283E-10  1.019606E+03  1.019606E+03
         6   7  4.716211E-11 -9.199614E-11  7.072449E-09  1.766432E-01 -6.280608E-10  1.441956E+03
         6   8  3.532864E-01 -3.532864E-01  9.557257E-08  6.672013E-11 -1.019606E+03  1.019606E+03
         6   9  1.084753E-10  3.613904E-10  1.411795E-07 -1.473765E-04 -1.441956E+03 -1.237522E-09
         6  10 -2.947530E-04  2.947531E-04  8.998477E-08 -2.001604E-11 -1.019606E+03 -1.019606E+03
         6  11 -2.480800E-10 -1.953539E-10 -1.396004E-08  1.473765E-04 -6.762998E-10 -1.441956E+03
         6  12  2.947527E-04 -2.947533E-04 -1.095759E-07 -1.334403E-11  1.019606E+03 -1.019606E+03
         6  13 -1.633066E-10 -4.224442E-10 -1.408134E-07 -1.473766E-04  1.441956E+03 -1.307050E-09
         6  14 -2.947530E-04  2.947529E-04 -8.943664E-08 -6.004812E-11  1.019606E+03  1.019606E+03
         6  15 -3.947233E-11 -5.280864E-11  1.420379E-08  1.473764E-04 -7.510644E-10  1.441956E+03
         6  16  2.947531E-04 -2.947528E-04  1.097130E-07 -1.267683E-10 -1.019606E+03  1.019606E+03
         7   1 -7.096396E-11 -4.565049E-11  1.502424E-07  4.719571E-02 -1.441946E+03 -1.169525E-09
         7   2  9.439143E-02 -9.439143E-02  9.209580E-08 -6.672013E-12 -1.019613E+03 -1.019613E+03
         7   3  2.530409E-11  3.689477E-11 -1.984404E-08 -4.719571E-02 -8.517565E-10 -1.441946E+03
         7   4 -9.439143E-02  9.439143E-02 -1.199891E-07  5.337611E-11  1.019613E+03 -1.019613E+03
         7   5  2.376326E-10  1.040625E-10 -1.498478E-07  4.719571E-02  1.441946E+03 -1.111110E-09
         7   6  9.439143E-02 -9.439143E-02 -9.193861E-08  6.672013E-11  1.019613E+03  1.019613E+03
         7   7 -2.428100E-11 -1.506794E-10  2.013471E-08 -4.719571E-02 -8.039708E-10  1.441946E+03
         7   8 -9.439143E-02  9.439143E-02  1.205783E-07 -3.336007E-11 -1.019613E+03  1.019613E+03
         7   9 -3.647075E-10 -9.799404E-10  1.627034E-07  4.363600E-05 -1.441946E+03 -1.133338E-09
         7  10  8.727173E-05 -8.727248E-05  9.500308E-08 -1.534563E-10 -1.019613E+03 -1.019613E+03
         7  11  1.739647E-10 -4.637105E-11 -2.835808E-08 -4.363626E-05 -7.599302E-10 -1.441946E+03
         7  12 -8.727135E-05  8.727258E-05 -1.349007E-07 -4.136648E-10  1.019613E+03 -1.019613E+03
         7  13  2.671715E-10  1.025362E-09 -1.623017E-07  4.363569E-05  1.441946E+03 -1.190824E-09
         7  14  8.727166E-05 -8.727107E-05 -9.454237E-08  9.340819E-11  1.019613E+03  1.019613E+03
         7  15 -3.666682E-10 -3.288205E-11  2.869127E-08 -4.363555E-05 -7.821498E-10  1.441946E+03
         7  16 -8.727228E-05  8.727104E-05  1.352227E-07  3.135846E-10 -1.019613E+03  1.019613E+03
         8   1  4.889317E-11 -6.701306E-12  1.706578E-07 -1.260981E-02 -1.441949E+03 -1.011972E-09
         8   2 -2.521963E-02  2.521963E-02  9.627402E-08 -2.668805E-11 -1.019611E+03 -1.019611E+03
         8   3  1.407857E-11  9.121214E-11 -3.433398E-08  1.260981E-02 -8.377599E-10 -1.441949E+03
         8   4  2.521963E-02 -2.521963E-02 -1.446423E-07  1.334403E-11  1.019611E+03 -1.019611E+03
         8   5  7.584893E-11 -1.461927E-11 -1.702687E-07 -1.260981E-02  1.441949E+03 -9.610679E-10
         8   6 -2.521963E-02  2.521963E-02 -9.599846E-08  2.668805E-11  1.019611E+03  1.019611E+03
         8   7  5.166132E-11 -1.689961E-10  3.468873E-08  1.260981E-02 -8.408823E-10  1.441949E+03
         8   8  2.521963E-02 -2.521963E-02  1.451144E-07 -7.339215E-11 -1.019611E+03  1.019611E+03
         8   9  1.145787E-09  3.746119E-09  1.799347E-07 -2.760213E-05 -1.441949E+03 -1.101175E-09
         8  10 -5.520374E-05  5.520569E-05  9.711407E-08  5.404331E-10 -1.019611E+03 -1.019611E+03
         8  11 -1.551511E-09 -6.152723E-10 -4.250351E-08  2.760303E-05 -8.899283E-10 -1.441949E+03
         8  12  5.520144E-05 -5.520651E-05 -1.571019E-07  1.207634E-09  1.019611E+03 -1.019611E+03
         8  13 -1.230565E-09 -3.706844E-09 -1.795600E-07 -2.760117E-05  1.441949E+03 -1.123735E-09
         8  14 -5.520321E-05  5.520141E-05 -9.664447E-08 -4.937290E-10  1.019611E+03  1.019611E+03
         8  15  1.494323E-09  6.499942E-10  4.288531E-08  2.760054E-05 -8.654368E-10  1.441949E+03
         8  16  5.520527E-05 -5.520043E-05  1.573867E-07 -1.147586E-09 -1.019611E+03  1.019611E+03
         9   1 -3.777544E-11 -2.995992E-11  1.870344E-07  3.369153E-03 -1.441948E+03 -5.621484E-10
         9   2  6.738305E-03 -6.738305E-03  9.721993E-08 -3.669607E-11 -1.019612E+03 -1.019612E+03
         9   3  4.243436E-11  4.954405E-11 -4.952119E-08 -3.369153E-03 -8.679140E-10 -1.441948E+03
         9   4 -6.738305E-03  6.738305E-03 -1.671639E-07  2.335205E-11  1.019612E+03 -1.019612E+03
         9   5 -4.932666E-11 -5.059757E-11 -1.867112E-07  3.369153E-03  1.441948E+03 -5.416450E-10
         9   6  6.738305E-03 -6.738305E-03 -9.685280E-08  8.673617E-11  1.019612E+03  1.019612E+03
         9   7 -7.249929E-11 -7.348430E-11  4.987859E-08 -3.369153E-03 -9.012109E-10  1.441948E+03
         9   8 -6.738305E-03  6.738305E-03  1.675664E-07 -2.001604E-11 -1.019612E+03  1.019612E+03
         9   9 -4.605451E-09 -1.398751E-08  1.968759E-07  6.704789E-05 -1.441948E+03 -3.851474E-10
         9  10  1.340928E-04 -1.341008E-04  9.635659E-08 -1.994932E-09 -1.019612E+03 -1.019612E+03
         9  11  5.568981E-09  1.806241E-09 -6.057550E-08 -6.705067E-05 -9.089972E-10 -1.441948E+03
         9  12 -1.340850E-04  1.341032E-04 -1.819636E-07 -4.587009E-09  1.019612E+03 -1.019612E+03
         9  13  4.588139E-09  1.396628E-08 -1.965271E-07  6.704416E-05  1.441948E+03 -3.998744E-10
         9  14  1.340915E-04 -1.340834E-04 -9.591956E-08  2.018284E-09  1.019612E+03  1.019612E+03
         9  15 -5.587748E-09 -1.854923E-09  6.091580E-08 -6.704142E-05 -8.783282E-10  1.441948E+03
         9  16 -1.340992E-04  1.340810E-04  1.822837E-07  4.570329E-09 -1.019612E+03  1.019612E+03
        10   1  8.102933E-11  1.279381E-10  2.037451E-07 -9.003585E-04 -1.441948E+03 -2.376485E-09
        10   2 -1.800717E-03  1.800717E-03  9.508116E-08  1.501203E-11 -1.019611E+03 -1.019611E+03
        10   3 -3.133028E-11 -7.457778E-12 -6.897995E-08  9.003586E-04 -1.722583E-09 -1.441948E+03
        10   4  1.800717E-03 -1.800717E-03 -1.926262E-07  6.505213E-11  1.019611E+03 -1.019611E+03
        10   5 -9.619238E-11 -1.127616E-10 -2.033691E-07 -9.003584E-04  1.441948E+03 -2.358738E-09
        10   6 -1.800717E-03  1.800717E-03 -9.478247E-08  8.340017E-12  1.019611E+03  1.019611E+03
        10   7 -8.537742E-12  3.244348E-12  6.934278E-08  9.003584E-04 -1.746157E-09  1.441948E+03
        10   8  1.800717E-03 -1.800717E-03  1.930672E-07 -4.003208E-11 -1.019611E+03  1.019611E+03
        10   9  1.761474E-08  5.266159E-08  2.126192E-07 -2.412573E-04 -1.441948E+03 -2.355903E-09
        10  10 -4.825029E-04  4.825329E-04  9.314829E-08  7.493088E-09 -1.019611E+03 -1.019611E+03
        10  11 -2.078526E-08 -6.953753E-09 -8.075103E-08  2.412679E-04 -1.644070E-09 -1.441948E+03
        10  12  4.824734E-04 -4.825428E-04 -2.073468E-07  1.733306E-08  1.019611E+03 -1.019611E+03
        10  13 -1.755607E-08 -5.266194E-08 -2.122146E-07 -2.412434E-04  1.441948E+03 -2.381094E-09
        10  14 -4.824983E-04  4.824684E-04 -9.264155E-08 -7.493505E-09  1.019611E+03  1.019611E+03
        10  15  2.084257E-08  6.942632E-09  8.115197E-08  2.412327E-04 -1.630182E-09  1.441948E+03
        10  16  4.825277E-04 -4.824586E-04  2.075761E-07 -1.728635E-08 -1.019611E+03  1.019611E+03
