
                        S T E P       1


                                INCREMENT     1


 displacements (vx,vy,vz) for set NALL and time  0.1000000E+01

         1  7.515803E-05 -8.649106E-06  4.966619E-05
         2  8.413264E-05 -1.903918E-14  8.024658E-05
         3  1.614611E-05  7.182971E-14  4.575162E-05
         4  6.098796E-06  7.259360E-06  4.543955E-05
         5  1.469071E-05 -1.034657E-05  5.821284E-06
         6  1.451128E-05 -8.881423E-14  1.301494E-05
         7 -4.443245E-06  2.708277E-15  1.297235E-05
         8 -5.302206E-06 -3.908841E-07  1.104042E-05
         9  9.243003E-05 -2.558830E-06  9.164006E-05
        10 -1.347152E-05  9.694204E-14  5.918170E-05
        11  1.187470E-05  3.418631E-06  4.018527E-05
        12 -1.592206E-05  1.412361E-05  4.646213E-05
        13  4.227373E-05 -1.762681E-05  6.097244E-06
        14  4.833744E-05 -1.111137E-13  1.998161E-05
        15  4.806605E-06  2.919909E-14  3.216040E-05
        16  2.047971E-07  2.064796E-06  2.970390E-05
        17  1.215517E-05 -4.820159E-06  7.393947E-06
        18  1.090604E-05 -2.635794E-14  1.193590E-05
        19 -4.658564E-06  1.377309E-08  1.341214E-05
        20  1.023598E-05 -3.182408E-06  6.683025E-06
        21  7.515803E-05  8.649106E-06  4.966619E-05
        22  6.098796E-06 -7.259360E-06  4.543955E-05
        23  1.469071E-05  1.034657E-05  5.821285E-06
        24 -5.302205E-06  3.908841E-07  1.104042E-05
        25  9.243003E-05  2.558830E-06  9.164006E-05
        26 -1.592206E-05 -1.412361E-05  4.646213E-05
        27  1.187470E-05 -3.418631E-06  4.018527E-05
        28  4.227373E-05  1.762680E-05  6.097245E-06
        29  2.047972E-07 -2.064796E-06  2.970390E-05
        30  1.215517E-05  4.820159E-06  7.393947E-06
        31  1.023598E-05  3.182408E-06  6.683025E-06
        32 -4.658564E-06 -1.377310E-08  1.341214E-05
        33  0.000000E+00  0.000000E+00  0.000000E+00
        34  0.000000E+00  0.000000E+00  0.000000E+00
        35  0.000000E+00  0.000000E+00  0.000000E+00
        36  0.000000E+00  0.000000E+00  0.000000E+00
        37  7.245193E-06 -5.336056E-06  4.494541E-06
        38  6.437281E-06 -4.636317E-14  7.468136E-06
        39 -1.599853E-06 -2.729172E-15  3.276502E-06
        40 -1.488148E-06 -6.518963E-07  1.756949E-06
        41  0.000000E+00  0.000000E+00  0.000000E+00
        42  0.000000E+00  0.000000E+00  0.000000E+00
        43  0.000000E+00  0.000000E+00  0.000000E+00
        44  0.000000E+00  0.000000E+00  0.000000E+00
        45  0.000000E+00  0.000000E+00  0.000000E+00
        46  0.000000E+00  0.000000E+00  0.000000E+00
        47  7.245193E-06  5.336056E-06  4.494541E-06
        48 -1.488148E-06  6.518963E-07  1.756949E-06
        49  0.000000E+00  0.000000E+00  0.000000E+00
        50  0.000000E+00  0.000000E+00  0.000000E+00
        51  0.000000E+00  0.000000E+00  0.000000E+00
        52 -1.356601E-05  2.441396E-14  3.655514E-05
        53 -1.337290E-05  6.238681E-07  3.629436E-05
        54 -1.801727E-05  2.057721E-14  1.764602E-05
        55 -1.773342E-05  1.946090E-06  1.664902E-05
        56 -1.374622E-05  3.305153E-14  3.959894E-05
        57 -1.689575E-05  8.649578E-07  3.789774E-05
        58 -1.461950E-05  2.315016E-06  3.994416E-05
        59 -1.709653E-05  2.415427E-14  2.812725E-05
        60 -1.760006E-05  2.142635E-06  2.810507E-05
        61 -7.091567E-06  1.552123E-14  1.423229E-05
        62 -1.753375E-05  7.215864E-07  1.708636E-05
        63 -7.696054E-06  1.779086E-06  1.345216E-05
        64 -1.337290E-05 -6.238681E-07  3.629436E-05
        65 -1.773342E-05 -1.946090E-06  1.664902E-05
        66 -1.461950E-05 -2.315016E-06  3.994416E-05
        67 -1.689575E-05 -8.649578E-07  3.789774E-05
        68 -1.760006E-05 -2.142635E-06  2.810507E-05
        69 -7.696054E-06 -1.779086E-06  1.345216E-05
        70 -1.753375E-05 -7.215864E-07  1.708636E-05
        71  0.000000E+00  0.000000E+00  0.000000E+00
        72  0.000000E+00  0.000000E+00  0.000000E+00
        73 -9.400717E-06  2.211538E-14  7.095522E-06
        74 -9.716660E-06  2.909208E-06  6.144207E-06
        75  0.000000E+00  0.000000E+00  0.000000E+00
        76  0.000000E+00  0.000000E+00  0.000000E+00
        77  0.000000E+00  0.000000E+00  0.000000E+00
        78  0.000000E+00  0.000000E+00  0.000000E+00
        79 -9.716660E-06 -2.909208E-06  6.144207E-06
        80  0.000000E+00  0.000000E+00  0.000000E+00
        81  0.000000E+00  0.000000E+00  0.000000E+00
        82 -1.151919E-03  2.646693E-14  3.175763E-02
        83 -8.790869E-04 -2.809878E-05  2.907841E-02
        84 -1.329479E-04 -1.309672E-14  9.726188E-03
        85 -1.136432E-03 -5.609233E-06  3.155790E-02
        86 -1.678812E-05 -1.228688E-05  8.105285E-03
        87 -5.863008E-03  5.541786E-13  1.000000E-01
        88 -5.908251E-03  2.583745E-05  1.000000E-01
        89 -3.188784E-03  2.478254E-13  6.351206E-02
        90 -5.892523E-03  1.643773E-05  1.000000E-01
        91 -2.988663E-03 -2.646676E-06  6.173189E-02
        92 -8.790869E-04  2.809878E-05  2.907841E-02
        93 -1.678812E-05  1.228688E-05  8.105285E-03
        94 -1.136432E-03  5.609233E-06  3.155790E-02
        95 -5.908251E-03 -2.583745E-05  1.000000E-01
        96 -2.988663E-03  2.646676E-06  6.173189E-02
        97 -5.892523E-03 -1.643772E-05  1.000000E-01

 stresses (elem, integ.pnt.,sxx,syy,szz,sxy,sxz,syz) for set EALL and time  0.1000000E+01

         9   1  1.924780E+01  2.364342E+00  1.339050E+00 -1.499755E+00 -1.734234E+01 -5.334068E+00
         9   2  1.822731E+01 -1.114173E-01 -1.199380E+01  1.650582E+00 -1.518002E+01  9.306785E-01
         9   3  1.617674E+01  1.623984E+00 -1.026618E+01  4.567034E+00 -1.570035E+01  7.537470E+00
         9   4 -1.031847E+01 -1.821434E+00 -6.997414E+00  1.421124E+00  1.661227E+00 -4.074531E+00
         9   5 -1.345401E+01 -5.791983E+00 -2.023467E+01  2.279881E+00  2.507932E+00 -6.365254E-01
         9   6 -1.360072E+01 -3.830189E+00 -1.669100E+01  3.041875E+00  3.333888E+00  3.143191E+00
         9   7 -8.798303E-01  3.285027E+00 -8.361265E-01  9.380591E-01  2.060245E+01 -3.267364E+00
         9   8 -4.153348E+00 -1.333266E+00 -1.313188E+01  4.544812E-01  2.039070E+01 -2.657397E+00
         9   9 -4.203926E-01  1.701684E+00 -6.923271E+00  1.130211E-02  2.282114E+01 -1.706028E+00
         9  10  1.973689E+01  3.226139E+00  1.190604E+01 -1.897818E+00 -1.126162E+01 -8.027941E-01
         9  11  2.293727E+01  3.973895E+00  7.121209E+00  6.180534E-02 -8.901076E+00  1.579210E+00
         9  12  2.112110E+01  4.944464E+00  8.094356E+00  1.787493E+00 -1.036847E+01  4.166410E+00
         9  13 -9.154791E+00 -2.048243E+00  3.615840E+00  8.628877E-01  1.280555E-01 -9.997671E-01
         9  14 -8.939542E+00 -2.995824E+00 -2.060555E+00  1.169963E+00  1.087519E+00  2.641848E-01
         9  15 -9.723117E+00 -1.999484E+00 -2.581682E-01  1.380220E+00  8.794499E-01  1.733076E+00
         9  16  2.351516E+00  5.278826E+00  1.122809E+01  7.849273E-01  1.145451E+01 -1.393473E+00
         9  17  1.557550E+00  3.482096E+00  5.505732E+00  3.885966E-01  1.126986E+01 -1.248047E+00
         9  18  3.779807E+00  5.349901E+00  8.984081E+00  3.261038E-02  1.257757E+01 -8.977857E-01
         9  19  1.544012E+01  2.151045E+00  8.426547E+00 -2.030370E+00 -5.550234E+00  1.734051E+00
         9  20  2.214790E+01  5.407909E+00  1.052589E+01 -1.261716E+00 -2.792058E+00  7.405672E-01
         9  21  1.985229E+01  4.900464E+00  9.078715E+00 -7.269070E-01 -5.008078E+00 -1.849420E-01
         9  22 -1.355294E+01 -5.997279E+00 -5.904691E-01  3.720431E-01 -1.777924E+00  5.563685E-01
         9  23 -1.070113E+01 -4.636270E+00 -3.697418E-01  1.275411E-01 -5.078552E-01  1.542025E-01
         9  24 -1.283567E+01 -5.319457E+00 -1.975787E+00 -2.137656E-01 -1.552012E+00 -1.801613E-01
         9  25 -7.365820E-01  1.773576E+00  7.712248E+00  5.002681E-01  1.930070E+00 -5.619321E-01
         9  26  2.347325E-01  2.083977E+00  6.899328E+00  1.915007E-01  1.969100E+00 -3.729340E-01
         9  27  2.337965E-01  2.070951E+00  5.980641E+00 -7.694485E-02  2.352222E+00 -1.161255E-01
        10   1  1.617674E+01  1.623984E+00 -1.026618E+01 -4.567034E+00 -1.570035E+01 -7.537470E+00
        10   2  1.822731E+01 -1.114173E-01 -1.199380E+01 -1.650582E+00 -1.518002E+01 -9.306785E-01
        10   3  1.924780E+01  2.364342E+00  1.339050E+00  1.499755E+00 -1.734234E+01  5.334068E+00
        10   4 -1.360072E+01 -3.830189E+00 -1.669100E+01 -3.041875E+00  3.333888E+00 -3.143191E+00
        10   5 -1.345401E+01 -5.791983E+00 -2.023467E+01 -2.279881E+00  2.507932E+00  6.365254E-01
        10   6 -1.031847E+01 -1.821434E+00 -6.997414E+00 -1.421124E+00  1.661227E+00  4.074531E+00
        10   7 -4.203926E-01  1.701684E+00 -6.923271E+00 -1.130207E-02  2.282114E+01  1.706028E+00
        10   8 -4.153348E+00 -1.333267E+00 -1.313188E+01 -4.544812E-01  2.039070E+01  2.657397E+00
        10   9 -8.798303E-01  3.285027E+00 -8.361266E-01 -9.380591E-01  2.060245E+01  3.267364E+00
        10  10  2.112110E+01  4.944464E+00  8.094356E+00 -1.787493E+00 -1.036847E+01 -4.166410E+00
        10  11  2.293727E+01  3.973895E+00  7.121209E+00 -6.180534E-02 -8.901076E+00 -1.579210E+00
        10  12  1.973689E+01  3.226139E+00  1.190604E+01  1.897818E+00 -1.126162E+01  8.027940E-01
        10  13 -9.723117E+00 -1.999484E+00 -2.581683E-01 -1.380220E+00  8.794499E-01 -1.733076E+00
        10  14 -8.939542E+00 -2.995824E+00 -2.060555E+00 -1.169963E+00  1.087519E+00 -2.641848E-01
        10  15 -9.154791E+00 -2.048243E+00  3.615840E+00 -8.628877E-01  1.280555E-01  9.997670E-01
        10  16  3.779807E+00  5.349901E+00  8.984081E+00 -3.261035E-02  1.257757E+01  8.977856E-01
        10  17  1.557550E+00  3.482096E+00  5.505732E+00 -3.885966E-01  1.126986E+01  1.248047E+00
        10  18  2.351516E+00  5.278826E+00  1.122809E+01 -7.849274E-01  1.145451E+01  1.393473E+00
        10  19  1.985229E+01  4.900464E+00  9.078715E+00  7.269070E-01 -5.008078E+00  1.849420E-01
        10  20  2.214790E+01  5.407909E+00  1.052589E+01  1.261716E+00 -2.792058E+00 -7.405672E-01
        10  21  1.544012E+01  2.151045E+00  8.426547E+00  2.030370E+00 -5.550234E+00 -1.734051E+00
        10  22 -1.283567E+01 -5.319457E+00 -1.975787E+00  2.137656E-01 -1.552012E+00  1.801613E-01
        10  23 -1.070113E+01 -4.636270E+00 -3.697418E-01 -1.275411E-01 -5.078552E-01 -1.542025E-01
        10  24 -1.355294E+01 -5.997279E+00 -5.904692E-01 -3.720431E-01 -1.777924E+00 -5.563685E-01
        10  25  2.337965E-01  2.070951E+00  5.980641E+00  7.694487E-02  2.352222E+00  1.161255E-01
        10  26  2.347325E-01  2.083977E+00  6.899328E+00 -1.915007E-01  1.969100E+00  3.729340E-01
        10  27 -7.365820E-01  1.773576E+00  7.712248E+00 -5.002682E-01  1.930070E+00  5.619320E-01
        11   1  5.501759E+00 -1.712752E+00  5.675265E-01 -9.994238E-02  3.425511E-01  1.875817E+00
        11   2  5.713673E+00 -1.065130E+00  1.218057E+00 -5.358855E-01  1.056857E+00  2.148866E-01
        11   3  6.496912E+00 -6.782300E-01  4.279812E-01 -1.037194E+00  1.631131E+00 -1.421311E+00
        11   4  4.654030E+00  7.254909E-01  2.973140E+00  1.396571E-01 -9.109180E-01  6.277311E-01
        11   5  5.085213E+00  1.294728E+00  3.357335E+00 -1.895212E-01 -3.146256E-01 -6.728117E-02
        11   6  5.388671E+00  1.303585E+00  2.001226E+00 -5.732254E-01 -1.158989E-01 -7.375393E-01
        11   7 -5.423349E-01  2.258101E-01  3.192954E+00  6.006678E-02 -1.840685E+00 -5.017539E-01
        11   8  2.126778E-02  6.793766E-01  3.273544E+00  1.770802E-03 -1.414226E+00 -2.307703E-01
        11   9 -2.418306E-01  2.729637E-01  1.314211E+00 -1.002258E-01 -1.642804E+00  6.496660E-02
        11  10  5.455479E+00 -5.851674E-01 -5.560737E-01 -5.308901E-01  1.025880E+00  1.085793E+00
        11  11  5.082346E+00 -3.823991E-01 -2.376163E-01 -5.128686E-01  1.501892E+00  1.640824E-01
        11  12  5.666737E+00 -5.420329E-02 -4.585704E-01 -5.601838E-01  2.037561E+00 -7.436880E-01
        11  13  4.474900E+00  5.326725E-01  5.717499E-01 -1.111614E-01 -1.569182E-01  3.254658E-01
        11  14  4.461498E+00  7.924632E-01  8.413272E-01 -1.640375E-01  3.142373E-01 -5.193755E-02
        11  15  4.706568E+00  8.780799E-01  2.718685E-01 -2.714278E-01  5.875210E-01 -4.153931E-01
        11  16 -6.084943E-01 -7.131951E-01 -2.403085E-01 -3.545943E-02 -1.015968E+00 -3.680192E-01
        11  17 -3.489954E-01 -4.336190E-01 -5.683399E-02  4.901711E-03 -6.014971E-01 -2.010884E-01
        11  18 -5.300305E-01 -6.277967E-01 -1.011984E+00  1.564732E-03 -6.423888E-01 -2.020833E-02
        11  19  6.982391E+00  2.191588E+00  1.915073E+00 -1.097243E+00  1.460520E+00  2.512009E-01
        11  20  5.891664E+00  1.816928E+00  1.592228E+00 -6.252164E-01  1.684949E+00  4.665910E-02
        11  21  6.144696E+00  1.953899E+00  1.631167E+00 -2.185216E-01  2.168752E+00 -1.547379E-01
        11  22  5.902109E+00  2.066158E+00  1.798286E+00 -4.840823E-01  3.483128E-01  6.698952E-02
        11  23  5.311563E+00  1.883955E+00  1.644009E+00 -2.606322E-01  6.810584E-01 -1.487111E-02
        11  24  5.365727E+00  1.913809E+00  1.551929E+00 -9.169440E-02  1.015634E+00 -9.358538E-02
        11  25  9.650311E-01  1.514278E-01 -1.225241E-02 -2.397743E-01 -4.401048E-01 -1.021743E-01
        11  26  7.878497E-01  1.244614E-01 -3.517005E-02 -1.007476E-01 -5.088566E-02 -6.134098E-02
        11  27  5.563667E-01  9.994469E-03 -2.954512E-01 -5.421028E-03  8.265111E-02 -1.736154E-02
        12   1  6.496912E+00 -6.782300E-01  4.279812E-01  1.037194E+00  1.631131E+00  1.421311E+00
        12   2  5.713673E+00 -1.065130E+00  1.218057E+00  5.358855E-01  1.056857E+00 -2.148866E-01
        12   3  5.501759E+00 -1.712752E+00  5.675265E-01  9.994244E-02  3.425511E-01 -1.875817E+00
        12   4  5.388671E+00  1.303585E+00  2.001226E+00  5.732254E-01 -1.158989E-01  7.375393E-01
        12   5  5.085213E+00  1.294728E+00  3.357335E+00  1.895211E-01 -3.146256E-01  6.728117E-02
        12   6  4.654030E+00  7.254909E-01  2.973140E+00 -1.396571E-01 -9.109179E-01 -6.277311E-01
        12   7 -2.418306E-01  2.729638E-01  1.314211E+00  1.002258E-01 -1.642804E+00 -6.496660E-02
        12   8  2.126778E-02  6.793766E-01  3.273544E+00 -1.770805E-03 -1.414226E+00  2.307703E-01
        12   9 -5.423349E-01  2.258101E-01  3.192954E+00 -6.006678E-02 -1.840685E+00  5.017538E-01
        12  10  5.666737E+00 -5.420328E-02 -4.585704E-01  5.601838E-01  2.037561E+00  7.436880E-01
        12  11  5.082346E+00 -3.823991E-01 -2.376163E-01  5.128685E-01  1.501892E+00 -1.640824E-01
        12  12  5.455479E+00 -5.851674E-01 -5.560737E-01  5.308902E-01  1.025880E+00 -1.085793E+00
        12  13  4.706568E+00  8.780799E-01  2.718685E-01  2.714278E-01  5.875210E-01  4.153931E-01
        12  14  4.461498E+00  7.924632E-01  8.413272E-01  1.640375E-01  3.142373E-01  5.193755E-02
        12  15  4.474900E+00  5.326725E-01  5.717499E-01  1.111614E-01 -1.569182E-01 -3.254658E-01
        12  16 -5.300305E-01 -6.277967E-01 -1.011984E+00 -1.564734E-03 -6.423888E-01  2.020833E-02
        12  17 -3.489954E-01 -4.336190E-01 -5.683401E-02 -4.901713E-03 -6.014971E-01  2.010884E-01
        12  18 -6.084943E-01 -7.131951E-01 -2.403085E-01  3.545944E-02 -1.015968E+00  3.680191E-01
        12  19  6.144696E+00  1.953899E+00  1.631167E+00  2.185215E-01  2.168752E+00  1.547379E-01
        12  20  5.891664E+00  1.816928E+00  1.592228E+00  6.252164E-01  1.684949E+00 -4.665909E-02
        12  21  6.982391E+00  2.191588E+00  1.915073E+00  1.097243E+00  1.460520E+00 -2.512009E-01
        12  22  5.365727E+00  1.913809E+00  1.551929E+00  9.169438E-02  1.015634E+00  9.358538E-02
        12  23  5.311563E+00  1.883955E+00  1.644009E+00  2.606322E-01  6.810584E-01  1.487112E-02
        12  24  5.902109E+00  2.066158E+00  1.798286E+00  4.840823E-01  3.483128E-01 -6.698952E-02
        12  25  5.563667E-01  9.994469E-03 -2.954512E-01  5.421023E-03  8.265111E-02  1.736154E-02
        12  26  7.878497E-01  1.244614E-01 -3.517005E-02  1.007476E-01 -5.088565E-02  6.134098E-02
        12  27  9.650311E-01  1.514278E-01 -1.225242E-02  2.397743E-01 -4.401048E-01  1.021743E-01
        13   1  3.636879E+00  2.792893E+00 -1.399670E+00  2.184598E-01 -4.194010E+00  6.196306E-01
        13   2  5.994912E+00  3.990513E+00  6.196052E-01 -3.605197E-01 -6.411812E+00 -7.181611E-01
        13   3  6.840786E+00  3.587415E+00 -1.185077E+00 -8.857448E-01 -7.255818E+00 -2.175315E+00
        13   4 -3.512905E+00 -1.435790E+00 -3.635871E+00  2.983750E-01 -3.457106E-01  2.171447E-01
        13   5 -2.937034E+00 -5.397646E-01 -1.875663E+00 -4.357358E-03 -1.442860E+00 -2.665425E-01
        13   6 -3.452029E+00 -1.064124E+00 -3.759126E+00 -3.444652E-01 -1.775883E+00 -8.696461E-01
        13   7 -3.338874E-01 -5.017519E-01 -1.224297E+00  1.931536E-01  3.597747E+00 -3.260786E-01
        13   8 -4.726938E-01  5.499343E-01  7.343609E-01 -3.050756E-02  3.624637E+00  4.431268E-02
        13   9 -1.280887E+00  3.618403E-01 -7.701882E-01 -3.826737E-01  3.806102E+00  2.952622E-01
        13  10  3.005615E+00  1.738381E+00  1.417958E-01  1.665215E-01  1.095932E-01  4.034353E-01
        13  11  4.341639E+00  2.304760E+00  6.126405E-01 -1.522659E-01 -1.200762E+00 -3.548718E-01
        13  12  5.079605E+00  2.184342E+00 -6.078261E-01 -4.173242E-01 -1.257999E+00 -1.141477E+00
        13  13 -3.914130E+00 -1.073942E+00 -1.847544E+00  2.734230E-02  1.093563E+00  2.604437E-01
        13  14 -3.938774E+00 -8.920752E-01 -1.543367E+00 -6.114868E-02  4.449538E-01 -5.593804E-02
        13  15 -4.140194E+00 -1.216529E+00 -2.750109E+00 -1.870199E-01  4.399855E-01 -4.006426E-01
        13  16 -8.022220E-01  5.857945E-01  5.143302E-01  7.832144E-03  2.172869E+00 -1.975788E-02
        13  17 -1.120438E+00  8.404173E-01  1.109160E+00 -4.756415E-02  2.189493E+00  1.057696E-01
        13  18 -1.194046E+00  7.692946E-01  3.735311E-01 -2.314561E-01  2.240395E+00  2.029614E-01
        13  19  2.735202E+00  1.475642E+00  2.091974E+00 -2.672416E-02  4.517146E+00  2.086212E-02
        13  20  3.280476E+00  1.641668E+00  1.553214E+00 -8.529563E-02  3.953227E+00  8.412809E-03
        13  21  4.141875E+00  2.034928E+00  1.456031E+00 -9.013618E-02  4.521996E+00  5.876051E-02
        13  22 -4.205019E+00 -5.029109E-01  9.922804E-02 -2.241965E-01  2.636654E+00 -1.655766E-02
        13  23 -4.599253E+00 -8.043321E-01 -5.139611E-01 -9.844404E-02  2.275700E+00  7.360439E-04
        13  24 -4.256158E+00 -6.979790E-01 -5.052141E-01 -1.007441E-02  2.437990E+00  8.081386E-02
        13  25 -1.409580E+00  1.300317E+00  2.161898E+00  2.821523E-03  8.517198E-01 -1.876297E-01
        13  26 -1.676368E+00  9.887223E-01  1.931536E+00  1.157036E-01  6.972745E-01 -1.406178E-01
        13  27 -7.845055E-01  1.265442E+00  2.503555E+00  1.000912E-01  4.567168E-01 -3.082528E-02
        14   1  6.840786E+00  3.587415E+00 -1.185077E+00  8.857448E-01 -7.255818E+00  2.175315E+00
        14   2  5.994912E+00  3.990513E+00  6.196052E-01  3.605197E-01 -6.411812E+00  7.181611E-01
        14   3  3.636879E+00  2.792893E+00 -1.399670E+00 -2.184599E-01 -4.194010E+00 -6.196305E-01
        14   4 -3.452029E+00 -1.064124E+00 -3.759126E+00  3.444652E-01 -1.775883E+00  8.696461E-01
        14   5 -2.937034E+00 -5.397646E-01 -1.875664E+00  4.357361E-03 -1.442860E+00  2.665425E-01
        14   6 -3.512905E+00 -1.435790E+00 -3.635871E+00 -2.983750E-01 -3.457106E-01 -2.171447E-01
        14   7 -1.280887E+00  3.618403E-01 -7.701882E-01  3.826737E-01  3.806102E+00 -2.952622E-01
        14   8 -4.726938E-01  5.499343E-01  7.343608E-01  3.050756E-02  3.624637E+00 -4.431269E-02
        14   9 -3.338874E-01 -5.017519E-01 -1.224296E+00 -1.931536E-01  3.597747E+00  3.260786E-01
        14  10  5.079605E+00  2.184342E+00 -6.078261E-01  4.173242E-01 -1.257999E+00  1.141477E+00
        14  11  4.341639E+00  2.304760E+00  6.126405E-01  1.522658E-01 -1.200762E+00  3.548718E-01
        14  12  3.005615E+00  1.738381E+00  1.417959E-01 -1.665215E-01  1.095931E-01 -4.034353E-01
        14  13 -4.140194E+00 -1.216529E+00 -2.750109E+00  1.870199E-01  4.399855E-01  4.006426E-01
        14  14 -3.938774E+00 -8.920752E-01 -1.543367E+00  6.114868E-02  4.449538E-01  5.593804E-02
        14  15 -3.914130E+00 -1.073942E+00 -1.847544E+00 -2.734230E-02  1.093563E+00 -2.604436E-01
        14  16 -1.194046E+00  7.692946E-01  3.735311E-01  2.314561E-01  2.240395E+00 -2.029614E-01
        14  17 -1.120438E+00  8.404173E-01  1.109160E+00  4.756414E-02  2.189493E+00 -1.057696E-01
        14  18 -8.022220E-01  5.857945E-01  5.143302E-01 -7.832117E-03  2.172869E+00  1.975788E-02
        14  19  4.141875E+00  2.034928E+00  1.456031E+00  9.013619E-02  4.521996E+00 -5.876052E-02
        14  20  3.280476E+00  1.641668E+00  1.553214E+00  8.529563E-02  3.953227E+00 -8.412804E-03
        14  21  2.735202E+00  1.475642E+00  2.091974E+00  2.672413E-02  4.517146E+00 -2.086211E-02
        14  22 -4.256158E+00 -6.979790E-01 -5.052141E-01  1.007441E-02  2.437990E+00 -8.081387E-02
        14  23 -4.599253E+00 -8.043321E-01 -5.139611E-01  9.844404E-02  2.275700E+00 -7.360386E-04
        14  24 -4.205019E+00 -5.029109E-01  9.922804E-02  2.241965E-01  2.636654E+00  1.655767E-02
        14  25 -7.845055E-01  1.265442E+00  2.503555E+00 -1.000912E-01  4.567168E-01  3.082527E-02
        14  26 -1.676368E+00  9.887223E-01  1.931536E+00 -1.157036E-01  6.972745E-01  1.406178E-01
        14  27 -1.409580E+00  1.300317E+00  2.161898E+00 -2.821506E-03  8.517198E-01  1.876297E-01
        15   1 -3.541814E+00 -1.127903E+00  1.533079E-01 -6.435741E-02  3.529518E+00 -5.862417E-03
        15   2 -3.328523E+00 -1.092581E+00 -5.476331E-01 -9.143866E-04  3.668806E+00  1.435314E-01
        15   3 -2.891829E+00 -7.452372E-01 -4.319639E-01  3.204176E-02  3.545752E+00  3.721628E-01
        15   4 -2.837785E+00  3.668666E-01  1.355211E+00 -2.822935E-01  1.773858E+00 -3.493182E-02
        15   5 -2.867840E+00  1.724028E-01  8.183407E-01 -1.288193E-01  1.762804E+00  3.441602E-02
        15   6 -2.707961E+00  2.756073E-01  1.083760E+00  2.874906E-02  1.599516E+00  1.830030E-01
        15   7 -5.008880E+00  1.371991E-01  1.177262E+00 -6.179322E-01  1.091725E-01 -1.817077E-01
        15   8 -5.365535E+00 -3.227520E-01  7.687943E-01 -2.992514E-01 -8.553268E-04 -1.924097E-01
        15   9 -5.565712E+00 -4.993718E-01  1.148301E+00  5.809954E-02 -1.530071E-01 -1.238734E-01
        15  10 -2.090257E+00 -5.742588E-01  5.876615E-01 -7.862322E-03  1.616614E+00  1.944914E-01
        15  11 -2.025490E+00 -5.822973E-01  1.549772E-01  4.748750E-02  1.897632E+00  1.627251E-01
        15  12 -1.902509E+00 -4.435152E-01  1.534539E-01  7.234685E-02  1.925855E+00  1.756102E-01
        15  13 -2.870454E+00  9.491452E-02  8.599579E-01  1.419878E-01  9.133084E-01  1.830116E-01
        15  14 -2.811721E+00  1.357638E-02  5.759158E-01  9.818198E-02  1.060207E+00  1.061301E-01
        15  15 -2.728246E+00  6.470928E-02  7.086989E-01  5.846939E-02  1.064434E+00  7.390049E-02
        15  16 -6.413101E+00 -6.972463E-01 -1.349327E-01  1.503047E-01  3.010195E-01  1.051961E-01
        15  17 -6.443668E+00 -8.875772E-01 -3.060136E-01  8.253035E-02  3.651676E-01 -1.679871E-02
        15  18 -6.482959E+00 -9.597804E-01 -7.460186E-02  5.343146E-02  3.967691E-01 -9.414081E-02
        15  19 -1.041190E+00 -3.508050E-01  1.026459E-02 -3.445040E-02  7.201683E-02  8.842081E-02
        15  20 -1.113623E+00 -3.908591E-01 -1.277067E-01  1.281103E-02  4.197594E-01  5.512551E-02
        15  21 -1.293029E+00 -4.492903E-01 -2.199625E-01  2.958122E-02  5.242662E-01  3.189464E-02
        15  22 -3.575160E+00 -1.135944E+00 -9.166018E-01  5.581921E-01  4.211187E-01  8.694072E-02
        15  23 -3.416294E+00 -1.092812E+00 -9.213488E-01  3.171080E-01  6.509595E-01  4.347522E-02
        15  24 -3.397880E+00 -1.082403E+00 -8.947323E-01  8.011655E-02  7.476985E-01  1.007123E-02
        15  25 -8.758765E+00 -3.119304E+00 -2.997924E+00  9.854474E-01  8.612008E-01  7.052162E-02
        15  26 -8.451902E+00 -3.028684E+00 -2.905140E+00  5.312328E-01  1.024516E+00  1.687914E-02
        15  27 -8.318952E+00 -2.985127E+00 -2.795335E+00  1.156904E-01  1.164857E+00 -2.670140E-02
        16   1 -2.891829E+00 -7.452372E-01 -4.319639E-01 -3.204176E-02  3.545752E+00 -3.721628E-01
        16   2 -3.328523E+00 -1.092581E+00 -5.476331E-01  9.143849E-04  3.668806E+00 -1.435314E-01
        16   3 -3.541814E+00 -1.127903E+00  1.533079E-01  6.435740E-02  3.529518E+00  5.862405E-03
        16   4 -2.707961E+00  2.756073E-01  1.083760E+00 -2.874906E-02  1.599516E+00 -1.830030E-01
        16   5 -2.867840E+00  1.724028E-01  8.183407E-01  1.288193E-01  1.762804E+00 -3.441602E-02
        16   6 -2.837785E+00  3.668666E-01  1.355211E+00  2.822935E-01  1.773858E+00  3.493182E-02
        16   7 -5.565712E+00 -4.993718E-01  1.148301E+00 -5.809954E-02 -1.530071E-01  1.238734E-01
        16   8 -5.365535E+00 -3.227520E-01  7.687943E-01  2.992514E-01 -8.553283E-04  1.924097E-01
        16   9 -5.008880E+00  1.371991E-01  1.177262E+00  6.179322E-01  1.091725E-01  1.817077E-01
        16  10 -1.902509E+00 -4.435151E-01  1.534539E-01 -7.234685E-02  1.925855E+00 -1.756102E-01
        16  11 -2.025490E+00 -5.822973E-01  1.549772E-01 -4.748750E-02  1.897632E+00 -1.627251E-01
        16  12 -2.090257E+00 -5.742588E-01  5.876615E-01  7.862320E-03  1.616614E+00 -1.944914E-01
        16  13 -2.728246E+00  6.470929E-02  7.086989E-01 -5.846938E-02  1.064434E+00 -7.390049E-02
        16  14 -2.811721E+00  1.357638E-02  5.759158E-01 -9.818197E-02  1.060207E+00 -1.061301E-01
        16  15 -2.870454E+00  9.491451E-02  8.599579E-01 -1.419878E-01  9.133084E-01 -1.830116E-01
        16  16 -6.482959E+00 -9.597804E-01 -7.460186E-02 -5.343145E-02  3.967691E-01  9.414081E-02
        16  17 -6.443668E+00 -8.875772E-01 -3.060136E-01 -8.253035E-02  3.651676E-01  1.679871E-02
        16  18 -6.413101E+00 -6.972463E-01 -1.349327E-01 -1.503047E-01  3.010195E-01 -1.051961E-01
        16  19 -1.293029E+00 -4.492903E-01 -2.199625E-01 -2.958122E-02  5.242662E-01 -3.189464E-02
        16  20 -1.113623E+00 -3.908591E-01 -1.277067E-01 -1.281103E-02  4.197594E-01 -5.512551E-02
        16  21 -1.041190E+00 -3.508050E-01  1.026459E-02  3.445040E-02  7.201684E-02 -8.842081E-02
        16  22 -3.397880E+00 -1.082403E+00 -8.947323E-01 -8.011654E-02  7.476985E-01 -1.007123E-02
        16  23 -3.416294E+00 -1.092812E+00 -9.213488E-01 -3.171080E-01  6.509595E-01 -4.347522E-02
        16  24 -3.575160E+00 -1.135944E+00 -9.166018E-01 -5.581921E-01  4.211188E-01 -8.694072E-02
        16  25 -8.318952E+00 -2.985127E+00 -2.795335E+00 -1.156904E-01  1.164857E+00  2.670140E-02
        16  26 -8.451902E+00 -3.028684E+00 -2.905140E+00 -5.312328E-01  1.024516E+00 -1.687914E-02
        16  27 -8.758765E+00 -3.119304E+00 -2.997924E+00 -9.854474E-01  8.612008E-01 -7.052162E-02
         1   1 -7.329474E+01 -7.418088E+01 -1.948791E+02  6.722883E+00  7.309946E+01 -1.657500E+00
         1   2 -9.390913E+01 -1.001867E+02 -2.467227E+02 -3.001383E+00  9.013880E+01 -1.390900E+00
         1   3  6.283367E+01  6.054949E+01  1.201873E+02 -4.746170E+00 -4.286387E+01 -3.071332E+00
         1   4  7.737276E+01  7.188442E+01  1.439398E+02 -1.355843E+00 -5.288168E+01 -3.734150E-02
         1   5  7.284136E+01  6.552545E+01  1.630460E+02  7.717205E+00  7.308614E+01 -8.045762E+00
         1   6  9.266240E+01  9.109423E+01  1.971598E+02 -3.777153E+00  8.880633E+01  1.202597E+01
         1   7 -6.276345E+01 -5.607292E+01 -1.422243E+02 -4.608805E+00 -4.110382E+01 -4.682240E+00
         1   8 -7.695680E+01 -7.019808E+01 -1.781869E+02 -1.188495E+00 -4.960057E+01 -2.122200E+00
         2   1 -4.630257E+01 -4.569996E+01 -1.104751E+02  3.263352E+00  2.452017E+01 -1.355813E+00
         2   2 -5.598907E+01 -5.441122E+01 -1.346759E+02  2.193691E+00  3.082557E+01 -6.873963E-01
         2   3  1.307979E+01  2.729088E+01  8.111232E+01 -2.367414E+00 -5.724005E+00 -3.550873E-01
         2   4  1.585042E+01  3.586361E+01  1.010041E+02  4.596567E-01 -7.285570E+00 -8.264976E-01
         2   5  4.625735E+01  4.821187E+01  1.054235E+02  3.077510E+00  2.488891E+01  1.844265E+00
         2   6  5.574129E+01  5.636090E+01  1.286414E+02  2.481716E+00  2.972794E+01 -2.701593E+00
         2   7 -1.307089E+01 -2.789444E+01 -8.315181E+01 -2.351122E+00 -5.515036E+00 -1.070414E-01
         2   8 -1.583526E+01 -3.454462E+01 -1.016175E+02  3.492952E-01 -6.830934E+00  8.193951E-01
         3   1 -9.390913E+01 -1.001867E+02 -2.467227E+02  3.001383E+00  9.013880E+01  1.390900E+00
         3   2 -7.329474E+01 -7.418088E+01 -1.948791E+02 -6.722883E+00  7.309946E+01  1.657500E+00
         3   3  7.737276E+01  7.188442E+01  1.439398E+02  1.355843E+00 -5.288168E+01  3.734141E-02
         3   4  6.283367E+01  6.054949E+01  1.201873E+02  4.746169E+00 -4.286387E+01  3.071332E+00
         3   5  9.266240E+01  9.109423E+01  1.971598E+02  3.777153E+00  8.880633E+01 -1.202597E+01
         3   6  7.284136E+01  6.552545E+01  1.630460E+02 -7.717205E+00  7.308614E+01  8.045762E+00
         3   7 -7.695680E+01 -7.019808E+01 -1.781869E+02  1.188495E+00 -4.960057E+01  2.122200E+00
         3   8 -6.276345E+01 -5.607293E+01 -1.422243E+02  4.608805E+00 -4.110382E+01  4.682240E+00
         4   1 -5.598907E+01 -5.441122E+01 -1.346759E+02 -2.193691E+00  3.082557E+01  6.873963E-01
         4   2 -4.630257E+01 -4.569996E+01 -1.104751E+02 -3.263352E+00  2.452017E+01  1.355813E+00
         4   3  1.585042E+01  3.586361E+01  1.010041E+02 -4.596567E-01 -7.285569E+00  8.264976E-01
         4   4  1.307979E+01  2.729088E+01  8.111232E+01  2.367414E+00 -5.724006E+00  3.550873E-01
         4   5  5.574129E+01  5.636090E+01  1.286414E+02 -2.481716E+00  2.972794E+01  2.701593E+00
         4   6  4.625735E+01  4.821187E+01  1.054235E+02 -3.077510E+00  2.488891E+01 -1.844264E+00
         4   7 -1.583526E+01 -3.454462E+01 -1.016175E+02 -3.492952E-01 -6.830934E+00 -8.193950E-01
         4   8 -1.307089E+01 -2.789444E+01 -8.315181E+01  2.351122E+00 -5.515036E+00  1.070413E-01
         5   1  8.443284E+02  2.759949E+02  2.791199E+02 -2.361061E+01  2.308523E+01  3.199270E+01
         5   2  8.804333E+02  3.471927E+02  3.185851E+02 -2.121852E+01  4.327393E+01 -2.182080E+01
         5   3  6.140876E+02  4.357536E+01  1.578911E+01 -3.232917E+01  6.794504E+01 -1.651404E+00
         5   4  5.413482E+02  1.277776E+02  8.678688E+00 -2.149028E+01  6.767431E+01  5.604117E+00
         5   5 -8.086162E+02 -2.819224E+02 -2.865971E+02  3.167043E+01 -1.286792E+01  3.285924E+01
         5   6 -9.166723E+02 -3.645447E+02 -3.245923E+02  2.300227E+01  3.191779E+00 -2.016208E+01
         5   7 -5.813832E+02 -4.886784E+01 -1.331536E+01  3.105837E+01 -3.829031E+01  4.607423E+00
         5   8 -5.760280E+02 -1.418411E+02 -4.786436E+00  9.211921E+00 -4.123711E+01  7.805078E+00
         6   1  3.880955E+02 -4.335123E+01 -7.184296E+01  2.327207E+01  6.798445E+01 -1.813899E+00
         6   2  3.569472E+02  4.538779E+01 -7.324169E+01  1.076458E+01  5.820224E+01  5.416862E+00
         6   3  1.077728E+02  5.967798E+00 -7.333018E+00  2.276847E+01  3.305743E+01  6.328428E+00
         6   4  8.769552E+01  1.032622E+01 -2.015789E+01  2.596714E+01  2.324856E+01  7.460490E+00
         6   5 -3.685254E+02  3.822028E+01  7.918609E+01 -3.629788E+01 -3.532783E+01 -8.641639E+00
         6   6 -3.814637E+02 -5.256845E+01  7.839644E+01 -1.039716E+01 -3.560811E+01  2.027138E+00
         6   7 -1.061601E+02  1.538444E+00  1.714595E+01 -2.972619E+01  2.332740E+00 -1.995480E+00
         6   8 -9.742337E+01  8.380695E+00  2.491315E+01 -3.677702E+01 -4.034910E+00 -2.169117E+00
         7   1  8.804333E+02  3.471927E+02  3.185851E+02  2.121852E+01  4.327393E+01  2.182080E+01
         7   2  8.443284E+02  2.759949E+02  2.791199E+02  2.361061E+01  2.308523E+01 -3.199270E+01
         7   3  5.413482E+02  1.277776E+02  8.678689E+00  2.149028E+01  6.767431E+01 -5.604117E+00
         7   4  6.140876E+02  4.357537E+01  1.578911E+01  3.232917E+01  6.794504E+01  1.651404E+00
         7   5 -9.166723E+02 -3.645447E+02 -3.245923E+02 -2.300227E+01  3.191779E+00  2.016208E+01
         7   6 -8.086162E+02 -2.819224E+02 -2.865971E+02 -3.167043E+01 -1.286792E+01 -3.285924E+01
         7   7 -5.760280E+02 -1.418411E+02 -4.786436E+00 -9.211920E+00 -4.123711E+01 -7.805078E+00
         7   8 -5.813832E+02 -4.886784E+01 -1.331536E+01 -3.105837E+01 -3.829031E+01 -4.607423E+00
         8   1  3.569472E+02  4.538780E+01 -7.324169E+01 -1.076458E+01  5.820224E+01 -5.416862E+00
         8   2  3.880955E+02 -4.335123E+01 -7.184296E+01 -2.327207E+01  6.798445E+01  1.813899E+00
         8   3  8.769552E+01  1.032622E+01 -2.015789E+01 -2.596714E+01  2.324856E+01 -7.460490E+00
         8   4  1.077728E+02  5.967798E+00 -7.333018E+00 -2.276846E+01  3.305743E+01 -6.328428E+00
         8   5 -3.814637E+02 -5.256846E+01  7.839644E+01  1.039715E+01 -3.560812E+01 -2.027138E+00
         8   6 -3.685254E+02  3.822027E+01  7.918609E+01  3.629788E+01 -3.532783E+01  8.641639E+00
         8   7 -9.742337E+01  8.380694E+00  2.491315E+01  3.677702E+01 -4.034909E+00  2.169117E+00
         8   8 -1.061601E+02  1.538443E+00  1.714595E+01  2.972619E+01  2.332740E+00  1.995480E+00
