
                        S T E P       1


                                INCREMENT     1


 displacements (vx,vy,vz) for set NALL and time  0.1000000E+01

         1  2.703445E-18 -1.982532E-17  0.000000E+00
         2 -2.779384E-08 -2.593339E-07 -6.452376E-05
         3 -2.201214E-08 -1.255959E-07 -1.654236E-05
         4 -9.064352E-09 -5.392905E-07 -1.857078E-04
         5 -2.205088E-08 -3.988735E-07 -1.267968E-04
         6  1.789147E-08 -8.100125E-07 -2.120007E-04
         7  6.206741E-09 -6.765026E-07 -2.209022E-04
         8  8.999737E-16 -1.119435E-06  1.527453E-06
         9  1.869612E-08 -9.515941E-07 -1.428294E-04
        10 -1.789124E-08 -8.100124E-07 -2.120007E-04
        11 -1.869600E-08 -9.515941E-07 -1.428294E-04
        12  9.064675E-09 -5.392904E-07 -1.857078E-04
        13 -6.206444E-09 -6.765025E-07 -2.209022E-04
        14  2.779403E-08 -2.593339E-07 -6.452376E-05
        15  2.205117E-08 -3.988735E-07 -1.267968E-04
        16 -2.703418E-18 -1.982519E-17  1.033976E-25
        17  2.201220E-08 -1.255959E-07 -1.654236E-05
        18 -2.703448E-18  1.982525E-17 -1.033976E-25
        19 -2.779384E-08 -2.593339E-07  6.452376E-05
        20 -2.201214E-08 -1.255959E-07  1.654236E-05
        21 -9.064353E-09 -5.392905E-07  1.857078E-04
        22 -2.205088E-08 -3.988735E-07  1.267968E-04
        23  1.789146E-08 -8.100125E-07  2.120007E-04
        24  6.206740E-09 -6.765026E-07  2.209022E-04
        25  8.983233E-16 -1.119435E-06 -1.527453E-06
        26  1.869612E-08 -9.515941E-07  1.428294E-04
        27 -1.789124E-08 -8.100124E-07  2.120007E-04
        28 -1.869600E-08 -9.515941E-07  1.428294E-04
        29  9.064676E-09 -5.392904E-07  1.857078E-04
        30 -6.206443E-09 -6.765025E-07  2.209022E-04
        31  2.779403E-08 -2.593339E-07  6.452376E-05
        32  2.205117E-08 -3.988735E-07  1.267968E-04
        33  2.703418E-18  1.982512E-17  0.000000E+00
        34  2.201220E-08 -1.255959E-07  1.654236E-05
        35 -4.590639E-13 -8.610985E-04 -6.610279E-07
        36 -2.655548E-13 -3.556064E-04 -1.178485E-06
        37 -6.157920E-13 -1.448989E-03  1.671662E-15
        38 -5.766334E-13 -1.298950E-03 -2.166919E-07
        39 -4.590167E-13 -8.610985E-04  6.610279E-07
        40 -5.765936E-13 -1.298950E-03  2.166919E-07
        41 -2.655245E-13 -3.556064E-04  1.178485E-06

 stresses (elem, integ.pnt.,sxx,syy,szz,sxy,sxz,syz) for set EALL and time  0.1000000E+01

         1   1 -4.584729E-01 -2.237170E+00 -7.226497E-01 -6.155131E-01 -2.830107E-01 -2.049163E-01
         1   2 -2.459297E-01 -1.977648E+00 -3.921406E-01 -6.145956E-01 -1.815984E-01 -3.781301E-02
         1   3 -5.246942E-01 -1.951583E+00 -2.795478E-01 -5.447581E-01 -3.001830E-02 -2.695910E-01
         1   4 -4.628811E-01 -2.232047E+00 -7.228086E-01 -6.238959E-01 -3.313123E-02 -1.320272E-01
         1   5 -2.457281E-01 -1.977389E+00 -3.924335E-01 -6.139567E-01  1.267796E-02  5.100320E-02
         1   6 -5.198210E-01 -1.956089E+00 -2.797681E-01 -5.351221E-01 -3.235101E-02 -1.295958E-01
         1   7 -4.666613E-01 -2.225627E+00 -7.223875E-01 -6.320932E-01  2.181757E-01 -5.342825E-02
         1   8 -2.448986E-01 -1.975834E+00 -3.921449E-01 -6.131328E-01  2.074265E-01  1.417081E-01
         1   9 -5.143237E-01 -1.959302E+00 -2.794071E-01 -5.253020E-01 -3.516678E-02  8.466797E-03
         1  10 -6.437646E-03 -9.788435E-02 -1.203120E-04 -2.432197E-02 -2.820492E-01 -2.015708E-01
         1  11 -6.397075E-03 -9.868627E-02 -5.956888E-05 -2.464134E-02 -1.807285E-01 -3.462663E-02
         1  12 -6.062246E-03 -9.783111E-02  9.946734E-05 -2.443842E-02 -2.931253E-02 -2.665592E-01
         1  13 -6.009593E-03 -9.664243E-02  7.546563E-06 -2.412639E-02 -3.217038E-02 -1.286815E-01
         1  14 -6.140727E-03 -9.752629E-02 -6.568844E-05 -2.438962E-02  1.354828E-02  5.419306E-02
         1  15 -5.915766E-03 -9.665463E-02  1.659789E-04 -2.415519E-02 -3.163966E-02 -1.265585E-01
         1  16 -5.571609E-03 -9.539554E-02  1.421335E-04 -2.392512E-02  2.191360E-01 -5.008202E-02
         1  17 -5.874544E-03 -9.636188E-02 -6.349301E-05 -2.413267E-02  2.082973E-01  1.449017E-01
         1  18 -5.763347E-03 -9.547740E-02  2.405658E-04 -2.386772E-02 -3.444986E-02  1.150981E-02
         1  19  4.456089E-01  2.041480E+00  7.224107E-01  5.668892E-01 -2.827943E-01 -2.050523E-01
         1  20  2.331498E-01  1.780348E+00  3.920277E-01  5.653321E-01 -1.815654E-01 -3.826731E-02
         1  21  5.125757E-01  1.755982E+00  2.797533E-01  4.959029E-01 -3.031353E-02 -2.703545E-01
         1  22  4.508734E-01  2.038840E+00  7.228250E-01  5.756636E-01 -3.291630E-02 -1.321629E-01
         1  23  2.334605E-01  1.782408E+00  3.923080E-01  5.651966E-01  1.271183E-02  5.055587E-02
         1  24  5.079945E-01  1.762841E+00  2.801062E-01  4.868328E-01 -3.263507E-02 -1.303483E-01
         1  25  4.555297E-01  2.034913E+00  7.226729E-01  5.842638E-01  2.183895E-01 -5.356283E-02
         1  26  2.331630E-01  1.783181E+00  3.920235E-01  5.648864E-01  2.074614E-01  1.412683E-01
         1  27  5.028012E-01  1.768408E+00  2.798940E-01  4.775871E-01 -3.543972E-02  7.725759E-03
         2   1  3.646735E-01  3.629860E-01  6.379983E-01 -1.485580E-01  2.565296E-02 -3.167170E-01
         2   2  3.262068E-03  2.229341E-01  1.491603E-01 -9.500883E-02  3.265404E-02 -5.117954E-02
         2   3 -4.355139E-01  4.541009E-02 -3.743473E-01 -3.064126E-02 -6.390674E-02 -2.933485E-01
         2   4  3.629921E-01  3.654469E-01  6.379638E-01 -1.514468E-01 -3.769329E-02 -1.511142E-01
         2   5  4.004905E-03  2.232070E-01  1.492540E-01 -9.373643E-02  2.486473E-02  9.923617E-02
         2   6 -4.323428E-01  4.350822E-02 -3.740856E-01 -2.520869E-02 -3.811086E-02 -1.526271E-01
         2   7  3.609125E-01  3.670737E-01  6.375776E-01 -1.544593E-01 -1.063901E-01 -6.913899E-03
         2   8  4.347061E-03  2.226444E-01  1.489886E-01 -9.258719E-02  1.233403E-02  2.306860E-01
         2   9 -4.295735E-01  4.077058E-02 -3.741881E-01 -1.989886E-02 -1.644719E-02 -2.843491E-02
         2  10 -5.973048E-03 -9.761182E-02  1.247920E-04 -2.435635E-02  2.403442E-02 -3.228443E-01
         2  11 -5.914224E-03 -9.723458E-02  1.939940E-04 -2.441441E-02  3.108446E-02 -5.723199E-02
         2  12 -6.619152E-03 -9.769355E-02 -4.373608E-04 -2.431150E-02 -6.544708E-02 -2.993234E-01
         2  13 -6.203562E-03 -9.721124E-02 -9.251829E-05 -2.421246E-02 -3.931133E-02 -1.572452E-01
         2  14 -5.936381E-03 -9.680612E-02  1.048358E-04 -2.426410E-02  2.329587E-02  9.318339E-02
         2  15 -6.428931E-03 -9.722393E-02 -3.585013E-04 -2.415581E-02 -3.964977E-02 -1.585989E-01
         2  16 -6.438100E-03 -9.682059E-02 -2.961879E-04 -2.407760E-02 -1.080078E-01 -1.304879E-02
         2  17 -5.965062E-03 -9.638901E-02  2.203316E-05 -2.412231E-02  1.076575E-02  2.246327E-01
         2  18 -6.246297E-03 -9.676593E-02 -2.784147E-04 -2.400819E-02 -1.798481E-02 -3.440391E-02
         2  19 -3.766180E-01 -5.582035E-01 -6.377520E-01  9.985539E-02  2.547774E-02 -3.167242E-01
         2  20 -1.508032E-02 -4.173907E-01 -1.487738E-01  4.618845E-02  3.257675E-02 -5.103700E-02
         2  21  4.222960E-01 -2.407789E-01  3.734772E-01 -1.797537E-02 -6.392557E-02 -2.930508E-01
         2  22 -3.753976E-01 -5.598627E-01 -6.381519E-01  1.030318E-01 -3.786752E-02 -1.511288E-01
         2  23 -1.586746E-02 -4.168062E-01 -1.490455E-01  4.521654E-02  2.478886E-02  9.937805E-02
         2  24  4.195054E-01 -2.379374E-01  3.733735E-01 -2.309665E-02 -3.812681E-02 -1.523233E-01
         2  25 -3.737870E-01 -5.607077E-01 -6.381727E-01  1.063138E-01 -1.065636E-01 -6.936237E-03
         2  26 -1.626696E-02 -4.154088E-01 -1.489455E-01  4.435079E-02  1.225933E-02  2.308269E-01
         2  27  4.171013E-01 -2.342833E-01  3.736364E-01 -2.811133E-02 -1.646057E-02 -2.812548E-02
         3   1  5.135426E-01  2.675712E+00  4.693809E-01  4.094809E-01 -6.290231E-02 -2.955595E-01
         3   2 -5.140025E-02  2.390644E+00 -2.382616E-01  5.006024E-01 -5.549254E-02 -2.694968E-02
         3   3 -1.796289E-01  2.317623E+00 -7.524970E-01  5.319467E-01 -3.007677E-01 -2.360075E-01
         3   4  5.193968E-01  2.668625E+00  4.690012E-01  4.210216E-01 -3.807727E-02 -1.524699E-01
         3   5 -5.215369E-02  2.390471E+00 -2.383923E-01  4.991814E-01  2.574797E-02  1.031087E-01
         3   6 -1.870323E-01  2.324277E+00 -7.525838E-01  5.175765E-01 -3.775541E-02 -1.503193E-01
         3   7  5.255904E-01  2.662255E+00  4.689462E-01  4.326517E-01 -1.838417E-02 -2.990888E-02
         3   8 -5.256415E-02  2.391017E+00 -2.381958E-01  4.978497E-01  1.013545E-01  2.106308E-01
         3   9 -1.940885E-01  2.331655E+00 -7.523371E-01  5.032959E-01  2.191208E-01 -8.917541E-02
         3  10 -5.519515E-03 -9.587248E-02  5.766425E-04 -2.402987E-02 -6.486919E-02 -3.032551E-01
         3  11 -6.079213E-03 -9.738793E-02  4.887130E-05 -2.435144E-02 -5.751099E-02 -3.512235E-02
         3  12 -6.988316E-03 -9.588772E-02 -9.041389E-04 -2.364111E-02 -3.027843E-01 -2.447243E-01
         3  13 -5.731738E-03 -9.639014E-02  3.475170E-04 -2.412142E-02 -4.004107E-02 -1.601641E-01
         3  14 -6.025581E-03 -9.786587E-02  6.872038E-05 -2.451648E-02  2.373286E-02  9.493138E-02
         3  15 -6.711057E-03 -9.641274E-02 -8.403391E-04 -2.386738E-02 -3.976214E-02 -1.590486E-01
         3  16 -5.929429E-03 -9.687053E-02  1.419914E-04 -2.421803E-02 -2.034485E-02 -3.760064E-02
         3  17 -5.953801E-03 -9.830357E-02  1.146090E-04 -2.468686E-02  9.934282E-02  2.024495E-01
         3  18 -6.411545E-03 -9.689264E-02 -7.443112E-04 -2.409851E-02  2.171242E-01 -9.791635E-02
         3  19 -5.245820E-01 -2.867369E+00 -4.682461E-01 -4.575161E-01 -6.273886E-02 -2.945619E-01
         3  20  3.924901E-02 -2.585317E+00  2.383660E-01 -5.492763E-01 -5.543223E-02 -2.690617E-02
         3  21  1.656533E-01 -2.509285E+00  7.507223E-01 -5.791939E-01 -3.007037E-01 -2.370523E-01
         3  22 -5.308603E-01 -2.861319E+00 -4.683247E-01 -4.692385E-01 -3.790766E-02 -1.514694E-01
         3  23  4.010989E-02 -2.586101E+00  2.385365E-01 -5.481849E-01  2.581497E-02  1.031429E-01
         3  24  1.736111E-01 -2.516989E+00  7.509368E-01 -5.652765E-01 -3.767163E-02 -1.513890E-01
         3  25 -5.374489E-01 -2.855911E+00 -4.686808E-01 -4.810605E-01 -1.820832E-02 -2.890358E-02
         3  26  4.066410E-02 -2.587523E+00  2.384318E-01 -5.471934E-01  1.014284E-01  2.106572E-01
         3  27  1.812664E-01 -2.525326E+00  7.508823E-01 -5.514584E-01  2.192248E-01 -9.026841E-02
         4   1  3.991651E-01  4.383253E+00  8.466049E-02  8.633832E-01 -1.227780E-01 -1.987118E-01
         4   2  1.223568E-01  4.431582E+00  6.193051E-01  1.013925E+00  3.173200E-01 -2.195289E-01
         4   3  1.945521E+00  5.494011E+00  2.085048E+00  8.753084E-01  1.134331E-01 -2.545095E-01
         4   4  4.187956E-01  4.362965E+00  8.485158E-02  8.996379E-01 -2.324654E-02 -9.266655E-02
         4   5  1.151461E-01  4.437620E+00  6.197998E-01  1.000489E+00 -2.418558E-03 -1.043675E-02
         4   6  1.911204E+00  5.526216E+00  2.084899E+00  8.118611E-01 -2.320731E-02 -9.296296E-02
         4   7  4.378981E-01  4.341531E+00  8.456565E-02  9.357375E-01  7.979002E-02  2.739812E-02
         4   8  1.074227E-01  4.442520E+00  6.198321E-01  9.868956E-01 -3.178042E-01  2.160679E-01
         4   9  1.876361E+00  5.557276E+00  2.084288E+00  7.482593E-01 -1.546469E-01  8.938924E-02
         4  10 -5.171126E-03 -9.363800E-02  6.206687E-04 -2.338456E-02 -1.201940E-01 -1.886959E-01
         4  11 -5.749028E-03 -9.804923E-02 -1.486317E-04 -2.488142E-02  3.194404E-01 -2.102760E-01
         4  12 -6.562679E-03 -9.281831E-02 -1.219896E-03 -2.333438E-02  1.154765E-01 -2.460097E-01
         4  13 -5.360298E-03 -9.495388E-02  5.574573E-04 -2.385772E-02 -2.065865E-02 -8.263453E-02
         4  14 -6.075410E-03 -9.974401E-02  9.159850E-05 -2.497397E-02 -2.996387E-04 -1.198611E-03
         4  15 -7.290423E-03 -9.505137E-02 -1.623306E-03 -2.336668E-02 -2.112954E-02 -8.451836E-02
         4  16 -5.528696E-03 -9.626907E-02  5.260855E-04 -2.432623E-02  8.238133E-02  3.744533E-02
         4  17 -6.365682E-03 -1.014288E-01  3.783616E-04 -2.506464E-02 -3.156869E-01  2.252900E-01
         4  18 -7.996738E-03 -9.728192E-02 -1.980058E-03 -2.339388E-02 -1.525347E-01  9.777682E-02
         4  19 -4.094546E-01 -4.570069E+00 -8.336319E-02 -9.100756E-01 -1.230623E-01 -2.004892E-01
         4  20 -1.337735E-01 -4.627216E+00 -6.195797E-01 -1.063610E+00  3.161086E-01 -2.228322E-01
         4  21 -1.958661E+00 -5.679218E+00 -2.087548E+00 -9.218797E-01  1.120677E-01 -2.593189E-01
         4  22 -4.294619E-01 -4.552415E+00 -8.368102E-02 -9.472721E-01 -2.352306E-02 -9.441169E-02
         4  23 -1.272160E-01 -4.636642E+00 -6.195939E-01 -1.050361E+00 -3.633010E-03 -1.376953E-02
         4  24 -1.925803E+00 -5.715884E+00 -2.088206E+00 -8.585061E-01 -2.450403E-02 -9.788269E-02
         4  25 -4.488995E-01 -4.533613E+00 -8.345808E-02 -9.843044E-01  7.952034E-02  2.568336E-02
         4  26 -1.200735E-01 -4.644911E+00 -6.190527E-01 -1.036950E+00 -3.190220E-01  2.127030E-01
         4  27 -1.892375E+00 -5.751399E+00 -2.088308E+00 -7.949679E-01 -1.558747E-01  8.435548E-02
         5   1  1.945521E+00  5.494011E+00  2.085048E+00 -8.753084E-01 -1.134331E-01 -2.545095E-01
         5   2  1.223568E-01  4.431582E+00  6.193051E-01 -1.013925E+00 -3.173200E-01 -2.195289E-01
         5   3  3.991651E-01  4.383253E+00  8.466049E-02 -8.633832E-01  1.227780E-01 -1.987118E-01
         5   4  1.911204E+00  5.526216E+00  2.084899E+00 -8.118611E-01  2.320731E-02 -9.296296E-02
         5   5  1.151461E-01  4.437620E+00  6.197998E-01 -1.000489E+00  2.418558E-03 -1.043675E-02
         5   6  4.187956E-01  4.362965E+00  8.485158E-02 -8.996379E-01  2.324654E-02 -9.266655E-02
         5   7  1.876361E+00  5.557276E+00  2.084288E+00 -7.482593E-01  1.546469E-01  8.938924E-02
         5   8  1.074227E-01  4.442520E+00  6.198321E-01 -9.868956E-01  3.178042E-01  2.160679E-01
         5   9  4.378981E-01  4.341531E+00  8.456565E-02 -9.357375E-01 -7.979002E-02  2.739812E-02
         5  10 -6.562680E-03 -9.281831E-02 -1.219897E-03  2.333438E-02 -1.154765E-01 -2.460097E-01
         5  11 -5.749028E-03 -9.804923E-02 -1.486317E-04  2.488142E-02 -3.194404E-01 -2.102760E-01
         5  12 -5.171125E-03 -9.363801E-02  6.206691E-04  2.338456E-02  1.201940E-01 -1.886959E-01
         5  13 -7.290423E-03 -9.505137E-02 -1.623306E-03  2.336668E-02  2.112954E-02 -8.451836E-02
         5  14 -6.075410E-03 -9.974401E-02  9.159852E-05  2.497397E-02  2.996387E-04 -1.198611E-03
         5  15 -5.360298E-03 -9.495388E-02  5.574573E-04  2.385772E-02  2.065865E-02 -8.263453E-02
         5  16 -7.996738E-03 -9.728192E-02 -1.980058E-03  2.339388E-02  1.525347E-01  9.777682E-02
         5  17 -6.365682E-03 -1.014288E-01  3.783616E-04  2.506464E-02  3.156869E-01  2.252900E-01
         5  18 -5.528697E-03 -9.626907E-02  5.260852E-04  2.432623E-02 -8.238133E-02  3.744533E-02
         5  19 -1.958661E+00 -5.679218E+00 -2.087548E+00  9.218797E-01 -1.120677E-01 -2.593189E-01
         5  20 -1.337735E-01 -4.627216E+00 -6.195797E-01  1.063610E+00 -3.161086E-01 -2.228322E-01
         5  21 -4.094546E-01 -4.570069E+00 -8.336319E-02  9.100756E-01  1.230623E-01 -2.004892E-01
         5  22 -1.925803E+00 -5.715884E+00 -2.088206E+00  8.585061E-01  2.450403E-02 -9.788269E-02
         5  23 -1.272160E-01 -4.636642E+00 -6.195939E-01  1.050361E+00  3.633010E-03 -1.376953E-02
         5  24 -4.294619E-01 -4.552415E+00 -8.368102E-02  9.472721E-01  2.352306E-02 -9.441169E-02
         5  25 -1.892375E+00 -5.751399E+00 -2.088308E+00  7.949679E-01  1.558747E-01  8.435548E-02
         5  26 -1.200735E-01 -4.644911E+00 -6.190527E-01  1.036950E+00  3.190220E-01  2.127030E-01
         5  27 -4.488995E-01 -4.533613E+00 -8.345808E-02  9.843044E-01 -7.952034E-02  2.568336E-02
         6   1 -1.796289E-01  2.317623E+00 -7.524970E-01 -5.319467E-01  3.007677E-01 -2.360075E-01
         6   2 -5.140025E-02  2.390644E+00 -2.382616E-01 -5.006024E-01  5.549254E-02 -2.694967E-02
         6   3  5.135426E-01  2.675712E+00  4.693809E-01 -4.094809E-01  6.290231E-02 -2.955595E-01
         6   4 -1.870323E-01  2.324277E+00 -7.525838E-01 -5.175765E-01  3.775541E-02 -1.503193E-01
         6   5 -5.215369E-02  2.390471E+00 -2.383923E-01 -4.991814E-01 -2.574797E-02  1.031087E-01
         6   6  5.193968E-01  2.668625E+00  4.690012E-01 -4.210216E-01  3.807727E-02 -1.524699E-01
         6   7 -1.940885E-01  2.331655E+00 -7.523371E-01 -5.032959E-01 -2.191208E-01 -8.917541E-02
         6   8 -5.256415E-02  2.391017E+00 -2.381958E-01 -4.978497E-01 -1.013545E-01  2.106308E-01
         6   9  5.255904E-01  2.662255E+00  4.689462E-01 -4.326517E-01  1.838417E-02 -2.990888E-02
         6  10 -6.988316E-03 -9.588772E-02 -9.041393E-04  2.364111E-02  3.027843E-01 -2.447243E-01
         6  11 -6.079213E-03 -9.738793E-02  4.887141E-05  2.435144E-02  5.751099E-02 -3.512235E-02
         6  12 -5.519514E-03 -9.587248E-02  5.766428E-04  2.402987E-02  6.486919E-02 -3.032551E-01
         6  13 -6.711057E-03 -9.641274E-02 -8.403391E-04  2.386738E-02  3.976214E-02 -1.590486E-01
         6  14 -6.025581E-03 -9.786587E-02  6.872038E-05  2.451648E-02 -2.373286E-02  9.493138E-02
         6  15 -5.731738E-03 -9.639014E-02  3.475170E-04  2.412142E-02  4.004107E-02 -1.601641E-01
         6  16 -6.411545E-03 -9.689264E-02 -7.443108E-04  2.409851E-02 -2.171242E-01 -9.791635E-02
         6  17 -5.953801E-03 -9.830356E-02  1.146089E-04  2.468686E-02 -9.934282E-02  2.024495E-01
         6  18 -5.929430E-03 -9.687053E-02  1.419911E-04  2.421803E-02  2.034485E-02 -3.760064E-02
         6  19  1.656533E-01 -2.509285E+00  7.507223E-01  5.791939E-01  3.007037E-01 -2.370523E-01
         6  20  3.924901E-02 -2.585317E+00  2.383660E-01  5.492763E-01  5.543223E-02 -2.690617E-02
         6  21 -5.245820E-01 -2.867369E+00 -4.682461E-01  4.575161E-01  6.273885E-02 -2.945619E-01
         6  22  1.736111E-01 -2.516989E+00  7.509368E-01  5.652765E-01  3.767163E-02 -1.513890E-01
         6  23  4.010989E-02 -2.586101E+00  2.385365E-01  5.481849E-01 -2.581497E-02  1.031429E-01
         6  24 -5.308603E-01 -2.861319E+00 -4.683247E-01  4.692385E-01  3.790766E-02 -1.514694E-01
         6  25  1.812664E-01 -2.525326E+00  7.508823E-01  5.514584E-01 -2.192248E-01 -9.026841E-02
         6  26  4.066410E-02 -2.587523E+00  2.384318E-01  5.471934E-01 -1.014284E-01  2.106572E-01
         6  27 -5.374489E-01 -2.855911E+00 -4.686808E-01  4.810605E-01  1.820832E-02 -2.890358E-02
         7   1 -4.355139E-01  4.541009E-02 -3.743473E-01  3.064126E-02  6.390674E-02 -2.933485E-01
         7   2  3.262069E-03  2.229341E-01  1.491603E-01  9.500883E-02 -3.265403E-02 -5.117954E-02
         7   3  3.646735E-01  3.629860E-01  6.379983E-01  1.485580E-01 -2.565296E-02 -3.167170E-01
         7   4 -4.323428E-01  4.350822E-02 -3.740856E-01  2.520869E-02  3.811086E-02 -1.526271E-01
         7   5  4.004907E-03  2.232070E-01  1.492540E-01  9.373642E-02 -2.486473E-02  9.923617E-02
         7   6  3.629921E-01  3.654469E-01  6.379638E-01  1.514468E-01  3.769328E-02 -1.511142E-01
         7   7 -4.295735E-01  4.077059E-02 -3.741881E-01  1.989886E-02  1.644720E-02 -2.843491E-02
         7   8  4.347063E-03  2.226444E-01  1.489886E-01  9.258719E-02 -1.233403E-02  2.306860E-01
         7   9  3.609125E-01  3.670737E-01  6.375775E-01  1.544593E-01  1.063901E-01 -6.913902E-03
         7  10 -6.619153E-03 -9.769356E-02 -4.373610E-04  2.431150E-02  6.544708E-02 -2.993234E-01
         7  11 -5.914225E-03 -9.723459E-02  1.939940E-04  2.441441E-02 -3.108446E-02 -5.723199E-02
         7  12 -5.973050E-03 -9.761182E-02  1.247908E-04  2.435635E-02 -2.403442E-02 -3.228443E-01
         7  13 -6.428931E-03 -9.722393E-02 -3.585013E-04  2.415581E-02  3.964977E-02 -1.585989E-01
         7  14 -5.936381E-03 -9.680612E-02  1.048358E-04  2.426410E-02 -2.329587E-02  9.318339E-02
         7  15 -6.203562E-03 -9.721124E-02 -9.251834E-05  2.421246E-02  3.931133E-02 -1.572452E-01
         7  16 -6.246297E-03 -9.676592E-02 -2.784146E-04  2.400819E-02  1.798481E-02 -3.440391E-02
         7  17 -5.965061E-03 -9.638901E-02  2.203321E-05  2.412231E-02 -1.076575E-02  2.246327E-01
         7  18 -6.438098E-03 -9.682058E-02 -2.961868E-04  2.407760E-02  1.080078E-01 -1.304879E-02
         7  19  4.222960E-01 -2.407789E-01  3.734772E-01  1.797538E-02  6.392557E-02 -2.930508E-01
         7  20 -1.508033E-02 -4.173907E-01 -1.487738E-01 -4.618844E-02 -3.257675E-02 -5.103700E-02
         7  21 -3.766180E-01 -5.582035E-01 -6.377520E-01 -9.985538E-02 -2.547774E-02 -3.167242E-01
         7  22  4.195054E-01 -2.379374E-01  3.733735E-01  2.309665E-02  3.812681E-02 -1.523233E-01
         7  23 -1.586746E-02 -4.168062E-01 -1.490455E-01 -4.521654E-02 -2.478886E-02  9.937805E-02
         7  24 -3.753976E-01 -5.598627E-01 -6.381519E-01 -1.030318E-01  3.786752E-02 -1.511288E-01
         7  25  4.171013E-01 -2.342833E-01  3.736364E-01  2.811133E-02  1.646057E-02 -2.812548E-02
         7  26 -1.626696E-02 -4.154088E-01 -1.489455E-01 -4.435079E-02 -1.225933E-02  2.308269E-01
         7  27 -3.737870E-01 -5.607077E-01 -6.381727E-01 -1.063138E-01  1.065635E-01 -6.936240E-03
         8   1 -5.246942E-01 -1.951583E+00 -2.795478E-01  5.447581E-01  3.001830E-02 -2.695910E-01
         8   2 -2.459297E-01 -1.977648E+00 -3.921406E-01  6.145956E-01  1.815984E-01 -3.781304E-02
         8   3 -4.584728E-01 -2.237170E+00 -7.226497E-01  6.155131E-01  2.830108E-01 -2.049164E-01
         8   4 -5.198210E-01 -1.956089E+00 -2.797680E-01  5.351221E-01  3.235101E-02 -1.295958E-01
         8   5 -2.457281E-01 -1.977389E+00 -3.924335E-01  6.139567E-01 -1.267796E-02  5.100320E-02
         8   6 -4.628811E-01 -2.232047E+00 -7.228086E-01  6.238959E-01  3.313122E-02 -1.320272E-01
         8   7 -5.143237E-01 -1.959302E+00 -2.794071E-01  5.253020E-01  3.516678E-02  8.466801E-03
         8   8 -2.448986E-01 -1.975834E+00 -3.921449E-01  6.131328E-01 -2.074265E-01  1.417081E-01
         8   9 -4.666612E-01 -2.225627E+00 -7.223875E-01  6.320932E-01 -2.181757E-01 -5.342820E-02
         8  10 -6.062247E-03 -9.783111E-02  9.946820E-05  2.443842E-02  2.931253E-02 -2.665592E-01
         8  11 -6.397072E-03 -9.868626E-02 -5.956854E-05  2.464134E-02  1.807285E-01 -3.462666E-02
         8  12 -6.437644E-03 -9.788434E-02 -1.203111E-04  2.432197E-02  2.820492E-01 -2.015708E-01
         8  13 -5.915767E-03 -9.665463E-02  1.659789E-04  2.415519E-02  3.163966E-02 -1.265585E-01
         8  14 -6.140725E-03 -9.752629E-02 -6.568845E-05  2.438962E-02 -1.354828E-02  5.419306E-02
         8  15 -6.009594E-03 -9.664242E-02  7.546569E-06  2.412639E-02  3.217037E-02 -1.286815E-01
         8  16 -5.763349E-03 -9.547741E-02  2.405650E-04  2.386772E-02  3.444987E-02  1.150981E-02
         8  17 -5.874544E-03 -9.636189E-02 -6.349337E-05  2.413266E-02 -2.082973E-01  1.449017E-01
         8  18 -5.571614E-03 -9.539555E-02  1.421325E-04  2.392512E-02 -2.191360E-01 -5.008196E-02
         8  19  5.125757E-01  1.755982E+00  2.797532E-01 -4.959029E-01  3.031354E-02 -2.703545E-01
         8  20  2.331498E-01  1.780348E+00  3.920277E-01 -5.653321E-01  1.815654E-01 -3.826733E-02
         8  21  4.456089E-01  2.041480E+00  7.224107E-01 -5.668892E-01  2.827943E-01 -2.050524E-01
         8  22  5.079945E-01  1.762841E+00  2.801062E-01 -4.868328E-01  3.263507E-02 -1.303483E-01
         8  23  2.334605E-01  1.782408E+00  3.923081E-01 -5.651966E-01 -1.271183E-02  5.055586E-02
         8  24  4.508734E-01  2.038841E+00  7.228250E-01 -5.756636E-01  3.291629E-02 -1.321629E-01
         8  25  5.028012E-01  1.768408E+00  2.798939E-01 -4.775871E-01  3.543972E-02  7.725763E-03
         8  26  2.331630E-01  1.783181E+00  3.920235E-01 -5.648864E-01 -2.074614E-01  1.412683E-01
         8  27  4.555297E-01  2.034914E+00  7.226729E-01 -5.842638E-01 -2.183895E-01 -5.356278E-02
         9   1  4.456089E-01  2.041480E+00  7.224107E-01  5.668892E-01  2.827943E-01  2.050523E-01
         9   2  2.331498E-01  1.780348E+00  3.920277E-01  5.653321E-01  1.815654E-01  3.826731E-02
         9   3  5.125757E-01  1.755982E+00  2.797533E-01  4.959029E-01  3.031353E-02  2.703545E-01
         9   4  4.508734E-01  2.038840E+00  7.228250E-01  5.756636E-01  3.291630E-02  1.321629E-01
         9   5  2.334605E-01  1.782408E+00  3.923080E-01  5.651966E-01 -1.271183E-02 -5.055587E-02
         9   6  5.079945E-01  1.762841E+00  2.801062E-01  4.868328E-01  3.263507E-02  1.303483E-01
         9   7  4.555297E-01  2.034913E+00  7.226729E-01  5.842638E-01 -2.183895E-01  5.356283E-02
         9   8  2.331630E-01  1.783181E+00  3.920235E-01  5.648864E-01 -2.074614E-01 -1.412683E-01
         9   9  5.028012E-01  1.768408E+00  2.798940E-01  4.775871E-01  3.543972E-02 -7.725759E-03
         9  10 -6.437646E-03 -9.788435E-02 -1.203118E-04 -2.432197E-02  2.820492E-01  2.015708E-01
         9  11 -6.397075E-03 -9.868627E-02 -5.956880E-05 -2.464134E-02  1.807285E-01  3.462663E-02
         9  12 -6.062246E-03 -9.783111E-02  9.946734E-05 -2.443842E-02  2.931253E-02  2.665592E-01
         9  13 -6.009593E-03 -9.664242E-02  7.546658E-06 -2.412639E-02  3.217038E-02  1.286815E-01
         9  14 -6.140727E-03 -9.752629E-02 -6.568843E-05 -2.438962E-02 -1.354828E-02 -5.419306E-02
         9  15 -5.915766E-03 -9.665463E-02  1.659789E-04 -2.415519E-02  3.163966E-02  1.265585E-01
         9  16 -5.571609E-03 -9.539554E-02  1.421334E-04 -2.392512E-02 -2.191360E-01  5.008202E-02
         9  17 -5.874544E-03 -9.636188E-02 -6.349308E-05 -2.413267E-02 -2.082973E-01 -1.449017E-01
         9  18 -5.763347E-03 -9.547740E-02  2.405657E-04 -2.386772E-02  3.444986E-02 -1.150981E-02
         9  19 -4.584729E-01 -2.237170E+00 -7.226497E-01 -6.155131E-01  2.830107E-01  2.049163E-01
         9  20 -2.459297E-01 -1.977648E+00 -3.921406E-01 -6.145956E-01  1.815984E-01  3.781301E-02
         9  21 -5.246942E-01 -1.951583E+00 -2.795478E-01 -5.447581E-01  3.001830E-02  2.695910E-01
         9  22 -4.628811E-01 -2.232047E+00 -7.228086E-01 -6.238959E-01  3.313123E-02  1.320272E-01
         9  23 -2.457281E-01 -1.977389E+00 -3.924335E-01 -6.139567E-01 -1.267796E-02 -5.100320E-02
         9  24 -5.198210E-01 -1.956089E+00 -2.797681E-01 -5.351221E-01  3.235101E-02  1.295958E-01
         9  25 -4.666613E-01 -2.225627E+00 -7.223875E-01 -6.320932E-01 -2.181757E-01  5.342825E-02
         9  26 -2.448986E-01 -1.975834E+00 -3.921449E-01 -6.131328E-01 -2.074265E-01 -1.417081E-01
         9  27 -5.143237E-01 -1.959302E+00 -2.794071E-01 -5.253020E-01  3.516678E-02 -8.466797E-03
        10   1 -3.766180E-01 -5.582035E-01 -6.377520E-01  9.985539E-02 -2.547774E-02  3.167242E-01
        10   2 -1.508032E-02 -4.173907E-01 -1.487738E-01  4.618845E-02 -3.257675E-02  5.103700E-02
        10   3  4.222960E-01 -2.407789E-01  3.734772E-01 -1.797537E-02  6.392557E-02  2.930508E-01
        10   4 -3.753976E-01 -5.598627E-01 -6.381519E-01  1.030318E-01  3.786752E-02  1.511288E-01
        10   5 -1.586746E-02 -4.168062E-01 -1.490455E-01  4.521654E-02 -2.478886E-02 -9.937805E-02
        10   6  4.195054E-01 -2.379374E-01  3.733735E-01 -2.309665E-02  3.812681E-02  1.523233E-01
        10   7 -3.737870E-01 -5.607077E-01 -6.381727E-01  1.063138E-01  1.065636E-01  6.936237E-03
        10   8 -1.626696E-02 -4.154088E-01 -1.489455E-01  4.435079E-02 -1.225933E-02 -2.308269E-01
        10   9  4.171013E-01 -2.342833E-01  3.736364E-01 -2.811133E-02  1.646057E-02  2.812548E-02
        10  10 -5.973048E-03 -9.761182E-02  1.247920E-04 -2.435635E-02 -2.403442E-02  3.228443E-01
        10  11 -5.914224E-03 -9.723458E-02  1.939940E-04 -2.441441E-02 -3.108446E-02  5.723199E-02
        10  12 -6.619152E-03 -9.769355E-02 -4.373608E-04 -2.431150E-02  6.544708E-02  2.993234E-01
        10  13 -6.203562E-03 -9.721124E-02 -9.251830E-05 -2.421246E-02  3.931133E-02  1.572452E-01
        10  14 -5.936381E-03 -9.680612E-02  1.048358E-04 -2.426410E-02 -2.329587E-02 -9.318339E-02
        10  15 -6.428931E-03 -9.722393E-02 -3.585013E-04 -2.415581E-02  3.964977E-02  1.585989E-01
        10  16 -6.438100E-03 -9.682059E-02 -2.961879E-04 -2.407760E-02  1.080078E-01  1.304879E-02
        10  17 -5.965062E-03 -9.638901E-02  2.203317E-05 -2.412231E-02 -1.076575E-02 -2.246327E-01
        10  18 -6.246297E-03 -9.676593E-02 -2.784147E-04 -2.400819E-02  1.798481E-02  3.440391E-02
        10  19  3.646735E-01  3.629860E-01  6.379983E-01 -1.485580E-01 -2.565296E-02  3.167170E-01
        10  20  3.262068E-03  2.229341E-01  1.491603E-01 -9.500884E-02 -3.265404E-02  5.117954E-02
        10  21 -4.355139E-01  4.541009E-02 -3.743473E-01 -3.064126E-02  6.390674E-02  2.933485E-01
        10  22  3.629921E-01  3.654469E-01  6.379638E-01 -1.514468E-01  3.769329E-02  1.511142E-01
        10  23  4.004905E-03  2.232070E-01  1.492540E-01 -9.373643E-02 -2.486473E-02 -9.923617E-02
        10  24 -4.323428E-01  4.350822E-02 -3.740856E-01 -2.520869E-02  3.811086E-02  1.526271E-01
        10  25  3.609125E-01  3.670737E-01  6.375776E-01 -1.544593E-01  1.063901E-01  6.913899E-03
        10  26  4.347061E-03  2.226444E-01  1.489886E-01 -9.258719E-02 -1.233403E-02 -2.306860E-01
        10  27 -4.295735E-01  4.077058E-02 -3.741881E-01 -1.989886E-02  1.644719E-02  2.843491E-02
        11   1 -5.245820E-01 -2.867369E+00 -4.682461E-01 -4.575161E-01  6.273886E-02  2.945619E-01
        11   2  3.924901E-02 -2.585317E+00  2.383660E-01 -5.492763E-01  5.543223E-02  2.690617E-02
        11   3  1.656533E-01 -2.509285E+00  7.507223E-01 -5.791939E-01  3.007037E-01  2.370523E-01
        11   4 -5.308603E-01 -2.861319E+00 -4.683247E-01 -4.692385E-01  3.790766E-02  1.514694E-01
        11   5  4.010989E-02 -2.586101E+00  2.385365E-01 -5.481849E-01 -2.581497E-02 -1.031429E-01
        11   6  1.736111E-01 -2.516989E+00  7.509368E-01 -5.652765E-01  3.767163E-02  1.513890E-01
        11   7 -5.374489E-01 -2.855911E+00 -4.686808E-01 -4.810605E-01  1.820832E-02  2.890358E-02
        11   8  4.066410E-02 -2.587523E+00  2.384318E-01 -5.471934E-01 -1.014284E-01 -2.106572E-01
        11   9  1.812664E-01 -2.525326E+00  7.508823E-01 -5.514584E-01 -2.192248E-01  9.026841E-02
        11  10 -5.519515E-03 -9.587248E-02  5.766425E-04 -2.402987E-02  6.486919E-02  3.032551E-01
        11  11 -6.079213E-03 -9.738793E-02  4.887130E-05 -2.435144E-02  5.751099E-02  3.512235E-02
        11  12 -6.988316E-03 -9.588772E-02 -9.041389E-04 -2.364111E-02  3.027843E-01  2.447243E-01
        11  13 -5.731738E-03 -9.639014E-02  3.475170E-04 -2.412142E-02  4.004107E-02  1.601641E-01
        11  14 -6.025581E-03 -9.786587E-02  6.872038E-05 -2.451648E-02 -2.373286E-02 -9.493138E-02
        11  15 -6.711057E-03 -9.641274E-02 -8.403391E-04 -2.386738E-02  3.976214E-02  1.590486E-01
        11  16 -5.929429E-03 -9.687053E-02  1.419914E-04 -2.421803E-02  2.034485E-02  3.760064E-02
        11  17 -5.953801E-03 -9.830357E-02  1.146090E-04 -2.468686E-02 -9.934282E-02 -2.024495E-01
        11  18 -6.411545E-03 -9.689264E-02 -7.443112E-04 -2.409851E-02 -2.171242E-01  9.791635E-02
        11  19  5.135426E-01  2.675712E+00  4.693809E-01  4.094809E-01  6.290231E-02  2.955595E-01
        11  20 -5.140025E-02  2.390644E+00 -2.382616E-01  5.006024E-01  5.549254E-02  2.694968E-02
        11  21 -1.796289E-01  2.317623E+00 -7.524970E-01  5.319467E-01  3.007677E-01  2.360075E-01
        11  22  5.193968E-01  2.668625E+00  4.690012E-01  4.210216E-01  3.807727E-02  1.524699E-01
        11  23 -5.215369E-02  2.390471E+00 -2.383923E-01  4.991814E-01 -2.574797E-02 -1.031087E-01
        11  24 -1.870323E-01  2.324277E+00 -7.525838E-01  5.175765E-01  3.775541E-02  1.503193E-01
        11  25  5.255904E-01  2.662255E+00  4.689462E-01  4.326517E-01  1.838417E-02  2.990888E-02
        11  26 -5.256415E-02  2.391017E+00 -2.381958E-01  4.978497E-01 -1.013545E-01 -2.106308E-01
        11  27 -1.940885E-01  2.331655E+00 -7.523371E-01  5.032959E-01 -2.191208E-01  8.917541E-02
        12   1 -4.094546E-01 -4.570069E+00 -8.336319E-02 -9.100756E-01  1.230623E-01  2.004892E-01
        12   2 -1.337735E-01 -4.627216E+00 -6.195797E-01 -1.063610E+00 -3.161086E-01  2.228322E-01
        12   3 -1.958661E+00 -5.679218E+00 -2.087548E+00 -9.218797E-01 -1.120677E-01  2.593189E-01
        12   4 -4.294619E-01 -4.552415E+00 -8.368102E-02 -9.472721E-01  2.352306E-02  9.441169E-02
        12   5 -1.272160E-01 -4.636642E+00 -6.195939E-01 -1.050361E+00  3.633010E-03  1.376953E-02
        12   6 -1.925803E+00 -5.715884E+00 -2.088206E+00 -8.585061E-01  2.450403E-02  9.788269E-02
        12   7 -4.488995E-01 -4.533613E+00 -8.345808E-02 -9.843044E-01 -7.952034E-02 -2.568336E-02
        12   8 -1.200735E-01 -4.644911E+00 -6.190527E-01 -1.036950E+00  3.190220E-01 -2.127030E-01
        12   9 -1.892375E+00 -5.751399E+00 -2.088308E+00 -7.949679E-01  1.558747E-01 -8.435548E-02
        12  10 -5.171126E-03 -9.363800E-02  6.206688E-04 -2.338456E-02  1.201940E-01  1.886959E-01
        12  11 -5.749028E-03 -9.804923E-02 -1.486317E-04 -2.488142E-02 -3.194404E-01  2.102760E-01
        12  12 -6.562679E-03 -9.281831E-02 -1.219896E-03 -2.333438E-02 -1.154765E-01  2.460097E-01
        12  13 -5.360298E-03 -9.495388E-02  5.574573E-04 -2.385772E-02  2.065865E-02  8.263453E-02
        12  14 -6.075410E-03 -9.974401E-02  9.159850E-05 -2.497397E-02  2.996387E-04  1.198611E-03
        12  15 -7.290423E-03 -9.505137E-02 -1.623306E-03 -2.336668E-02  2.112954E-02  8.451836E-02
        12  16 -5.528696E-03 -9.626907E-02  5.260855E-04 -2.432623E-02 -8.238133E-02 -3.744533E-02
        12  17 -6.365682E-03 -1.014288E-01  3.783616E-04 -2.506464E-02  3.156869E-01 -2.252900E-01
        12  18 -7.996738E-03 -9.728192E-02 -1.980058E-03 -2.339388E-02  1.525347E-01 -9.777682E-02
        12  19  3.991651E-01  4.383253E+00  8.466049E-02  8.633832E-01  1.227780E-01  1.987118E-01
        12  20  1.223568E-01  4.431582E+00  6.193051E-01  1.013925E+00 -3.173200E-01  2.195289E-01
        12  21  1.945521E+00  5.494011E+00  2.085048E+00  8.753084E-01 -1.134331E-01  2.545095E-01
        12  22  4.187956E-01  4.362965E+00  8.485158E-02  8.996379E-01  2.324654E-02  9.266655E-02
        12  23  1.151461E-01  4.437620E+00  6.197998E-01  1.000489E+00  2.418558E-03  1.043675E-02
        12  24  1.911204E+00  5.526216E+00  2.084899E+00  8.118611E-01  2.320731E-02  9.296296E-02
        12  25  4.378981E-01  4.341531E+00  8.456565E-02  9.357375E-01 -7.979002E-02 -2.739812E-02
        12  26  1.074227E-01  4.442520E+00  6.198321E-01  9.868956E-01  3.178042E-01 -2.160679E-01
        12  27  1.876361E+00  5.557276E+00  2.084288E+00  7.482593E-01  1.546469E-01 -8.938924E-02
        13   1 -1.958661E+00 -5.679218E+00 -2.087548E+00  9.218797E-01  1.120677E-01  2.593189E-01
        13   2 -1.337735E-01 -4.627216E+00 -6.195797E-01  1.063610E+00  3.161086E-01  2.228322E-01
        13   3 -4.094546E-01 -4.570069E+00 -8.336319E-02  9.100756E-01 -1.230623E-01  2.004892E-01
        13   4 -1.925803E+00 -5.715884E+00 -2.088206E+00  8.585061E-01 -2.450403E-02  9.788269E-02
        13   5 -1.272160E-01 -4.636642E+00 -6.195939E-01  1.050361E+00 -3.633010E-03  1.376953E-02
        13   6 -4.294619E-01 -4.552415E+00 -8.368102E-02  9.472721E-01 -2.352306E-02  9.441169E-02
        13   7 -1.892375E+00 -5.751399E+00 -2.088308E+00  7.949679E-01 -1.558747E-01 -8.435548E-02
        13   8 -1.200735E-01 -4.644911E+00 -6.190527E-01  1.036950E+00 -3.190220E-01 -2.127030E-01
        13   9 -4.488995E-01 -4.533613E+00 -8.345808E-02  9.843044E-01  7.952034E-02 -2.568336E-02
        13  10 -6.562680E-03 -9.281831E-02 -1.219897E-03  2.333438E-02  1.154765E-01  2.460097E-01
        13  11 -5.749028E-03 -9.804923E-02 -1.486317E-04  2.488142E-02  3.194404E-01  2.102760E-01
        13  12 -5.171125E-03 -9.363801E-02  6.206691E-04  2.338456E-02 -1.201940E-01  1.886959E-01
        13  13 -7.290423E-03 -9.505137E-02 -1.623306E-03  2.336668E-02 -2.112954E-02  8.451836E-02
        13  14 -6.075410E-03 -9.974401E-02  9.159852E-05  2.497397E-02 -2.996387E-04  1.198611E-03
        13  15 -5.360298E-03 -9.495388E-02  5.574573E-04  2.385772E-02 -2.065865E-02  8.263453E-02
        13  16 -7.996738E-03 -9.728192E-02 -1.980058E-03  2.339388E-02 -1.525347E-01 -9.777682E-02
        13  17 -6.365682E-03 -1.014288E-01  3.783616E-04  2.506464E-02 -3.156869E-01 -2.252900E-01
        13  18 -5.528697E-03 -9.626907E-02  5.260852E-04  2.432623E-02  8.238133E-02 -3.744533E-02
        13  19  1.945521E+00  5.494011E+00  2.085048E+00 -8.753084E-01  1.134331E-01  2.545095E-01
        13  20  1.223568E-01  4.431582E+00  6.193051E-01 -1.013925E+00  3.173200E-01  2.195289E-01
        13  21  3.991651E-01  4.383253E+00  8.466049E-02 -8.633832E-01 -1.227780E-01  1.987118E-01
        13  22  1.911204E+00  5.526216E+00  2.084899E+00 -8.118611E-01 -2.320731E-02  9.296296E-02
        13  23  1.151461E-01  4.437620E+00  6.197998E-01 -1.000489E+00 -2.418558E-03  1.043675E-02
        13  24  4.187956E-01  4.362965E+00  8.485158E-02 -8.996379E-01 -2.324654E-02  9.266655E-02
        13  25  1.876361E+00  5.557276E+00  2.084288E+00 -7.482593E-01 -1.546469E-01 -8.938924E-02
        13  26  1.074227E-01  4.442520E+00  6.198321E-01 -9.868956E-01 -3.178042E-01 -2.160679E-01
        13  27  4.378981E-01  4.341531E+00  8.456565E-02 -9.357375E-01  7.979002E-02 -2.739812E-02
        14   1  1.656533E-01 -2.509285E+00  7.507223E-01  5.791939E-01 -3.007037E-01  2.370523E-01
        14   2  3.924901E-02 -2.585317E+00  2.383660E-01  5.492763E-01 -5.543223E-02  2.690617E-02
        14   3 -5.245820E-01 -2.867369E+00 -4.682461E-01  4.575161E-01 -6.273885E-02  2.945619E-01
        14   4  1.736111E-01 -2.516989E+00  7.509368E-01  5.652765E-01 -3.767163E-02  1.513890E-01
        14   5  4.010989E-02 -2.586101E+00  2.385365E-01  5.481849E-01  2.581497E-02 -1.031429E-01
        14   6 -5.308603E-01 -2.861319E+00 -4.683247E-01  4.692385E-01 -3.790766E-02  1.514694E-01
        14   7  1.812664E-01 -2.525326E+00  7.508823E-01  5.514584E-01  2.192248E-01  9.026841E-02
        14   8  4.066410E-02 -2.587523E+00  2.384318E-01  5.471934E-01  1.014284E-01 -2.106572E-01
        14   9 -5.374489E-01 -2.855911E+00 -4.686808E-01  4.810605E-01 -1.820832E-02  2.890358E-02
        14  10 -6.988316E-03 -9.588772E-02 -9.041393E-04  2.364111E-02 -3.027843E-01  2.447243E-01
        14  11 -6.079213E-03 -9.738793E-02  4.887141E-05  2.435144E-02 -5.751099E-02  3.512235E-02
        14  12 -5.519514E-03 -9.587248E-02  5.766428E-04  2.402987E-02 -6.486919E-02  3.032551E-01
        14  13 -6.711057E-03 -9.641274E-02 -8.403391E-04  2.386738E-02 -3.976214E-02  1.590486E-01
        14  14 -6.025581E-03 -9.786587E-02  6.872039E-05  2.451648E-02  2.373286E-02 -9.493138E-02
        14  15 -5.731738E-03 -9.639014E-02  3.475170E-04  2.412142E-02 -4.004107E-02  1.601641E-01
        14  16 -6.411545E-03 -9.689264E-02 -7.443108E-04  2.409851E-02  2.171242E-01  9.791635E-02
        14  17 -5.953801E-03 -9.830356E-02  1.146089E-04  2.468686E-02  9.934282E-02 -2.024495E-01
        14  18 -5.929430E-03 -9.687053E-02  1.419911E-04  2.421803E-02 -2.034485E-02  3.760064E-02
        14  19 -1.796289E-01  2.317623E+00 -7.524970E-01 -5.319467E-01 -3.007677E-01  2.360075E-01
        14  20 -5.140025E-02  2.390644E+00 -2.382616E-01 -5.006024E-01 -5.549254E-02  2.694967E-02
        14  21  5.135426E-01  2.675712E+00  4.693809E-01 -4.094809E-01 -6.290231E-02  2.955595E-01
        14  22 -1.870323E-01  2.324277E+00 -7.525838E-01 -5.175765E-01 -3.775541E-02  1.503193E-01
        14  23 -5.215369E-02  2.390471E+00 -2.383923E-01 -4.991814E-01  2.574797E-02 -1.031087E-01
        14  24  5.193968E-01  2.668625E+00  4.690012E-01 -4.210216E-01 -3.807727E-02  1.524699E-01
        14  25 -1.940885E-01  2.331655E+00 -7.523371E-01 -5.032959E-01  2.191208E-01  8.917541E-02
        14  26 -5.256415E-02  2.391017E+00 -2.381958E-01 -4.978497E-01  1.013545E-01 -2.106308E-01
        14  27  5.255904E-01  2.662255E+00  4.689462E-01 -4.326517E-01 -1.838417E-02  2.990888E-02
        15   1  4.222960E-01 -2.407789E-01  3.734772E-01  1.797538E-02 -6.392557E-02  2.930508E-01
        15   2 -1.508033E-02 -4.173907E-01 -1.487738E-01 -4.618844E-02  3.257675E-02  5.103700E-02
        15   3 -3.766180E-01 -5.582035E-01 -6.377520E-01 -9.985538E-02  2.547774E-02  3.167242E-01
        15   4  4.195054E-01 -2.379374E-01  3.733735E-01  2.309665E-02 -3.812681E-02  1.523233E-01
        15   5 -1.586746E-02 -4.168062E-01 -1.490455E-01 -4.521654E-02  2.478886E-02 -9.937805E-02
        15   6 -3.753976E-01 -5.598627E-01 -6.381519E-01 -1.030318E-01 -3.786752E-02  1.511288E-01
        15   7  4.171013E-01 -2.342833E-01  3.736364E-01  2.811133E-02 -1.646057E-02  2.812548E-02
        15   8 -1.626696E-02 -4.154088E-01 -1.489455E-01 -4.435079E-02  1.225933E-02 -2.308269E-01
        15   9 -3.737870E-01 -5.607077E-01 -6.381727E-01 -1.063138E-01 -1.065635E-01  6.936240E-03
        15  10 -6.619153E-03 -9.769356E-02 -4.373610E-04  2.431150E-02 -6.544708E-02  2.993234E-01
        15  11 -5.914225E-03 -9.723459E-02  1.939940E-04  2.441441E-02  3.108446E-02  5.723199E-02
        15  12 -5.973050E-03 -9.761182E-02  1.247907E-04  2.435635E-02  2.403442E-02  3.228443E-01
        15  13 -6.428931E-03 -9.722393E-02 -3.585013E-04  2.415581E-02 -3.964977E-02  1.585989E-01
        15  14 -5.936381E-03 -9.680612E-02  1.048358E-04  2.426410E-02  2.329587E-02 -9.318339E-02
        15  15 -6.203562E-03 -9.721124E-02 -9.251835E-05  2.421246E-02 -3.931133E-02  1.572452E-01
        15  16 -6.246297E-03 -9.676592E-02 -2.784146E-04  2.400819E-02 -1.798481E-02  3.440391E-02
        15  17 -5.965061E-03 -9.638901E-02  2.203321E-05  2.412231E-02  1.076575E-02 -2.246327E-01
        15  18 -6.438098E-03 -9.682058E-02 -2.961868E-04  2.407760E-02 -1.080078E-01  1.304879E-02
        15  19 -4.355139E-01  4.541009E-02 -3.743473E-01  3.064126E-02 -6.390674E-02  2.933485E-01
        15  20  3.262069E-03  2.229341E-01  1.491603E-01  9.500883E-02  3.265403E-02  5.117954E-02
        15  21  3.646735E-01  3.629860E-01  6.379983E-01  1.485580E-01  2.565296E-02  3.167170E-01
        15  22 -4.323428E-01  4.350822E-02 -3.740856E-01  2.520869E-02 -3.811086E-02  1.526271E-01
        15  23  4.004907E-03  2.232070E-01  1.492540E-01  9.373642E-02  2.486473E-02 -9.923617E-02
        15  24  3.629921E-01  3.654469E-01  6.379638E-01  1.514468E-01 -3.769328E-02  1.511142E-01
        15  25 -4.295735E-01  4.077059E-02 -3.741881E-01  1.989886E-02 -1.644720E-02  2.843491E-02
        15  26  4.347063E-03  2.226444E-01  1.489886E-01  9.258719E-02  1.233403E-02 -2.306860E-01
        15  27  3.609125E-01  3.670737E-01  6.375775E-01  1.544593E-01 -1.063901E-01  6.913902E-03
        16   1  5.125757E-01  1.755982E+00  2.797532E-01 -4.959029E-01 -3.031354E-02  2.703545E-01
        16   2  2.331498E-01  1.780348E+00  3.920277E-01 -5.653321E-01 -1.815654E-01  3.826733E-02
        16   3  4.456089E-01  2.041480E+00  7.224107E-01 -5.668892E-01 -2.827943E-01  2.050524E-01
        16   4  5.079945E-01  1.762841E+00  2.801062E-01 -4.868328E-01 -3.263507E-02  1.303483E-01
        16   5  2.334605E-01  1.782408E+00  3.923081E-01 -5.651966E-01  1.271183E-02 -5.055586E-02
        16   6  4.508734E-01  2.038841E+00  7.228250E-01 -5.756636E-01 -3.291629E-02  1.321629E-01
        16   7  5.028012E-01  1.768408E+00  2.798939E-01 -4.775871E-01 -3.543972E-02 -7.725763E-03
        16   8  2.331630E-01  1.783181E+00  3.920235E-01 -5.648864E-01  2.074614E-01 -1.412683E-01
        16   9  4.555297E-01  2.034914E+00  7.226729E-01 -5.842638E-01  2.183895E-01  5.356278E-02
        16  10 -6.062247E-03 -9.783111E-02  9.946820E-05  2.443842E-02 -2.931253E-02  2.665592E-01
        16  11 -6.397072E-03 -9.868626E-02 -5.956847E-05  2.464134E-02 -1.807285E-01  3.462666E-02
        16  12 -6.437644E-03 -9.788434E-02 -1.203108E-04  2.432197E-02 -2.820492E-01  2.015708E-01
        16  13 -5.915767E-03 -9.665463E-02  1.659789E-04  2.415519E-02 -3.163966E-02  1.265585E-01
        16  14 -6.140725E-03 -9.752629E-02 -6.568844E-05  2.438962E-02  1.354828E-02 -5.419306E-02
        16  15 -6.009594E-03 -9.664242E-02  7.546665E-06  2.412639E-02 -3.217037E-02  1.286815E-01
        16  16 -5.763349E-03 -9.547741E-02  2.405650E-04  2.386772E-02 -3.444987E-02 -1.150981E-02
        16  17 -5.874544E-03 -9.636189E-02 -6.349344E-05  2.413266E-02  2.082973E-01 -1.449017E-01
        16  18 -5.571614E-03 -9.539555E-02  1.421324E-04  2.392512E-02  2.191360E-01  5.008196E-02
        16  19 -5.246942E-01 -1.951583E+00 -2.795478E-01  5.447581E-01 -3.001830E-02  2.695910E-01
        16  20 -2.459297E-01 -1.977648E+00 -3.921406E-01  6.145956E-01 -1.815984E-01  3.781304E-02
        16  21 -4.584728E-01 -2.237170E+00 -7.226497E-01  6.155131E-01 -2.830108E-01  2.049164E-01
        16  22 -5.198210E-01 -1.956089E+00 -2.797680E-01  5.351221E-01 -3.235101E-02  1.295958E-01
        16  23 -2.457281E-01 -1.977389E+00 -3.924335E-01  6.139567E-01  1.267796E-02 -5.100320E-02
        16  24 -4.628811E-01 -2.232047E+00 -7.228086E-01  6.238959E-01 -3.313122E-02  1.320272E-01
        16  25 -5.143237E-01 -1.959302E+00 -2.794071E-01  5.253020E-01 -3.516678E-02 -8.466801E-03
        16  26 -2.448986E-01 -1.975834E+00 -3.921449E-01  6.131328E-01  2.074265E-01 -1.417081E-01
        16  27 -4.666612E-01 -2.225627E+00 -7.223875E-01  6.320932E-01  2.181757E-01  5.342820E-02
        17   1 -1.556519E+00 -2.194385E+00 -5.887419E+00 -3.183894E-01 -6.766915E-02  5.808211E-01
        17   2  8.422553E-02 -1.364025E+00 -4.853697E+00 -7.195966E-01 -1.023485E-02 -2.779516E-01
        17   3 -2.035283E+00 -2.144300E+00 -5.415914E+00 -4.761638E-02  4.587860E-02  5.856454E-01
        17   4 -1.557269E+00 -2.195138E+00 -5.889156E+00 -6.144416E-11  2.652320E-11  5.791037E-01
        17   5  8.346005E-02 -1.364810E+00 -4.855420E+00 -1.290793E-10 -2.098694E-11 -2.871697E-01
        17   6 -2.036025E+00 -2.145088E+00 -5.417599E+00  3.347282E-11  2.636297E-11  5.689267E-01
        17   7 -1.556519E+00 -2.194385E+00 -5.887419E+00  3.183894E-01  6.766915E-02  5.808211E-01
        17   8  8.422553E-02 -1.364025E+00 -4.853697E+00  7.195966E-01  1.023485E-02 -2.779516E-01
        17   9 -2.035283E+00 -2.144300E+00 -5.415914E+00  4.761638E-02 -4.587860E-02  5.856454E-01
        17  10  1.614906E-03  2.327547E-03 -9.643765E-02 -3.183311E-01  1.451246E-04  5.833148E-01
        17  11  6.777224E-04  9.506324E-05 -1.035082E-01 -7.195739E-01  1.044454E-03 -2.745429E-01
        17  12 -4.468626E-03 -3.025877E-03 -9.679704E-02 -4.769264E-02  6.221545E-04  5.899887E-01
        17  13  1.615519E-03  2.324188E-03 -9.642379E-02  6.462937E-13  2.090498E-11  5.815986E-01
        17  14  6.623584E-04  6.089494E-05 -1.034810E-01  1.594897E-13 -2.601072E-11 -2.837601E-01
        17  15 -4.460533E-03 -3.063926E-03 -9.673208E-02  4.171376E-13  2.102926E-11  5.732705E-01
        17  16  1.614908E-03  2.327549E-03 -9.643764E-02  3.183311E-01 -1.451245E-04  5.833148E-01
        17  17  6.777228E-04  9.506316E-05 -1.035082E-01  7.195739E-01 -1.044454E-03 -2.745429E-01
        17  18 -4.468626E-03 -3.025877E-03 -9.679703E-02  4.769264E-02 -6.221545E-04  5.899887E-01
        17  19  1.559740E+00  2.199033E+00  5.695013E+00 -3.182729E-01  6.796856E-02  5.865227E-01
        17  20 -8.279109E-02  1.364253E+00  4.647118E+00 -7.195512E-01  1.232392E-02 -2.704200E-01
        17  21  2.026299E+00  2.138217E+00  5.222661E+00 -4.776891E-02 -4.464140E-02  5.950463E-01
        17  22  1.560491E+00  2.199779E+00  5.696777E+00  6.302230E-11  2.331379E-11  5.848078E-01
        17  23 -8.205637E-02  1.364969E+00  4.648896E+00  1.288224E-10 -2.263654E-11 -2.796362E-01
        17  24  2.027057E+00  2.138929E+00  5.224476E+00 -3.176519E-11  2.357337E-11  5.783288E-01
        17  25  1.559740E+00  2.199033E+00  5.695013E+00  3.182729E-01 -6.796856E-02  5.865227E-01
        17  26 -8.279109E-02  1.364253E+00  4.647118E+00  7.195512E-01 -1.232392E-02 -2.704200E-01
        17  27  2.026299E+00  2.138217E+00  5.222661E+00  4.776891E-02  4.464140E-02  5.950463E-01
        18   1  2.316633E+00  3.221684E+00  9.548351E+00  4.552976E-01  2.199574E-02  6.654265E-01
        18   2 -1.526050E-01  6.125289E-01  8.341249E+00  3.698272E-01 -9.107882E-03 -3.499849E-01
        18   3 -1.779920E-01 -9.410063E-01  8.254123E+00 -4.114823E-01 -3.944520E-02  6.504870E-01
        18   4  2.317328E+00  3.222282E+00  9.550092E+00  8.875925E-11  9.247694E-13  6.283129E-01
        18   5 -1.519198E-01  6.131723E-01  8.342959E+00  6.459104E-12  3.250679E-12 -3.795966E-01
        18   6 -1.772841E-01 -9.403105E-01  8.255837E+00 -1.797322E-11 -2.353492E-12  6.283766E-01
        18   7  2.316633E+00  3.221684E+00  9.548351E+00 -4.552976E-01 -2.199574E-02  6.654265E-01
        18   8 -1.526050E-01  6.125289E-01  8.341249E+00 -3.698272E-01  9.107882E-03 -3.499849E-01
        18   9 -1.779920E-01 -9.410063E-01  8.254123E+00  4.114823E-01  3.944520E-02  6.504870E-01
        18  10  4.835740E-03  6.637927E-03 -8.324047E-02  4.552553E-01 -9.947054E-04  6.753819E-01
        18  11 -1.381504E-03 -2.187746E-03 -1.209091E-01  3.698313E-01 -7.006041E-04 -3.362513E-01
        18  12  5.906564E-04  7.055371E-04 -8.248995E-02 -4.115321E-01  3.599178E-04  6.687235E-01
        18  13  4.779919E-03  6.485025E-03 -8.324999E-02  1.008025E-12 -1.579290E-12  6.382709E-01
        18  14 -1.446466E-03 -2.294533E-03 -1.209489E-01 -2.022869E-13  2.129798E-12 -3.658614E-01
        18  15  5.485765E-04  6.511783E-04 -8.252609E-02  2.633421E-13 -1.680836E-12  6.466143E-01
        18  16  4.835740E-03  6.637927E-03 -8.324047E-02 -4.552553E-01  9.947054E-04  6.753819E-01
        18  17 -1.381504E-03 -2.187746E-03 -1.209091E-01 -3.698313E-01  7.006041E-04 -3.362513E-01
        18  18  5.906566E-04  7.055371E-04 -8.248995E-02  4.115321E-01 -3.599178E-04  6.687235E-01
        18  19 -2.307100E+00 -3.208648E+00 -9.713631E+00  4.552130E-01 -2.397640E-02  6.466048E-01
        18  20  1.499826E-01 -6.168578E-01 -8.581636E+00  3.698354E-01  7.707515E-03 -3.612512E-01
        18  21  1.793370E-01  9.427193E-01 -8.417505E+00 -4.115819E-01  4.015774E-02  6.482255E-01
        18  22 -2.307906E+00 -3.209551E+00 -9.715391E+00 -8.794763E-11 -6.731680E-12  6.094963E-01
        18  23  1.491676E-01 -6.177147E-01 -8.583426E+00 -8.413046E-12 -1.194832E-12 -3.908596E-01
        18  24  1.785448E-01  9.419148E-01 -8.419291E+00  1.743529E-11 -3.340038E-12  6.261177E-01
        18  25 -2.307100E+00 -3.208648E+00 -9.713631E+00 -4.552130E-01  2.397640E-02  6.466048E-01
        18  26  1.499826E-01 -6.168578E-01 -8.581636E+00 -3.698354E-01 -7.707515E-03 -3.612512E-01
        18  27  1.793370E-01  9.427193E-01 -8.417505E+00  4.115819E-01 -4.015774E-02  6.482255E-01
        19   1 -1.779920E-01 -9.410063E-01  8.254123E+00 -4.114823E-01  3.944520E-02 -6.504870E-01
        19   2 -1.526050E-01  6.125289E-01  8.341249E+00  3.698272E-01  9.107882E-03  3.499849E-01
        19   3  2.316633E+00  3.221684E+00  9.548351E+00  4.552976E-01 -2.199574E-02 -6.654265E-01
        19   4 -1.772841E-01 -9.403105E-01  8.255837E+00 -1.815888E-11  2.380484E-12 -6.283766E-01
        19   5 -1.519198E-01  6.131723E-01  8.342959E+00  6.213749E-12 -3.287414E-12  3.795966E-01
        19   6  2.317328E+00  3.222282E+00  9.550092E+00  8.822410E-11 -1.066012E-12 -6.283129E-01
        19   7 -1.779920E-01 -9.410063E-01  8.254123E+00  4.114823E-01 -3.944520E-02 -6.504870E-01
        19   8 -1.526050E-01  6.125289E-01  8.341249E+00 -3.698272E-01 -9.107882E-03  3.499849E-01
        19   9  2.316633E+00  3.221684E+00  9.548351E+00 -4.552976E-01  2.199574E-02 -6.654265E-01
        19  10  5.906564E-04  7.055371E-04 -8.248995E-02 -4.115321E-01 -3.599178E-04 -6.687235E-01
        19  11 -1.381504E-03 -2.187746E-03 -1.209091E-01  3.698313E-01  7.006041E-04  3.362513E-01
        19  12  4.835740E-03  6.637927E-03 -8.324047E-02  4.552553E-01  9.947054E-04 -6.753819E-01
        19  13  5.485765E-04  6.511783E-04 -8.252609E-02 -3.580880E-13  1.560247E-12 -6.466143E-01
        19  14 -1.446466E-03 -2.294533E-03 -1.209489E-01  1.589997E-14 -2.034703E-12  3.658614E-01
        19  15  4.779919E-03  6.485025E-03 -8.324999E-02 -1.155247E-14  1.352982E-12 -6.382709E-01
        19  16  5.906566E-04  7.055371E-04 -8.248995E-02  4.115321E-01  3.599178E-04 -6.687235E-01
        19  17 -1.381504E-03 -2.187746E-03 -1.209091E-01 -3.698313E-01 -7.006041E-04  3.362513E-01
        19  18  4.835740E-03  6.637927E-03 -8.324047E-02 -4.552553E-01 -9.947054E-04 -6.753819E-01
        19  19  1.793370E-01  9.427193E-01 -8.417505E+00 -4.115819E-01 -4.015774E-02 -6.482255E-01
        19  20  1.499826E-01 -6.168578E-01 -8.581636E+00  3.698354E-01 -7.707515E-03  3.612512E-01
        19  21 -2.307100E+00 -3.208648E+00 -9.713631E+00  4.552130E-01  2.397640E-02 -6.466048E-01
        19  22  1.785448E-01  9.419148E-01 -8.419291E+00  1.758448E-11  3.138600E-12 -6.261177E-01
        19  23  1.491676E-01 -6.177147E-01 -8.583426E+00 -7.520954E-12  1.464650E-12  3.908596E-01
        19  24 -2.307906E+00 -3.209551E+00 -9.715391E+00 -8.789156E-11  6.512810E-12 -6.094963E-01
        19  25  1.793370E-01  9.427193E-01 -8.417505E+00  4.115819E-01  4.015774E-02 -6.482255E-01
        19  26  1.499826E-01 -6.168578E-01 -8.581636E+00 -3.698354E-01  7.707515E-03  3.612512E-01
        19  27 -2.307100E+00 -3.208648E+00 -9.713631E+00 -4.552130E-01 -2.397640E-02 -6.466048E-01
        20   1 -2.035283E+00 -2.144300E+00 -5.415914E+00 -4.761638E-02 -4.587860E-02 -5.856454E-01
        20   2  8.422553E-02 -1.364025E+00 -4.853697E+00 -7.195966E-01  1.023485E-02  2.779516E-01
        20   3 -1.556519E+00 -2.194385E+00 -5.887419E+00 -3.183894E-01  6.766915E-02 -5.808211E-01
        20   4 -2.036025E+00 -2.145088E+00 -5.417599E+00  3.280751E-11 -2.597232E-11 -5.689267E-01
        20   5  8.346005E-02 -1.364810E+00 -4.855420E+00 -1.292186E-10  2.107311E-11  2.871697E-01
        20   6 -1.557269E+00 -2.195138E+00 -5.889156E+00 -6.169096E-11 -2.669959E-11 -5.791037E-01
        20   7 -2.035283E+00 -2.144300E+00 -5.415914E+00  4.761638E-02  4.587860E-02 -5.856454E-01
        20   8  8.422553E-02 -1.364025E+00 -4.853697E+00  7.195966E-01 -1.023485E-02  2.779516E-01
        20   9 -1.556519E+00 -2.194385E+00 -5.887419E+00  3.183894E-01 -6.766915E-02 -5.808211E-01
        20  10 -4.468626E-03 -3.025877E-03 -9.679704E-02 -4.769264E-02 -6.221545E-04 -5.899887E-01
        20  11  6.777224E-04  9.506325E-05 -1.035082E-01 -7.195739E-01 -1.044454E-03  2.745429E-01
        20  12  1.614906E-03  2.327547E-03 -9.643765E-02 -3.183311E-01 -1.451246E-04 -5.833148E-01
        20  13 -4.460533E-03 -3.063926E-03 -9.673208E-02  2.240595E-13 -2.095206E-11 -5.732705E-01
        20  14  6.623584E-04  6.089494E-05 -1.034810E-01 -3.300664E-13  2.605935E-11  2.837601E-01
        20  15  1.615519E-03  2.324188E-03 -9.642379E-02  5.966226E-13 -2.099870E-11 -5.815986E-01
        20  16 -4.468626E-03 -3.025877E-03 -9.679703E-02  4.769264E-02  6.221545E-04 -5.899887E-01
        20  17  6.777228E-04  9.506316E-05 -1.035082E-01  7.195739E-01  1.044454E-03  2.745429E-01
        20  18  1.614908E-03  2.327549E-03 -9.643764E-02  3.183311E-01  1.451245E-04 -5.833148E-01
        20  19  2.026299E+00  2.138217E+00  5.222661E+00 -4.776891E-02  4.464140E-02 -5.950463E-01
        20  20 -8.279109E-02  1.364253E+00  4.647118E+00 -7.195512E-01 -1.232392E-02  2.704200E-01
        20  21  1.559740E+00  2.199033E+00  5.695013E+00 -3.182729E-01 -6.796856E-02 -5.865227E-01
        20  22  2.027057E+00  2.138929E+00  5.224476E+00 -3.185755E-11 -2.384650E-11 -5.783288E-01
        20  23 -8.205637E-02  1.364969E+00  4.648896E+00  1.291552E-10  2.266565E-11  2.796362E-01
        20  24  1.560491E+00  2.199779E+00  5.696777E+00  6.291520E-11 -2.327885E-11 -5.848078E-01
        20  25  2.026299E+00  2.138217E+00  5.222661E+00  4.776891E-02 -4.464140E-02 -5.950463E-01
        20  26 -8.279109E-02  1.364253E+00  4.647118E+00  7.195512E-01  1.232392E-02  2.704200E-01
        20  27  1.559740E+00  2.199033E+00  5.695013E+00  3.182729E-01  6.796856E-02 -5.865227E-01
