
                        S T E P       1


                                INCREMENT     1


 stresses (elem, integ.pnt.,sxx,syy,szz,sxy,sxz,syz) for set EALL and time  0.1000000E+01

         1   1  2.717999E-01 -4.135142E-03 -4.135463E-03  5.913549E-02  5.913471E-02 -1.668479E-03
         1   2  2.828875E-01  1.434470E-02  1.434469E-02 -4.330420E-09 -6.960306E-07 -1.668325E-03
         1   3  2.717993E-01 -4.135138E-03 -4.134842E-03 -5.913549E-02 -5.913615E-02 -1.668172E-03
         1   4  2.592875E-01 -9.140099E-03 -8.306261E-03  3.464812E-11  5.913474E-02  1.086307E-10
         1   5  2.703751E-01  9.339742E-03  1.017389E-02  2.882902E-11 -6.744444E-07  7.729418E-10
         1   6  2.592869E-01 -9.140095E-03 -8.305639E-03  4.474162E-11 -5.913612E-02  6.208111E-10
         1   7  2.717999E-01 -4.135142E-03 -4.135463E-03 -5.913549E-02  5.913471E-02  1.668480E-03
         1   8  2.828875E-01  1.434470E-02  1.434469E-02  4.340652E-09 -6.960648E-07  1.668325E-03
         1   9  2.717993E-01 -4.135138E-03 -4.134842E-03  5.913549E-02 -5.913615E-02  1.668173E-03
         1  10  2.592867E-01 -8.305946E-03 -9.140105E-03  5.913549E-02 -7.549560E-07 -1.604854E-07
         1  11  2.703746E-01  1.017389E-02  9.339737E-03 -6.022100E-11 -6.765853E-07 -6.279960E-09
         1  12  2.592867E-01 -8.305945E-03 -9.140102E-03 -5.913549E-02 -6.364968E-07  1.484606E-07
         1  13  2.467743E-01 -1.331090E-02 -1.331090E-02 -1.120937E-11 -7.334381E-07  1.135624E-10
         1  14  2.578622E-01  5.168937E-03  5.168938E-03 -2.806380E-11 -6.549648E-07  2.225618E-10
         1  15  2.467743E-01 -1.331090E-02 -1.331090E-02 -1.498800E-11 -6.148763E-07  2.334684E-10
         1  16  2.592867E-01 -8.305946E-03 -9.140106E-03 -5.913549E-02 -7.549902E-07  1.604276E-07
         1  17  2.703746E-01  1.017389E-02  9.339732E-03  2.545683E-11 -6.765169E-07  6.528600E-09
         1  18  2.592867E-01 -8.305946E-03 -9.140105E-03  5.913549E-02 -6.364284E-07 -1.467676E-07
         1  19  2.717983E-01 -4.135157E-03 -4.134833E-03  5.913549E-02 -5.913626E-02  1.668158E-03
         1  20  2.828865E-01  1.434468E-02  1.434469E-02  4.406972E-09 -6.961320E-07  1.668311E-03
         1  21  2.717989E-01 -4.135158E-03 -4.135449E-03 -5.913549E-02  5.913483E-02  1.668465E-03
         1  22  2.592859E-01 -9.140114E-03 -8.305632E-03  8.725663E-11 -5.913624E-02 -3.952608E-11
         1  23  2.703741E-01  9.339726E-03  1.017390E-02 -1.863642E-11 -6.743405E-07 -1.818650E-10
         1  24  2.592865E-01 -9.140115E-03 -8.306248E-03 -8.379714E-11  5.913486E-02 -1.058810E-10
         1  25  2.717983E-01 -4.135157E-03 -4.134835E-03 -5.913549E-02 -5.913626E-02 -1.668159E-03
         1  26  2.828865E-01  1.434468E-02  1.434470E-02 -4.330575E-09 -6.960636E-07 -1.668312E-03
         1  27  2.717989E-01 -4.135158E-03 -4.135452E-03  5.913549E-02  5.913483E-02 -1.668465E-03
         2   1  2.717998E-01 -4.135141E-03 -4.135394E-03  5.913549E-02  5.913487E-02 -1.668445E-03
         2   2  2.828875E-01  1.434469E-02  1.434468E-02 -3.170662E-09 -5.413569E-07 -1.668326E-03
         2   3  2.717993E-01 -4.135145E-03 -4.134916E-03 -5.913549E-02 -5.913599E-02 -1.668208E-03
         2   4  2.592874E-01 -9.140094E-03 -8.306185E-03 -2.395694E-11  5.913489E-02  2.962372E-10
         2   5  2.703751E-01  9.339744E-03  1.017389E-02  1.587510E-11 -5.245341E-07  3.544489E-10
         2   6  2.592869E-01 -9.140100E-03 -8.305718E-03 -6.234881E-12 -5.913597E-02 -1.104780E-09
         2   7  2.717998E-01 -4.135137E-03 -4.135390E-03 -5.913549E-02  5.913487E-02  1.668446E-03
         2   8  2.828875E-01  1.434470E-02  1.434469E-02  3.354043E-09 -5.412884E-07  1.668327E-03
         2   9  2.717993E-01 -4.135133E-03 -4.134905E-03  5.913549E-02 -5.913599E-02  1.668210E-03
         2  10  2.592867E-01 -8.305945E-03 -9.140101E-03  5.913549E-02 -6.007603E-07 -1.266427E-07
         2  11  2.703746E-01  1.017390E-02  9.339741E-03 -2.515498E-11 -5.262637E-07 -6.849303E-09
         2  12  2.592867E-01 -8.305944E-03 -9.140100E-03 -5.913549E-02 -4.820959E-07  1.094095E-07
         2  13  2.467743E-01 -1.331090E-02 -1.331090E-02  2.169899E-11 -5.834928E-07  2.844643E-10
         2  14  2.578622E-01  5.168939E-03  5.168941E-03  1.293179E-11 -5.094751E-07  1.119020E-09
         2  15  2.467743E-01 -1.331090E-02 -1.331090E-02 -2.576709E-11 -4.652389E-07  7.183441E-10
         2  16  2.592867E-01 -8.305944E-03 -9.140102E-03 -5.913549E-02 -6.004867E-07  1.251017E-07
         2  17  2.703746E-01  1.017390E-02  9.339742E-03  4.757079E-11 -5.261611E-07  8.853753E-09
         2  18  2.592867E-01 -8.305941E-03 -9.140100E-03  5.913549E-02 -4.818564E-07 -1.110849E-07
         2  19  2.717984E-01 -4.135153E-03 -4.134894E-03  5.913549E-02 -5.913611E-02  1.668193E-03
         2  20  2.828865E-01  1.434469E-02  1.434472E-02  3.305693E-09 -5.414243E-07  1.668314E-03
         2  21  2.717989E-01 -4.135150E-03 -4.135368E-03 -5.913549E-02  5.913499E-02  1.668431E-03
         2  22  2.592860E-01 -9.140110E-03 -8.305693E-03  5.131827E-11 -5.913609E-02  4.095198E-10
         2  23  2.703741E-01  9.339732E-03  1.017391E-02 -1.501769E-11 -5.246015E-07  1.473106E-09
         2  24  2.592865E-01 -9.140113E-03 -8.306176E-03 -4.168451E-11  5.913501E-02  6.087671E-10
         2  25  2.717984E-01 -4.135152E-03 -4.134892E-03 -5.913549E-02 -5.913610E-02 -1.668192E-03
         2  26  2.828865E-01  1.434469E-02  1.434470E-02 -3.331527E-09 -5.414243E-07 -1.668312E-03
         2  27  2.717989E-01 -4.135151E-03 -4.135365E-03  5.913549E-02  5.913499E-02 -1.668430E-03
         3   1  2.717997E-01 -4.135146E-03 -4.135324E-03  5.913549E-02  5.913503E-02 -1.668412E-03
         3   2  2.828875E-01  1.434470E-02  1.434469E-02 -2.345538E-09 -3.865963E-07 -1.668324E-03
         3   3  2.717994E-01 -4.135149E-03 -4.134997E-03 -5.913549E-02 -5.913583E-02 -1.668239E-03
         3   4  2.592874E-01 -9.140097E-03 -8.306119E-03 -1.615457E-10  5.913504E-02 -6.411023E-10
         3   5  2.703751E-01  9.339745E-03  1.017389E-02  8.611285E-12 -3.744515E-07  2.340582E-09
         3   6  2.592870E-01 -9.140104E-03 -8.305797E-03  1.140477E-10 -5.913582E-02  8.839966E-10
         3   7  2.717997E-01 -4.135139E-03 -4.135331E-03 -5.913549E-02  5.913503E-02  1.668410E-03
         3   8  2.828875E-01  1.434471E-02  1.434470E-02  2.351034E-09 -3.866819E-07  1.668331E-03
         3   9  2.717994E-01 -4.135136E-03 -4.134979E-03  5.913549E-02 -5.913583E-02  1.668242E-03
         3  10  2.592867E-01 -8.305948E-03 -9.140104E-03  5.913549E-02 -4.461700E-07 -9.108672E-08
         3  11  2.703746E-01  1.017390E-02  9.339742E-03  3.860568E-11 -3.758213E-07 -5.769342E-09
         3  12  2.592867E-01 -8.305946E-03 -9.140105E-03 -5.913549E-02 -3.269754E-07  8.081691E-08
         3  13  2.467743E-01 -1.331090E-02 -1.331090E-02 -8.019798E-11 -4.335292E-07  1.003028E-09
         3  14  2.578622E-01  5.168939E-03  5.168939E-03  5.923954E-11 -3.638475E-07  1.917668E-09
         3  15  2.467743E-01 -1.331090E-02 -1.331090E-02  1.964978E-10 -3.148648E-07  1.370057E-09
         3  16  2.592867E-01 -8.305944E-03 -9.140103E-03 -5.913549E-02 -4.454175E-07  9.318758E-08
         3  17  2.703746E-01  1.017390E-02  9.339737E-03  5.139684E-11 -3.757871E-07  1.036351E-08
         3  18  2.592867E-01 -8.305943E-03 -9.140100E-03  5.913549E-02 -3.274372E-07 -7.720125E-08
         3  19  2.717985E-01 -4.135150E-03 -4.134963E-03  5.913549E-02 -5.913595E-02  1.668224E-03
         3  20  2.828865E-01  1.434469E-02  1.434472E-02  2.395904E-09 -3.866812E-07  1.668310E-03
         3  21  2.717988E-01 -4.135148E-03 -4.135299E-03 -5.913549E-02  5.913515E-02  1.668396E-03
         3  22  2.592861E-01 -9.140109E-03 -8.305762E-03 -1.413744E-11 -5.913593E-02  1.826187E-09
         3  23  2.703741E-01  9.339728E-03  1.017390E-02 -2.104428E-11 -3.744679E-07  4.001278E-10
         3  24  2.592864E-01 -9.140106E-03 -8.306095E-03  1.253641E-11  5.913516E-02  2.825910E-10
         3  25  2.717985E-01 -4.135159E-03 -4.134977E-03 -5.913549E-02 -5.913595E-02 -1.668223E-03
         3  26  2.828865E-01  1.434468E-02  1.434470E-02 -2.406293E-09 -3.865443E-07 -1.668312E-03
         3  27  2.717988E-01 -4.135161E-03 -4.135320E-03  5.913549E-02  5.913515E-02 -1.668396E-03
         4   1  2.717997E-01 -4.135122E-03 -4.135229E-03  5.913549E-02  5.913519E-02 -1.668371E-03
         4   2  2.828875E-01  1.434471E-02  1.434470E-02 -1.293203E-09 -2.317201E-07 -1.668325E-03
         4   3  2.717995E-01 -4.135140E-03 -4.135051E-03 -5.913549E-02 -5.913567E-02 -1.668282E-03
         4   4  2.592873E-01 -9.140079E-03 -8.306024E-03  3.561995E-11  5.913520E-02  3.290444E-09
         4   5  2.703751E-01  9.339763E-03  1.017393E-02  2.325027E-11 -2.247317E-07  3.983580E-09
         4   6  2.592871E-01 -9.140089E-03 -8.305836E-03  8.989410E-11 -5.913566E-02 -3.352897E-10
         4   7  2.717997E-01 -4.135134E-03 -4.135248E-03 -5.913549E-02  5.913519E-02  1.668379E-03
         4   8  2.828875E-01  1.434471E-02  1.434471E-02  1.447548E-09 -2.319510E-07  1.668333E-03
         4   9  2.717995E-01 -4.135137E-03 -4.135055E-03  5.913549E-02 -5.913567E-02  1.668281E-03
         4  10  2.592867E-01 -8.305930E-03 -9.140076E-03  5.913549E-02 -2.915752E-07 -5.678689E-08
         4  11  2.703746E-01  1.017391E-02  9.339765E-03 -8.404839E-11 -2.254338E-07 -4.973453E-09
         4  12  2.592867E-01 -8.305938E-03 -9.140089E-03 -5.913549E-02 -1.715596E-07  4.576964E-08
         4  13  2.467743E-01 -1.331089E-02 -1.331088E-02 -9.455234E-11 -2.842790E-07  1.514373E-09
         4  14  2.578622E-01  5.168951E-03  5.168967E-03 -9.770380E-11 -2.182659E-07  2.428107E-09
         4  15  2.467743E-01 -1.331089E-02 -1.331088E-02 -9.056996E-11 -1.652554E-07  2.263653E-09
         4  16  2.592867E-01 -8.305939E-03 -9.140087E-03 -5.913549E-02 -2.912160E-07  5.910776E-08
         4  17  2.703746E-01  1.017390E-02  9.339750E-03 -4.429621E-11 -2.254423E-07  4.854733E-09
         4  18  2.592867E-01 -8.305936E-03 -9.140087E-03  5.913549E-02 -1.726884E-07 -4.432705E-08
         4  19  2.717985E-01 -4.135141E-03 -4.135020E-03  5.913549E-02 -5.913579E-02  1.668255E-03
         4  20  2.828866E-01  1.434471E-02  1.434474E-02  1.475237E-09 -2.319163E-07  1.668310E-03
         4  21  2.717987E-01 -4.135141E-03 -4.135220E-03 -5.913549E-02  5.913531E-02  1.668365E-03
         4  22  2.592861E-01 -9.140101E-03 -8.305819E-03  8.401622E-11 -5.913578E-02 -1.356325E-09
         4  23  2.703742E-01  9.339739E-03  1.017392E-02 -3.557305E-12 -2.246800E-07  8.726348E-10
         4  24  2.592864E-01 -9.140099E-03 -8.306017E-03 -1.647708E-10  5.913532E-02  2.194442E-09
         4  25  2.717985E-01 -4.135144E-03 -4.135013E-03 -5.913549E-02 -5.913579E-02 -1.668262E-03
         4  26  2.828865E-01  1.434470E-02  1.434472E-02 -1.429606E-09 -2.319848E-07 -1.668310E-03
         4  27  2.717987E-01 -4.135149E-03 -4.135236E-03  5.913549E-02  5.913531E-02 -1.668360E-03
         5   1  2.717999E-01 -4.134971E-03 -4.134904E-03  5.913549E-02  5.913535E-02 -1.668349E-03
         5   2  2.828878E-01  1.434488E-02  1.434499E-02 -6.457731E-10 -7.717249E-08 -1.668325E-03
         5   3  2.717998E-01 -4.134954E-03 -4.134824E-03 -5.913549E-02 -5.913551E-02 -1.668310E-03
         5   4  2.592875E-01 -9.139918E-03 -8.305688E-03 -2.319450E-10  5.913535E-02 -3.046727E-09
         5   5  2.703754E-01  9.339926E-03  1.017419E-02 -3.004753E-11 -7.464730E-08  7.535936E-10
         5   6  2.592874E-01 -9.139920E-03 -8.305633E-03  7.840943E-11 -5.913551E-02  8.472062E-10
         5   7  2.717999E-01 -4.134954E-03 -4.134883E-03 -5.913549E-02  5.913535E-02  1.668349E-03
         5   8  2.828878E-01  1.434488E-02  1.434498E-02  4.175645E-10 -7.724946E-08  1.668328E-03
         5   9  2.717998E-01 -4.134967E-03 -4.134838E-03  5.913549E-02 -5.913551E-02  1.668311E-03
         5  10  2.592870E-01 -8.305773E-03 -9.139816E-03  5.913549E-02 -1.369541E-07 -2.583165E-08
         5  11  2.703749E-01  1.017407E-02  9.340027E-03  2.278234E-12 -7.505369E-08 -7.105902E-09
         5  12  2.592870E-01 -8.305768E-03 -9.139810E-03 -5.913549E-02 -1.772098E-08  9.860319E-09
         5  13  2.467746E-01 -1.331073E-02 -1.331061E-02 -1.544068E-10 -1.341937E-07  6.043048E-10
         5  14  2.578625E-01  5.169118E-03  5.169239E-03  3.113267E-11 -7.266960E-08  1.246677E-09
         5  15  2.467746E-01 -1.331073E-02 -1.331061E-02  2.177412E-10 -1.602531E-08  5.426303E-10
         5  16  2.592870E-01 -8.305771E-03 -9.139817E-03 -5.913549E-02 -1.366163E-07  2.387555E-08
         5  17  2.703749E-01  1.017407E-02  9.340027E-03  2.308639E-12 -7.522900E-08  1.284479E-08
         5  18  2.592870E-01 -8.305771E-03 -9.139813E-03  5.913549E-02 -1.803739E-08 -1.054444E-08
         5  19  2.717989E-01 -4.134970E-03 -4.134795E-03  5.913549E-02 -5.913563E-02  1.668293E-03
         5  20  2.828868E-01  1.434487E-02  1.434502E-02  6.278469E-10 -7.738615E-08  1.668314E-03
         5  21  2.717990E-01 -4.134983E-03 -4.134881E-03 -5.913549E-02  5.913547E-02  1.668330E-03
         5  22  2.592865E-01 -9.139931E-03 -8.305600E-03 -1.706560E-11 -5.913563E-02  1.504847E-10
         5  23  2.703744E-01  9.339902E-03  1.017419E-02  8.524555E-11 -7.479255E-08  9.187893E-10
         5  24  2.592866E-01 -9.139938E-03 -8.305677E-03  2.779155E-10  5.913547E-02  7.853680E-10
         5  25  2.717989E-01 -4.134981E-03 -4.134813E-03 -5.913549E-02 -5.913563E-02 -1.668289E-03
         5  26  2.828868E-01  1.434486E-02  1.434499E-02 -3.923998E-10 -7.739043E-08 -1.668307E-03
         5  27  2.717990E-01 -4.134971E-03 -4.134859E-03  5.913549E-02  5.913547E-02 -1.668326E-03
         6   1  2.717996E-01 -4.135120E-03 -4.135092E-03  5.913549E-02  5.913551E-02 -1.668311E-03
         6   2  2.828875E-01  1.434472E-02  1.434471E-02  5.054900E-10  7.758116E-08 -1.668327E-03
         6   3  2.717996E-01 -4.135129E-03 -4.135177E-03 -5.913549E-02 -5.913535E-02 -1.668351E-03
         6   4  2.592872E-01 -9.140071E-03 -8.305877E-03 -1.112509E-10  5.913551E-02 -1.872874E-09
         6   5  2.703751E-01  9.339761E-03  1.017391E-02  7.843895E-12  7.512794E-08 -1.515634E-09
         6   6  2.592873E-01 -9.140074E-03 -8.305952E-03  1.444322E-10 -5.913535E-02 -3.596862E-09
         6   7  2.717996E-01 -4.135118E-03 -4.135089E-03 -5.913549E-02  5.913551E-02  1.668314E-03
         6   8  2.828875E-01  1.434473E-02  1.434473E-02 -4.555430E-10  7.755123E-08  1.668327E-03
         6   9  2.717996E-01 -4.135119E-03 -4.135162E-03  5.913549E-02 -5.913535E-02  1.668346E-03
         6  10  2.592867E-01 -8.305923E-03 -9.140068E-03  5.913549E-02  1.845454E-08  1.036504E-08
         6  11  2.703747E-01  1.017392E-02  9.339771E-03 -4.805848E-11  7.544503E-08 -6.972897E-09
         6  12  2.592867E-01 -8.305923E-03 -9.140067E-03 -5.913549E-02  1.368710E-07 -2.673004E-08
         6  13  2.467744E-01 -1.331088E-02 -1.331086E-02 -2.190287E-10  1.593719E-08  1.349169E-09
         6  14  2.578623E-01  5.168963E-03  5.168977E-03 -6.109541E-11  7.298326E-08  6.030553E-10
         6  15  2.467744E-01 -1.331088E-02 -1.331086E-02  9.679690E-11  1.339218E-07  8.662750E-11
         6  16  2.592867E-01 -8.305920E-03 -9.140065E-03 -5.913549E-02  1.817233E-08 -8.662402E-09
         6  17  2.703747E-01  1.017392E-02  9.339776E-03 -6.322491E-11  7.535951E-08  1.025220E-08
         6  18  2.592867E-01 -8.305921E-03 -9.140067E-03  5.913549E-02  1.366144E-07  2.684591E-08
         6  19  2.717987E-01 -4.135146E-03 -4.135163E-03  5.913549E-02 -5.913547E-02  1.668329E-03
         6  20  2.828866E-01  1.434471E-02  1.434475E-02 -4.300151E-10  7.759812E-08  1.668311E-03
         6  21  2.717986E-01 -4.135122E-03 -4.135042E-03 -5.913549E-02  5.913563E-02  1.668296E-03
         6  22  2.592863E-01 -9.140098E-03 -8.305952E-03 -3.195199E-11 -5.913547E-02 -9.019234E-10
         6  23  2.703742E-01  9.339752E-03  1.017394E-02  7.758477E-11  7.525181E-08  8.061470E-10
         6  24  2.592862E-01 -9.140085E-03 -8.305854E-03  1.709909E-10  5.913563E-02  2.538661E-09
         6  25  2.717987E-01 -4.135127E-03 -4.135125E-03 -5.913549E-02 -5.913547E-02 -1.668328E-03
         6  26  2.828866E-01  1.434471E-02  1.434474E-02  5.539311E-10  7.755964E-08 -1.668305E-03
         6  27  2.717986E-01 -4.135128E-03 -4.135058E-03  5.913549E-02  5.913563E-02 -1.668291E-03
         7   1  2.718008E-01 -4.134342E-03 -4.133713E-03  5.913549E-02  5.913567E-02 -1.668275E-03
         7   2  2.828888E-01  1.434549E-02  1.434601E-02  1.426537E-09  2.319656E-07 -1.668326E-03
         7   3  2.718010E-01 -4.134340E-03 -4.133924E-03 -5.913549E-02 -5.913519E-02 -1.668382E-03
         7   4  2.592884E-01 -9.139305E-03 -8.304533E-03  1.725592E-10  5.913566E-02 -5.429792E-10
         7   5  2.703764E-01  9.340541E-03  1.017522E-02  6.080142E-11  2.248475E-07  1.417018E-10
         7   6  2.592886E-01 -9.139300E-03 -8.304730E-03  4.559684E-11 -5.913520E-02 -1.794165E-10
         7   7  2.718008E-01 -4.134343E-03 -4.133729E-03 -5.913549E-02  5.913567E-02  1.668277E-03
         7   8  2.828888E-01  1.434550E-02  1.434601E-02 -1.415543E-09  2.319656E-07  1.668329E-03
         7   9  2.718010E-01 -4.134344E-03 -4.133934E-03  5.913549E-02 -5.913519E-02  1.668381E-03
         7  10  2.592880E-01 -8.305149E-03 -9.138774E-03  5.913549E-02  1.732418E-07  4.335017E-08
         7  11  2.703759E-01  1.017469E-02  9.341063E-03  3.723066E-11  2.254556E-07 -7.675118E-09
         7  12  2.592880E-01 -8.305144E-03 -9.138767E-03 -5.913549E-02  2.903926E-07 -5.846040E-08
         7  13  2.467756E-01 -1.331010E-02 -1.330957E-02  4.195761E-11  1.656191E-07  1.105206E-10
         7  14  2.578635E-01  5.169734E-03  5.170265E-03  5.152790E-11  2.182605E-07 -4.238285E-10
         7  15  2.467756E-01 -1.331010E-02 -1.330957E-02  4.159185E-11  2.840099E-07 -2.878290E-10
         7  16  2.592880E-01 -8.305143E-03 -9.138767E-03 -5.913549E-02  1.731648E-07 -4.133935E-08
         7  17  2.703759E-01  1.017469E-02  9.341063E-03  4.395173E-13  2.256438E-07  5.053773E-09
         7  18  2.592880E-01 -8.305148E-03 -9.138771E-03  5.913549E-02  2.910767E-07  5.815755E-08
         7  19  2.718001E-01 -4.134353E-03 -4.133899E-03  5.913549E-02 -5.913531E-02  1.668366E-03
         7  20  2.828879E-01  1.434549E-02  1.434604E-02 -1.525147E-09  2.318455E-07  1.668316E-03
         7  21  2.717999E-01 -4.134355E-03 -4.133710E-03 -5.913549E-02  5.913579E-02  1.668257E-03
         7  22  2.592877E-01 -9.139310E-03 -8.304699E-03 -1.435633E-10 -5.913532E-02  1.311334E-09
         7  23  2.703755E-01  9.340531E-03  1.017524E-02  4.593913E-12  2.246333E-07  9.262388E-10
         7  24  2.592875E-01 -9.139314E-03 -8.304507E-03  2.326467E-11  5.913578E-02 -2.106597E-09
         7  25  2.718001E-01 -4.134354E-03 -4.133904E-03 -5.913549E-02 -5.913531E-02 -1.668365E-03
         7  26  2.828879E-01  1.434548E-02  1.434603E-02  1.463932E-09  2.319054E-07 -1.668312E-03
         7  27  2.717999E-01 -4.134362E-03 -4.133717E-03  5.913549E-02  5.913579E-02 -1.668262E-03
         8   1  2.718028E-01 -4.133082E-03 -4.131555E-03  5.913549E-02  5.913583E-02 -1.668247E-03
         8   2  2.828909E-01  1.434677E-02  1.434814E-02  2.208132E-09  3.864555E-07 -1.668323E-03
         8   3  2.718032E-01 -4.133076E-03 -4.131884E-03 -5.913549E-02 -5.913503E-02 -1.668416E-03
         8   4  2.592905E-01 -9.138026E-03 -8.302325E-03 -1.156376E-10  5.913581E-02  7.377967E-10
         8   5  2.703785E-01  9.341819E-03  1.017735E-02 -9.152091E-11  3.746866E-07  2.810839E-09
         8   6  2.592908E-01 -9.138030E-03 -8.302677E-03 -8.400465E-11 -5.913505E-02  7.213735E-10
         8   7  2.718029E-01 -4.133069E-03 -4.131529E-03 -5.913549E-02  5.913583E-02  1.668247E-03
         8   8  2.828909E-01  1.434677E-02  1.434813E-02 -2.470962E-09  3.865068E-07  1.668329E-03
         8   9  2.718032E-01 -4.133071E-03 -4.131876E-03  5.913549E-02 -5.913503E-02  1.668418E-03
         8  10  2.592902E-01 -8.303877E-03 -9.136660E-03  5.913549E-02  3.269714E-07  7.656471E-08
         8  11  2.703781E-01  1.017596E-02  9.343184E-03  6.720129E-11  3.760906E-07 -2.973246E-09
         8  12  2.592902E-01 -8.303881E-03 -9.136663E-03 -5.913549E-02  4.459950E-07 -9.092199E-08
         8  13  2.467778E-01 -1.330883E-02 -1.330745E-02  2.699735E-11  3.147749E-07  1.358097E-09
         8  14  2.578657E-01  5.171004E-03  5.172383E-03  3.153947E-11  3.639967E-07  2.711898E-09
         8  15  2.467778E-01 -1.330884E-02 -1.330746E-02  3.390303E-11  4.341918E-07  1.545132E-09
         8  16  2.592901E-01 -8.303883E-03 -9.136666E-03 -5.913549E-02  3.274332E-07 -7.519595E-08
         8  17  2.703781E-01  1.017596E-02  9.343175E-03  2.783767E-11  3.758340E-07  8.514198E-09
         8  18  2.592902E-01 -8.303880E-03 -9.136659E-03  5.913549E-02  4.461489E-07  9.511510E-08
         8  19  2.718022E-01 -4.133077E-03 -4.131846E-03  5.913549E-02 -5.913515E-02  1.668395E-03
         8  20  2.828900E-01  1.434677E-02  1.434818E-02 -2.406825E-09  3.864377E-07  1.668308E-03
         8  21  2.718019E-01 -4.133080E-03 -4.131512E-03 -5.913549E-02  5.913595E-02  1.668225E-03
         8  22  2.592898E-01 -9.138051E-03 -8.302675E-03  8.590137E-11 -5.913516E-02 -2.126455E-09
         8  23  2.703776E-01  9.341792E-03  1.017734E-02  3.196436E-11  3.747201E-07  1.500459E-10
         8  24  2.592895E-01 -9.138048E-03 -8.302330E-03 -5.032849E-11  5.913593E-02  1.796360E-10
         8  25  2.718022E-01 -4.133093E-03 -4.131867E-03 -5.913549E-02 -5.913515E-02 -1.668394E-03
         8  26  2.828900E-01  1.434674E-02  1.434813E-02  2.469246E-09  3.864548E-07 -1.668312E-03
         8  27  2.718019E-01 -4.133095E-03 -4.131534E-03  5.913549E-02  5.913595E-02 -1.668227E-03
         9   1  2.717994E-01 -4.135095E-03 -4.134837E-03  5.913549E-02  5.913599E-02 -1.668211E-03
         9   2  2.828876E-01  1.434474E-02  1.434475E-02  3.338332E-09  5.408534E-07 -1.668332E-03
         9   3  2.717999E-01 -4.135104E-03 -4.135338E-03 -5.913549E-02 -5.913487E-02 -1.668449E-03
         9   4  2.592870E-01 -9.140053E-03 -8.305639E-03  2.366583E-10  5.913597E-02 -1.270915E-09
         9   5  2.703752E-01  9.339795E-03  1.017398E-02  1.702183E-11  5.243061E-07  3.651607E-09
         9   6  2.592875E-01 -9.140049E-03 -8.306113E-03 -1.723014E-10 -5.913489E-02 -2.878310E-10
         9   7  2.717994E-01 -4.135097E-03 -4.134847E-03 -5.913549E-02  5.913599E-02  1.668210E-03
         9   8  2.828876E-01  1.434475E-02  1.434476E-02 -3.326370E-09  5.409218E-07  1.668332E-03
         9   9  2.717999E-01 -4.135091E-03 -4.135319E-03  5.913549E-02 -5.913487E-02  1.668448E-03
         9  10  2.592868E-01 -8.305902E-03 -9.140037E-03  5.913549E-02  4.817977E-07  1.118540E-07
         9  11  2.703747E-01  1.017394E-02  9.339823E-03  4.241241E-11  5.262408E-07 -6.838457E-09
         9  12  2.592868E-01 -8.305899E-03 -9.140019E-03 -5.913549E-02  6.008042E-07 -1.262860E-07
         9  13  2.467744E-01 -1.331086E-02 -1.331083E-02 -1.664561E-10  4.653530E-07 -8.582511E-10
         9  14  2.578623E-01  5.168982E-03  5.169016E-03 -9.501463E-11  5.094541E-07 -8.152338E-11
         9  15  2.467744E-01 -1.331085E-02 -1.331081E-02 -2.571085E-11  5.827517E-07 -4.530542E-10
         9  16  2.592868E-01 -8.305896E-03 -9.140019E-03 -5.913549E-02  4.817977E-07 -1.131302E-07
         9  17  2.703747E-01  1.017394E-02  9.339807E-03 -1.668515E-10  5.261724E-07  4.996658E-09
         9  18  2.592868E-01 -8.305902E-03 -9.140028E-03  5.913549E-02  6.005990E-07  1.228135E-07
         9  19  2.717989E-01 -4.135104E-03 -4.135293E-03  5.913549E-02 -5.913499E-02  1.668429E-03
         9  20  2.828866E-01  1.434474E-02  1.434479E-02 -3.421672E-09  5.411261E-07  1.668312E-03
         9  21  2.717985E-01 -4.135099E-03 -4.134805E-03 -5.913549E-02  5.913610E-02  1.668193E-03
         9  22  2.592866E-01 -9.140058E-03 -8.306079E-03  2.380426E-10 -5.913501E-02  2.385555E-10
         9  23  2.703742E-01  9.339773E-03  1.017397E-02  8.273843E-11  5.246130E-07 -8.044283E-10
         9  24  2.592861E-01 -9.140069E-03 -8.305631E-03 -1.427427E-10  5.913609E-02 -1.045866E-09
         9  25  2.717989E-01 -4.135108E-03 -4.135291E-03 -5.913549E-02 -5.913499E-02 -1.668429E-03
         9  26  2.828866E-01  1.434474E-02  1.434479E-02  3.492610E-09  5.410919E-07 -1.668311E-03
         9  27  2.717985E-01 -4.135103E-03 -4.134811E-03  5.913549E-02  5.913611E-02 -1.668186E-03
        10   1  2.718012E-01 -4.133998E-03 -4.132973E-03  5.913549E-02  5.913614E-02 -1.668175E-03
        10   2  2.828894E-01  1.434584E-02  1.434659E-02  4.479162E-09  6.954221E-07 -1.668329E-03
        10   3  2.718018E-01 -4.134010E-03 -4.133592E-03 -5.913549E-02 -5.913471E-02 -1.668487E-03
        10   4  2.592888E-01 -9.138945E-03 -8.303746E-03  7.422333E-11  5.913612E-02 -4.826400E-10
        10   5  2.703770E-01  9.340878E-03  1.017579E-02 -4.597384E-11  6.746961E-07  1.233687E-09
        10   6  2.592894E-01 -9.138939E-03 -8.304323E-03 -1.401963E-10 -5.913474E-02  7.300261E-10
        10   7  2.718012E-01 -4.134002E-03 -4.132979E-03 -5.913549E-02  5.913614E-02  1.668183E-03
        10   8  2.828894E-01  1.434585E-02  1.434662E-02 -4.649589E-09  6.953194E-07  1.668329E-03
        10   9  2.718018E-01 -4.134015E-03 -4.133604E-03  5.913549E-02 -5.913472E-02  1.668484E-03
        10  10  2.592886E-01 -8.304809E-03 -9.138198E-03  5.913549E-02  6.354436E-07  1.491080E-07
        10  11  2.703765E-01  1.017504E-02  9.341645E-03 -1.323610E-10  6.761523E-07  4.081176E-09
        10  12  2.592886E-01 -8.304805E-03 -9.138213E-03 -5.913549E-02  7.548264E-07 -1.572984E-07
        10  13  2.467762E-01 -1.330977E-02 -1.330899E-02 -2.464614E-11  6.154017E-07 -7.926410E-10
        10  14  2.578641E-01  5.170076E-03  5.170838E-03  4.252248E-11  6.549132E-07 -1.221707E-09
        10  15  2.467762E-01 -1.330977E-02 -1.330902E-02  9.564878E-11  7.313296E-07  1.303062E-09
        10  16  2.592886E-01 -8.304812E-03 -9.138202E-03 -5.913549E-02  6.361619E-07 -1.515801E-07
        10  17  2.703765E-01  1.017503E-02  9.341630E-03  2.707842E-10  6.765628E-07  2.626432E-10
        10  18  2.592886E-01 -8.304804E-03 -9.138209E-03  5.913549E-02  7.550658E-07  1.568859E-07
        10  19  2.718008E-01 -4.134011E-03 -4.133534E-03  5.913548E-02 -5.913483E-02  1.668465E-03
        10  20  2.828884E-01  1.434584E-02  1.434660E-02 -4.276698E-09  6.955576E-07  1.668308E-03
        10  21  2.718002E-01 -4.134017E-03 -4.132912E-03 -5.913549E-02  5.913626E-02  1.668154E-03
        10  22  2.592884E-01 -9.138977E-03 -8.304350E-03 -9.336297E-11 -5.913486E-02  2.656417E-10
        10  23  2.703760E-01  9.340858E-03  1.017576E-02 -4.911601E-11  6.739765E-07 -9.405339E-10
        10  24  2.592878E-01 -9.138977E-03 -8.303716E-03 -5.208381E-11  5.913624E-02 -9.630913E-10
        10  25  2.718008E-01 -4.134013E-03 -4.133535E-03 -5.913548E-02 -5.913483E-02 -1.668462E-03
        10  26  2.828884E-01  1.434584E-02  1.434661E-02  4.096468E-09  6.956261E-07 -1.668307E-03
        10  27  2.718002E-01 -4.134014E-03 -4.132905E-03  5.913549E-02  5.913626E-02 -1.668153E-03
