
                        S T E P       1


                                INCREMENT     1


 stresses (elem, integ.pnt.,sxx,syy,szz,sxy,sxz,syz) for set EALL and time  0.1000000E+01

         1   1  5.656854E+00  1.278977E-13  5.656854E+00  4.967977E-14  5.656854E+00 -4.668424E-14
         1   2  5.656854E+00 -5.417888E-14  5.656854E+00 -1.055499E-13  5.656854E+00  1.946821E-14
         1   3  5.656854E+00  1.865175E-13  5.656854E+00  6.029988E-14  5.656854E+00 -8.823228E-14
         1   4  5.656854E+00 -1.003642E-13  5.656854E+00 -1.228599E-13  5.656854E+00  4.568118E-15
         1   5  5.656854E+00 -9.769963E-14  5.656854E+00 -1.328662E-13  5.656854E+00 -1.282380E-13
         1   6  5.656854E+00 -1.421085E-13  5.656854E+00 -2.664906E-13  5.656854E+00 -1.766691E-13
         1   7  5.656854E+00 -4.352074E-14  5.656854E+00 -1.166721E-13  5.656854E+00 -1.687298E-13
         1   8  5.656854E+00 -2.096101E-13  5.656854E+00 -2.931763E-13  5.656854E+00 -1.907166E-13
         2   1  5.656854E+00  7.727152E-14  5.656854E+00 -4.636204E-14 -5.656854E+00 -2.090409E-14
         2   2  5.656854E+00 -5.062617E-14  5.656854E+00 -2.731218E-14 -5.656854E+00  4.032393E-14
         2   3  5.656854E+00 -5.595524E-14  5.656854E+00 -2.031491E-14 -5.656854E+00  1.476748E-15
         2   4  5.656854E+00  1.154632E-14  5.656854E+00 -1.641518E-14 -5.656854E+00  4.780597E-14
         2   5  5.656854E+00  5.062617E-14  5.656854E+00  9.644809E-14 -5.656854E+00 -1.852378E-14
         2   6  5.656854E+00 -5.329071E-15  5.656854E+00 -8.289629E-15 -5.656854E+00 -3.541660E-14
         2   7  5.656854E+00 -6.661338E-14  5.656854E+00  1.089167E-13 -5.656854E+00  4.264290E-15
         2   8  5.656854E+00  6.128431E-14  5.656854E+00 -1.245383E-15 -5.656854E+00 -2.768323E-14
