
                        S T E P       1


                                INCREMENT     1


 stresses (elem, integ.pnt.,sxx,syy,szz,sxy,sxz,syz) for set EALL and time  0.1000000E+01

         1   1  5.656854E+00  1.385558E-13  5.656854E+00  3.484570E-14  5.656854E+00 -1.323124E-13
         1   2  5.656854E+00 -2.753353E-14  5.656854E+00  5.535261E-14  5.656854E+00 -3.151170E-14
         1   3  5.656854E+00  1.074696E-13  5.656854E+00  3.544049E-14  5.656854E+00 -1.262767E-13
         1   4  5.656854E+00 -9.592327E-14  5.656854E+00  3.354353E-14  5.656854E+00 -1.565797E-14
         1   5  5.656854E+00  1.509903E-14  5.656854E+00 -1.076335E-13  5.656854E+00 -1.770688E-13
         1   6  5.656854E+00 -9.681145E-14  5.656854E+00 -2.114136E-13  5.656854E+00 -2.568193E-13
         1   7  5.656854E+00 -2.309264E-14  5.656854E+00 -1.104747E-13  5.656854E+00 -1.705622E-13
         1   8  5.656854E+00 -1.847411E-13  5.656854E+00 -2.236974E-13  5.656854E+00 -2.405043E-13
         2   1  5.656854E+00 -3.552714E-15  5.656854E+00 -6.523487E-14 -5.656854E+00  6.574550E-14
         2   2  5.656854E+00 -4.529710E-14  5.656854E+00  3.210886E-15 -5.656854E+00  1.406924E-14
         2   3  5.656854E+00 -5.417888E-14  5.656854E+00 -5.753241E-14 -5.656854E+00  7.935324E-14
         2   4  5.656854E+00 -1.181277E-13  5.656854E+00  2.049787E-15 -5.656854E+00  1.713679E-14
         2   5  5.656854E+00  8.526513E-14  5.656854E+00  5.581468E-14 -5.656854E+00 -2.137450E-14
         2   6  5.656854E+00  7.815970E-14  5.656854E+00 -2.555470E-14 -5.656854E+00  7.352882E-14
         2   7  5.656854E+00  5.595524E-14  5.656854E+00  6.308446E-14 -5.656854E+00 -7.537693E-15
         2   8  5.656854E+00  2.398082E-14  5.656854E+00 -2.879648E-14 -5.656854E+00  7.703860E-14
