
                        S T E P       1


                                INCREMENT     1


 displacements (v(i),i=1..ndof) for set NALL and time  0.1000000E+01

         1  0.000000E+00  0.000000E+00  0.000000E+00  0.000000E+00  0.000000E+00  0.000000E+00
         2  0.000000E+00  1.022509E-01  0.000000E+00  0.000000E+00  0.000000E+00  1.536004E-02

 stresses (elem, integ.pnt.,sxx,syy,szz,sxy,sxz,syz) for set EALL and time  0.1000000E+01

         1   1  0.000000E+00 -0.000000E+00  9.980537E+00  0.000000E+00  9.961074E-01  0.000000E+00
         1   2  0.000000E+00 -0.000000E+00  1.946278E-02  0.000000E+00  9.961074E-01  0.000000E+00
